LAMMPS (2 Apr 2025)
OMP_NUM_THREADS environment is not set. Defaulting to 1 thread. (src/comm.cpp:99)
  using 1 OpenMP thread(s) per MPI task
Loaded 1 plugins from C:\Users\ahmet\AppData\Local\LAMMPS 64-bit 2Apr2025\plugins
# LAMMPS Stage 2: CG Harmonic Ramp (Reference Logic)

read_restart    1.restart
Reading restart file ...
  restart file = 2 Apr 2025, LAMMPS = 2 Apr 2025
  restoring atom style full from restart
  orthogonal box = (0 0 0) to (17.34957 17.34957 17.34957)
  1 by 1 by 1 MPI processor grid
  restoring pair style soft from restart
  restoring bond style harmonic from restart
  restoring angle style harmonic from restart
  4439 atoms
  4533 bonds
  4924 angles
Finding 1-2 1-3 1-4 neighbors ...
  special bond factors lj:    0        1        1       
  special bond factors coul:  0        0        0       
     5 = max # of 1-2 neighbors
     5 = max # of 1-3 neighbors
    10 = max # of 1-4 neighbors
    15 = max # of special neighbors
  special bonds CPU = 0.001 seconds
  read_restart CPU = 0.002 seconds

neighbor        2.0 bin
neigh_modify    every 1 delay 0 check yes
comm_modify     mode single cutoff 5.0

# SWITCH TO HARMONIC for Robust Minimization
bond_style      harmonic
bond_coeff      1 466.1 0.97
angle_style     harmonic
angle_coeff     1 466.1 180.0

# Soft to Real Potential Ramp
pair_style      soft 1.0
pair_coeff      * * 1.0
min_style       cg
minimize        1e-4 1e-6 1000 10000
Generated 0 of 1 mixed pair_coeff terms from geometric mixing rule
Neighbor list info ...
  update: every = 1 steps, delay = 0 steps, check = yes
  max neighbors/atom: 2000, page size: 100000
  master list distance cutoff = 3
  ghost atom cutoff = 5
  binsize = 1.5, bins = 12 12 12
  1 neighbor lists, perpetual/occasional/extra = 1 0 0
  (1) pair soft, perpetual
      attributes: half, newton on
      pair build: half/bin/newton
      stencil: half/bin/3d
      bin: standard
WARNING: Inconsistent image flags
For more information see https://docs.lammps.org/err0027 (src/domain.cpp:1052)
Per MPI rank memory allocation (min/avg/max) = 22.61 | 22.61 | 22.61 Mbytes
   Step          Temp          E_pair         E_mol          TotEng         Press     
       161   0              2.8153206      391.79081      394.60613      42.295487    
       164   0              2.8143171      391.62115      394.43547      42.309283    
Loop time of 0.025985 on 1 procs for 3 steps with 4439 atoms

60.1% CPU use with 1 MPI tasks x 1 OpenMP threads

Minimization stats:
  Stopping criterion = energy tolerance
  Energy initial, next-to-last, final = 
      394.606131590851   394.438008910067   394.435470157381
  Force two-norm initial, final = 46477.009 36004.184
  Force max component initial, final = 19914.986 12848.503
  Final line search alpha, max atom move = 5.5873078e-05 0.71788543
  Iterations, force evaluations = 3 13

MPI task timing breakdown:
Section |  min time  |  avg time  |  max time  |%varavg| %total
---------------------------------------------------------------
Pair    | 0.023384   | 0.023384   | 0.023384   |   0.0 | 89.99
Bond    | 0.001897   | 0.001897   | 0.001897   |   0.0 |  7.30
Neigh   | 0          | 0          | 0          |   0.0 |  0.00
Comm    | 0.000329   | 0.000329   | 0.000329   |   0.0 |  1.27
Output  | 0          | 0          | 0          |   0.0 |  0.00
Modify  | 0          | 0          | 0          |   0.0 |  0.00
Other   |            | 0.000375   |            |       |  1.44

Nlocal:           4439 ave        4439 max        4439 min
Histogram: 1 0 0 0 0 0 0 0 0 0
Nghost:          13210 ave       13210 max       13210 min
Histogram: 1 0 0 0 0 0 0 0 0 0
Neighs:         183962 ave      183962 max      183962 min
Histogram: 1 0 0 0 0 0 0 0 0 0

Total # of neighbors = 183962
Ave neighs/atom = 41.442217
Ave special neighs/atom = 6.6393332
Neighbor list builds = 0
Dangerous builds = 0

pair_style      lj/cut 2.5
pair_coeff      * * 1.0 1.0 2.5
variable        scale equal "ramp(0.001, 1.0)"
fix             1 all adapt 1 pair lj/cut epsilon * * v_scale
fix             fxnve all nve/limit 0.1
thermo          1000
run             20000
Generated 0 of 1 mixed pair_coeff terms from geometric mixing rule
Neighbor list info ...
  update: every = 1 steps, delay = 0 steps, check = yes
  max neighbors/atom: 2000, page size: 100000
  master list distance cutoff = 4.5
  ghost atom cutoff = 5
  binsize = 2.25, bins = 8 8 8
  1 neighbor lists, perpetual/occasional/extra = 1 0 0
  (1) pair lj/cut, perpetual
      attributes: half, newton on
      pair build: half/bin/newton
      stencil: half/bin/3d
      bin: standard
WARNING: Inconsistent image flags
For more information see https://docs.lammps.org/err0027 (src/domain.cpp:1052)
Per MPI rank memory allocation (min/avg/max) = 22.87 | 22.87 | 22.87 Mbytes
   Step          Temp          E_pair         E_mol          TotEng         Press     
       164   0              688419.69      391.62115      688811.31      2340677.2    
      1000   29.430619      4.2551498      192.38939      240.78053      24.680321    
      2000   25.888777      3.6475071      180.63809      223.11002      27.349041    
      3000   23.726168      3.7154689      176.02948      215.32619      27.59546     
      4000   22.503926      3.7073406      173.6911       211.14673      28.100304    
      5000   21.430811      3.6206475      172.26542      208.02504      29.372488    
      6000   21.408301      2.9134823      171.48037      206.49907      28.254602    
      7000   20.387096      3.3379311      170.8656       204.77729      30.258855    
      8000   20.11488       3.2482305      170.54056      203.95432      30.856853    
      9000   19.929796      2.8185196      169.3939       202.10038      30.908169    
     10000   19.589603      2.7382964      169.47344      201.58952      31.824615    
     11000   19.466197      2.5122035      169.16107      200.866        31.965486    
     12000   19.352203      2.3523037      168.5942       199.96827      32.148629    
     13000   18.898722      2.1707613      168.68291      199.19537      32.586511    
     14000   18.789599      1.8568923      168.59382      198.62876      31.967572    
     15000   18.69871       1.7429832      168.41597      198.2007       32.974728    
     16000   18.49386       1.7405821      168.21048      197.68561      34.144851    
     17000   18.51348       1.4721235      168.13919      197.37528      34.287795    
     18000   18.282252      1.5526278      168.20544      197.17527      35.013885    
     19000   18.064212      1.1841004      168.57223      196.84655      34.479423    
     20000   18.143733      0.78225867     168.28638      196.27811      34.310563    
     20164   18.366645      0.99790264     167.58014      196.1218       35.94054     
Loop time of 64.8325 on 1 procs for 20000 steps with 4439 atoms

Performance: 133266.484 tau/day, 308.487 timesteps/s, 1.369 Matom-step/s
96.6% CPU use with 1 MPI tasks x 1 OpenMP threads

MPI task timing breakdown:
Section |  min time  |  avg time  |  max time  |%varavg| %total
---------------------------------------------------------------
Pair    | 45.705     | 45.705     | 45.705     |   0.0 | 70.50
Bond    | 3.33       | 3.33       | 3.33       |   0.0 |  5.14
Neigh   | 14.574     | 14.574     | 14.574     |   0.0 | 22.48
Comm    | 0.60382    | 0.60382    | 0.60382    |   0.0 |  0.93
Output  | 0.000335   | 0.000335   | 0.000335   |   0.0 |  0.00
Modify  | 0.40234    | 0.40234    | 0.40234    |   0.0 |  0.62
Other   |            | 0.2165     |            |       |  0.33

Nlocal:           4439 ave        4439 max        4439 min
Histogram: 1 0 0 0 0 0 0 0 0 0
Nghost:          12888 ave       12888 max       12888 min
Histogram: 1 0 0 0 0 0 0 0 0 0
Neighs:         713982 ave      713982 max      713982 min
Histogram: 1 0 0 0 0 0 0 0 0 0

Total # of neighbors = 713982
Ave neighs/atom = 160.84298
Ave special neighs/atom = 6.6393332
Neighbor list builds = 1118
Dangerous builds = 0
unfix           fxnve
unfix           1

write_restart   2.restart
System init for write_restart ...
Generated 0 of 1 mixed pair_coeff terms from geometric mixing rule
write_data      system_ramped.data
System init for write_data ...
Generated 0 of 1 mixed pair_coeff terms from geometric mixing rule
WARNING: Not all mixed pair coeffs generated from mixing. Use write_data with 'pair ij' option to store all pair coeffs. (src/write_data.cpp:364)
Total wall time: 0:01:04
