LAMMPS data file (Kremer-Grest CG)

4439 atoms
4533 bonds
4924 angles

2 atom types
1 bond types
1 angle types

0.000000 17.349570 xlo xhi
0.000000 17.349570 ylo yhi
0.000000 17.349570 zlo zhi

Masses

1 1.0 # A
2 1.0 # B

Pair Coeffs

1 1.0 1.0 2.5
2 1.0 1.0 2.5

Bond Coeffs

1 466.1 0.97

Angle Coeffs

1 466.1 180.0

Atoms # full

1 1 1 0.0 0.000000 0.000000 0.000000
2 1 1 0.0 3.469914 0.000000 0.000000
3 1 1 0.0 6.939828 0.000000 0.000000
4 1 1 0.0 10.409742 0.000000 0.000000
5 1 1 0.0 13.879656 0.000000 0.000000
6 1 1 0.0 0.000000 3.469914 0.000000
7 1 1 0.0 6.939828 3.469914 0.000000
8 1 1 0.0 10.409742 3.469914 0.000000
9 1 1 0.0 13.879656 3.469914 0.000000
10 1 1 0.0 0.000000 6.939828 0.000000
11 1 1 0.0 3.469914 6.939828 0.000000
12 1 1 0.0 6.939828 6.939828 0.000000
13 1 1 0.0 10.409742 6.939828 0.000000
14 1 1 0.0 13.879656 6.939828 0.000000
15 1 1 0.0 0.000000 10.409742 0.000000
16 1 1 0.0 3.469914 10.409742 0.000000
17 1 1 0.0 6.939828 10.409742 0.000000
18 1 1 0.0 0.0 0.0 0.0
19 1 1 0.0 0.0 0.0 0.0
20 1 1 0.0 0.0 0.0 0.0
21 1 1 0.0 10.409742 10.409742 0.000000
22 1 1 0.0 13.879656 10.409742 0.000000
23 1 1 0.0 0.000000 13.879656 0.000000
24 1 1 0.0 3.469914 13.879656 0.000000
25 1 1 0.0 6.939828 13.879656 0.000000
26 1 1 0.0 10.409742 13.879656 0.000000
27 1 1 0.0 13.879656 13.879656 0.000000
28 1 1 0.0 0.000000 0.000000 3.469914
29 1 1 0.0 3.469914 0.000000 3.469914
30 1 1 0.0 6.939828 0.000000 3.469914
31 1 1 0.0 10.409742 0.000000 3.469914
32 1 1 0.0 13.879656 0.000000 3.469914
33 1 1 0.0 0.000000 3.469914 3.469914
34 1 1 0.0 3.469914 3.469914 3.469914
35 1 1 0.0 6.939828 3.469914 3.469914
36 1 1 0.0 10.409742 3.469914 3.469914
37 1 1 0.0 13.879656 3.469914 3.469914
38 1 1 0.0 0.000000 6.939828 3.469914
39 1 1 0.0 3.469914 6.939828 3.469914
40 1 1 0.0 6.939828 6.939828 3.469914
41 1 1 0.0 10.409742 6.939828 3.469914
42 1 1 0.0 13.879656 6.939828 3.469914
43 1 1 0.0 0.000000 10.409742 3.469914
44 1 1 0.0 6.939828 10.409742 3.469914
45 1 1 0.0 10.409742 10.409742 3.469914
46 1 1 0.0 13.879656 10.409742 3.469914
47 1 1 0.0 0.000000 13.879656 3.469914
48 1 1 0.0 3.469914 13.879656 3.469914
49 1 1 0.0 6.939828 13.879656 3.469914
50 1 1 0.0 0.0 0.0 0.0
51 1 1 0.0 0.0 0.0 0.0
52 1 1 0.0 0.0 0.0 0.0
53 1 1 0.0 10.409742 13.879656 3.469914
54 1 1 0.0 13.879656 13.879656 3.469914
55 1 1 0.0 0.000000 0.000000 6.939828
56 1 1 0.0 0.0 0.0 0.0
57 1 1 0.0 0.0 0.0 0.0
58 1 1 0.0 0.0 0.0 0.0
59 1 1 0.0 6.939828 0.000000 6.939828
60 1 1 0.0 10.409742 0.000000 6.939828
61 1 1 0.0 13.879656 0.000000 6.939828
62 1 1 0.0 0.000000 3.469914 6.939828
63 1 1 0.0 3.469914 3.469914 6.939828
64 1 1 0.0 6.939828 3.469914 6.939828
65 1 1 0.0 10.409742 3.469914 6.939828
66 1 1 0.0 13.879656 3.469914 6.939828
67 1 1 0.0 0.000000 6.939828 6.939828
68 1 1 0.0 3.469914 6.939828 6.939828
69 1 1 0.0 6.939828 6.939828 6.939828
70 1 1 0.0 10.409742 6.939828 6.939828
71 1 1 0.0 13.879656 6.939828 6.939828
72 1 1 0.0 3.469914 10.409742 6.939828
73 1 1 0.0 6.939828 10.409742 6.939828
74 1 1 0.0 10.409742 10.409742 6.939828
75 1 1 0.0 13.879656 10.409742 6.939828
76 1 1 0.0 0.000000 13.879656 6.939828
77 1 1 0.0 3.469914 13.879656 6.939828
78 1 1 0.0 6.939828 13.879656 6.939828
79 1 1 0.0 0.0 0.0 0.0
80 1 1 0.0 0.0 0.0 0.0
81 1 1 0.0 0.0 0.0 0.0
82 1 1 0.0 10.409742 13.879656 6.939828
83 1 1 0.0 13.879656 13.879656 6.939828
84 1 1 0.0 0.000000 0.000000 10.409742
85 1 1 0.0 0.0 0.0 0.0
86 1 1 0.0 0.0 0.0 0.0
87 1 1 0.0 0.0 0.0 0.0
88 1 1 0.0 3.469914 0.000000 10.409742
89 1 1 0.0 6.939828 0.000000 10.409742
90 1 1 0.0 10.409742 0.000000 10.409742
91 1 1 0.0 13.879656 0.000000 10.409742
92 1 1 0.0 0.000000 3.469914 10.409742
93 1 1 0.0 3.469914 3.469914 10.409742
94 1 1 0.0 6.939828 3.469914 10.409742
95 1 1 0.0 10.409742 3.469914 10.409742
96 1 1 0.0 13.879656 3.469914 10.409742
97 1 1 0.0 0.000000 6.939828 10.409742
98 1 1 0.0 3.469914 6.939828 10.409742
99 1 1 0.0 6.939828 6.939828 10.409742
100 1 1 0.0 10.409742 6.939828 10.409742
101 1 1 0.0 13.879656 6.939828 10.409742
102 1 1 0.0 0.000000 10.409742 10.409742
103 1 1 0.0 3.469914 10.409742 10.409742
104 1 1 0.0 6.939828 10.409742 10.409742
105 1 1 0.0 10.409742 10.409742 10.409742
106 1 1 0.0 13.879656 10.409742 10.409742
107 1 1 0.0 0.000000 13.879656 10.409742
108 1 1 0.0 3.469914 13.879656 10.409742
109 1 1 0.0 6.939828 13.879656 10.409742
110 1 1 0.0 10.409742 13.879656 10.409742
111 1 1 0.0 13.879656 13.879656 10.409742
112 1 1 0.0 0.000000 0.000000 13.879656
113 1 1 0.0 3.469914 0.000000 13.879656
114 1 1 0.0 6.939828 0.000000 13.879656
115 1 1 0.0 10.409742 0.000000 13.879656
116 1 1 0.0 13.879656 0.000000 13.879656
117 1 1 0.0 0.000000 3.469914 13.879656
118 1 1 0.0 3.469914 3.469914 13.879656
119 1 1 0.0 6.939828 3.469914 13.879656
120 1 1 0.0 10.409742 3.469914 13.879656
121 1 1 0.0 13.879656 3.469914 13.879656
122 1 1 0.0 0.000000 6.939828 13.879656
123 1 1 0.0 3.469914 6.939828 13.879656
124 1 1 0.0 6.939828 6.939828 13.879656
125 1 1 0.0 10.409742 6.939828 13.879656
126 1 1 0.0 13.879656 6.939828 13.879656
127 1 1 0.0 0.000000 10.409742 13.879656
128 1 1 0.0 0.0 0.0 0.0
129 1 1 0.0 0.0 0.0 0.0
130 1 1 0.0 0.0 0.0 0.0
131 1 1 0.0 3.469914 10.409742 13.879656
132 1 1 0.0 6.939828 10.409742 13.879656
133 1 1 0.0 10.409742 10.409742 13.879656
134 1 1 0.0 13.879656 10.409742 13.879656
135 1 1 0.0 0.000000 13.879656 13.879656
136 1 1 0.0 3.469914 13.879656 13.879656
137 1 1 0.0 6.939828 13.879656 13.879656
138 1 1 0.0 10.409742 13.879656 13.879656
139 1 1 0.0 13.879656 13.879656 13.879656
140 1 2 0.0 0.000000 0.165234 0.000000
141 1 2 0.0 0.000000 0.330468 0.000000
142 1 2 0.0 0.000000 0.495702 0.000000
143 1 2 0.0 0.000000 0.660935 0.000000
144 1 2 0.0 0.000000 0.826169 0.000000
145 1 2 0.0 0.000000 0.991403 0.000000
146 1 2 0.0 0.000000 1.156637 0.000000
147 1 2 0.0 0.000000 1.321871 0.000000
148 1 2 0.0 0.000000 1.487105 0.000000
149 1 2 0.0 0.000000 1.652338 0.000000
150 1 2 0.0 0.000000 1.817576 0.000000
151 1 2 0.0 0.000000 1.982809 0.000000
152 1 2 0.0 0.000000 2.148043 0.000000
153 1 2 0.0 0.000000 2.313277 0.000000
154 1 2 0.0 0.000000 2.478511 0.000000
155 1 2 0.0 0.000000 2.643745 0.000000
156 1 2 0.0 0.000000 2.808979 0.000000
157 1 2 0.0 0.000000 2.974212 0.000000
158 1 2 0.0 0.000000 3.139446 0.000000
159 1 2 0.0 0.000000 3.304680 0.000000
160 1 2 0.0 17.184336 0.000000 0.000000
161 1 2 0.0 17.019102 0.000000 0.000000
162 1 2 0.0 16.853868 0.000000 0.000000
163 1 2 0.0 16.688635 0.000000 0.000000
164 1 2 0.0 16.523401 0.000000 0.000000
165 1 2 0.0 16.358167 0.000000 0.000000
166 1 2 0.0 16.192933 0.000000 0.000000
167 1 2 0.0 16.027699 0.000000 0.000000
168 1 2 0.0 15.862465 0.000000 0.000000
169 1 2 0.0 15.697232 0.000000 0.000000
170 1 2 0.0 15.531994 0.000000 0.000000
171 1 2 0.0 15.366761 0.000000 0.000000
172 1 2 0.0 15.201527 0.000000 0.000000
173 1 2 0.0 15.036293 0.000000 0.000000
174 1 2 0.0 14.871059 0.000000 0.000000
175 1 2 0.0 14.705825 0.000000 0.000000
176 1 2 0.0 14.540591 0.000000 0.000000
177 1 2 0.0 14.375358 0.000000 0.000000
178 1 2 0.0 14.210124 0.000000 0.000000
179 1 2 0.0 14.044890 0.000000 0.000000
180 1 2 0.0 0.000000 17.184336 0.000000
181 1 2 0.0 0.000000 17.019102 0.000000
182 1 2 0.0 0.000000 16.853868 0.000000
183 1 2 0.0 0.000000 16.688635 0.000000
184 1 2 0.0 0.000000 16.523401 0.000000
185 1 2 0.0 0.000000 16.358167 0.000000
186 1 2 0.0 0.000000 16.192933 0.000000
187 1 2 0.0 0.000000 16.027699 0.000000
188 1 2 0.0 0.000000 15.862465 0.000000
189 1 2 0.0 0.000000 15.697232 0.000000
190 1 2 0.0 0.000000 15.531994 0.000000
191 1 2 0.0 0.000000 15.366761 0.000000
192 1 2 0.0 0.000000 15.201527 0.000000
193 1 2 0.0 0.000000 15.036293 0.000000
194 1 2 0.0 0.000000 14.871059 0.000000
195 1 2 0.0 0.000000 14.705825 0.000000
196 1 2 0.0 0.000000 14.540591 0.000000
197 1 2 0.0 0.000000 14.375358 0.000000
198 1 2 0.0 0.000000 14.210124 0.000000
199 1 2 0.0 0.000000 14.044890 0.000000
200 1 2 0.0 3.635148 0.000000 0.000000
201 1 2 0.0 3.800382 0.000000 0.000000
202 1 2 0.0 3.965616 0.000000 0.000000
203 1 2 0.0 4.130849 0.000000 0.000000
204 1 2 0.0 4.296083 0.000000 0.000000
205 1 2 0.0 4.461317 0.000000 0.000000
206 1 2 0.0 4.626551 0.000000 0.000000
207 1 2 0.0 4.791785 0.000000 0.000000
208 1 2 0.0 4.957019 0.000000 0.000000
209 1 2 0.0 5.122252 0.000000 0.000000
210 1 2 0.0 5.287490 0.000000 0.000000
211 1 2 0.0 5.452723 0.000000 0.000000
212 1 2 0.0 5.617957 0.000000 0.000000
213 1 2 0.0 5.783191 0.000000 0.000000
214 1 2 0.0 5.948425 0.000000 0.000000
215 1 2 0.0 6.113659 0.000000 0.000000
216 1 2 0.0 6.278893 0.000000 0.000000
217 1 2 0.0 6.444126 0.000000 0.000000
218 1 2 0.0 6.609360 0.000000 0.000000
219 1 2 0.0 6.774594 0.000000 0.000000
220 1 2 0.0 3.469914 0.000000 0.165234
221 1 2 0.0 3.469914 0.000000 0.330468
222 1 2 0.0 3.469914 0.000000 0.495702
223 1 2 0.0 3.469914 0.000000 0.660935
224 1 2 0.0 3.469914 0.000000 0.826169
225 1 2 0.0 3.469914 0.000000 0.991403
226 1 2 0.0 3.469914 0.000000 1.156637
227 1 2 0.0 3.469914 0.000000 1.321871
228 1 2 0.0 3.469914 0.000000 1.487105
229 1 2 0.0 3.469914 0.000000 1.652338
230 1 2 0.0 3.469914 0.000000 1.817576
231 1 2 0.0 3.469914 0.000000 1.982809
232 1 2 0.0 3.469914 0.000000 2.148043
233 1 2 0.0 3.469914 0.000000 2.313277
234 1 2 0.0 3.469914 0.000000 2.478511
235 1 2 0.0 3.469914 0.000000 2.643745
236 1 2 0.0 3.469914 0.000000 2.808979
237 1 2 0.0 3.469914 0.000000 2.974212
238 1 2 0.0 3.469914 0.000000 3.139446
239 1 2 0.0 3.469914 0.000000 3.304680
240 1 2 0.0 3.469914 17.184336 0.000000
241 1 2 0.0 3.469914 17.019102 0.000000
242 1 2 0.0 3.469914 16.853868 0.000000
243 1 2 0.0 3.469914 16.688635 0.000000
244 1 2 0.0 3.469914 16.523401 0.000000
245 1 2 0.0 3.469914 16.358167 0.000000
246 1 2 0.0 3.469914 16.192933 0.000000
247 1 2 0.0 3.469914 16.027699 0.000000
248 1 2 0.0 3.469914 15.862465 0.000000
249 1 2 0.0 3.469914 15.697232 0.000000
250 1 2 0.0 3.469914 15.531994 0.000000
251 1 2 0.0 3.469914 15.366761 0.000000
252 1 2 0.0 3.469914 15.201527 0.000000
253 1 2 0.0 3.469914 15.036293 0.000000
254 1 2 0.0 3.469914 14.871059 0.000000
255 1 2 0.0 3.469914 14.705825 0.000000
256 1 2 0.0 3.469914 14.540591 0.000000
257 1 2 0.0 3.469914 14.375358 0.000000
258 1 2 0.0 3.469914 14.210124 0.000000
259 1 2 0.0 3.469914 14.044890 0.000000
260 1 2 0.0 7.105062 0.000000 0.000000
261 1 2 0.0 7.270296 0.000000 0.000000
262 1 2 0.0 7.435530 0.000000 0.000000
263 1 2 0.0 7.600763 0.000000 0.000000
264 1 2 0.0 7.765997 0.000000 0.000000
265 1 2 0.0 7.931231 0.000000 0.000000
266 1 2 0.0 8.096465 0.000000 0.000000
267 1 2 0.0 8.261699 0.000000 0.000000
268 1 2 0.0 8.426933 0.000000 0.000000
269 1 2 0.0 8.592166 0.000000 0.000000
270 1 2 0.0 8.757404 0.000000 0.000000
271 1 2 0.0 8.922637 0.000000 0.000000
272 1 2 0.0 9.087871 0.000000 0.000000
273 1 2 0.0 9.253105 0.000000 0.000000
274 1 2 0.0 9.418339 0.000000 0.000000
275 1 2 0.0 9.583573 0.000000 0.000000
276 1 2 0.0 9.748807 0.000000 0.000000
277 1 2 0.0 9.914040 0.000000 0.000000
278 1 2 0.0 10.079274 0.000000 0.000000
279 1 2 0.0 10.244508 0.000000 0.000000
280 1 2 0.0 6.939828 0.000000 0.165234
281 1 2 0.0 6.939828 0.000000 0.330468
282 1 2 0.0 6.939828 0.000000 0.495702
283 1 2 0.0 6.939828 0.000000 0.660935
284 1 2 0.0 6.939828 0.000000 0.826169
285 1 2 0.0 6.939828 0.000000 0.991403
286 1 2 0.0 6.939828 0.000000 1.156637
287 1 2 0.0 6.939828 0.000000 1.321871
288 1 2 0.0 6.939828 0.000000 1.487105
289 1 2 0.0 6.939828 0.000000 1.652338
290 1 2 0.0 6.939828 0.000000 1.817576
291 1 2 0.0 6.939828 0.000000 1.982809
292 1 2 0.0 6.939828 0.000000 2.148043
293 1 2 0.0 6.939828 0.000000 2.313277
294 1 2 0.0 6.939828 0.000000 2.478511
295 1 2 0.0 6.939828 0.000000 2.643745
296 1 2 0.0 6.939828 0.000000 2.808979
297 1 2 0.0 6.939828 0.000000 2.974212
298 1 2 0.0 6.939828 0.000000 3.139446
299 1 2 0.0 6.939828 0.000000 3.304680
300 1 2 0.0 6.939828 17.184336 0.000000
301 1 2 0.0 6.939828 17.019102 0.000000
302 1 2 0.0 6.939828 16.853868 0.000000
303 1 2 0.0 6.939828 16.688635 0.000000
304 1 2 0.0 6.939828 16.523401 0.000000
305 1 2 0.0 6.939828 16.358167 0.000000
306 1 2 0.0 6.939828 16.192933 0.000000
307 1 2 0.0 6.939828 16.027699 0.000000
308 1 2 0.0 6.939828 15.862465 0.000000
309 1 2 0.0 6.939828 15.697232 0.000000
310 1 2 0.0 6.939828 15.531994 0.000000
311 1 2 0.0 6.939828 15.366761 0.000000
312 1 2 0.0 6.939828 15.201527 0.000000
313 1 2 0.0 6.939828 15.036293 0.000000
314 1 2 0.0 6.939828 14.871059 0.000000
315 1 2 0.0 6.939828 14.705825 0.000000
316 1 2 0.0 6.939828 14.540591 0.000000
317 1 2 0.0 6.939828 14.375358 0.000000
318 1 2 0.0 6.939828 14.210124 0.000000
319 1 2 0.0 6.939828 14.044890 0.000000
320 1 2 0.0 10.574976 0.000000 0.000000
321 1 2 0.0 10.740210 0.000000 0.000000
322 1 2 0.0 10.905444 0.000000 0.000000
323 1 2 0.0 11.070677 0.000000 0.000000
324 1 2 0.0 11.235911 0.000000 0.000000
325 1 2 0.0 11.401145 0.000000 0.000000
326 1 2 0.0 11.566379 0.000000 0.000000
327 1 2 0.0 11.731613 0.000000 0.000000
328 1 2 0.0 11.896847 0.000000 0.000000
329 1 2 0.0 12.062080 0.000000 0.000000
330 1 2 0.0 12.227318 0.000000 0.000000
331 1 2 0.0 12.392551 0.000000 0.000000
332 1 2 0.0 12.557785 0.000000 0.000000
333 1 2 0.0 12.723019 0.000000 0.000000
334 1 2 0.0 12.888253 0.000000 0.000000
335 1 2 0.0 13.053487 0.000000 0.000000
336 1 2 0.0 13.218721 0.000000 0.000000
337 1 2 0.0 13.383954 0.000000 0.000000
338 1 2 0.0 13.549188 0.000000 0.000000
339 1 2 0.0 13.714422 0.000000 0.000000
340 1 2 0.0 10.409742 0.165234 0.000000
341 1 2 0.0 10.409742 0.330468 0.000000
342 1 2 0.0 10.409742 0.495702 0.000000
343 1 2 0.0 10.409742 0.660935 0.000000
344 1 2 0.0 10.409742 0.826169 0.000000
345 1 2 0.0 10.409742 0.991403 0.000000
346 1 2 0.0 10.409742 1.156637 0.000000
347 1 2 0.0 10.409742 1.321871 0.000000
348 1 2 0.0 10.409742 1.487105 0.000000
349 1 2 0.0 10.409742 1.652338 0.000000
350 1 2 0.0 10.409742 1.817576 0.000000
351 1 2 0.0 10.409742 1.982809 0.000000
352 1 2 0.0 10.409742 2.148043 0.000000
353 1 2 0.0 10.409742 2.313277 0.000000
354 1 2 0.0 10.409742 2.478511 0.000000
355 1 2 0.0 10.409742 2.643745 0.000000
356 1 2 0.0 10.409742 2.808979 0.000000
357 1 2 0.0 10.409742 2.974212 0.000000
358 1 2 0.0 10.409742 3.139446 0.000000
359 1 2 0.0 10.409742 3.304680 0.000000
360 1 2 0.0 10.409742 0.000000 0.165234
361 1 2 0.0 10.409742 0.000000 0.330468
362 1 2 0.0 10.409742 0.000000 0.495702
363 1 2 0.0 10.409742 0.000000 0.660935
364 1 2 0.0 10.409742 0.000000 0.826169
365 1 2 0.0 10.409742 0.000000 0.991403
366 1 2 0.0 10.409742 0.000000 1.156637
367 1 2 0.0 10.409742 0.000000 1.321871
368 1 2 0.0 10.409742 0.000000 1.487105
369 1 2 0.0 10.409742 0.000000 1.652338
370 1 2 0.0 10.409742 0.000000 1.817576
371 1 2 0.0 10.409742 0.000000 1.982809
372 1 2 0.0 10.409742 0.000000 2.148043
373 1 2 0.0 10.409742 0.000000 2.313277
374 1 2 0.0 10.409742 0.000000 2.478511
375 1 2 0.0 10.409742 0.000000 2.643745
376 1 2 0.0 10.409742 0.000000 2.808979
377 1 2 0.0 10.409742 0.000000 2.974212
378 1 2 0.0 10.409742 0.000000 3.139446
379 1 2 0.0 10.409742 0.000000 3.304680
380 1 2 0.0 13.879656 0.165234 0.000000
381 1 2 0.0 13.879656 0.330468 0.000000
382 1 2 0.0 13.879656 0.495702 0.000000
383 1 2 0.0 13.879656 0.660935 0.000000
384 1 2 0.0 13.879656 0.826169 0.000000
385 1 2 0.0 13.879656 0.991403 0.000000
386 1 2 0.0 13.879656 1.156637 0.000000
387 1 2 0.0 13.879656 1.321871 0.000000
388 1 2 0.0 13.879656 1.487105 0.000000
389 1 2 0.0 13.879656 1.652338 0.000000
390 1 2 0.0 13.879656 1.817576 0.000000
391 1 2 0.0 13.879656 1.982809 0.000000
392 1 2 0.0 13.879656 2.148043 0.000000
393 1 2 0.0 13.879656 2.313277 0.000000
394 1 2 0.0 13.879656 2.478511 0.000000
395 1 2 0.0 13.879656 2.643745 0.000000
396 1 2 0.0 13.879656 2.808979 0.000000
397 1 2 0.0 13.879656 2.974212 0.000000
398 1 2 0.0 13.879656 3.139446 0.000000
399 1 2 0.0 13.879656 3.304680 0.000000
400 1 2 0.0 13.879656 0.000000 0.165234
401 1 2 0.0 13.879656 0.000000 0.330468
402 1 2 0.0 13.879656 0.000000 0.495702
403 1 2 0.0 13.879656 0.000000 0.660935
404 1 2 0.0 13.879656 0.000000 0.826169
405 1 2 0.0 13.879656 0.000000 0.991403
406 1 2 0.0 13.879656 0.000000 1.156637
407 1 2 0.0 13.879656 0.000000 1.321871
408 1 2 0.0 13.879656 0.000000 1.487105
409 1 2 0.0 13.879656 0.000000 1.652338
410 1 2 0.0 13.879656 0.000000 1.817576
411 1 2 0.0 13.879656 0.000000 1.982809
412 1 2 0.0 13.879656 0.000000 2.148043
413 1 2 0.0 13.879656 0.000000 2.313277
414 1 2 0.0 13.879656 0.000000 2.478511
415 1 2 0.0 13.879656 0.000000 2.643745
416 1 2 0.0 13.879656 0.000000 2.808979
417 1 2 0.0 13.879656 0.000000 2.974212
418 1 2 0.0 13.879656 0.000000 3.139446
419 1 2 0.0 13.879656 0.000000 3.304680
420 1 2 0.0 0.000000 3.469914 0.165234
421 1 2 0.0 0.000000 3.469914 0.330468
422 1 2 0.0 0.000000 3.469914 0.495702
423 1 2 0.0 0.000000 3.469914 0.660935
424 1 2 0.0 0.000000 3.469914 0.826169
425 1 2 0.0 0.000000 3.469914 0.991403
426 1 2 0.0 0.000000 3.469914 1.156637
427 1 2 0.0 0.000000 3.469914 1.321871
428 1 2 0.0 0.000000 3.469914 1.487105
429 1 2 0.0 0.000000 3.469914 1.652338
430 1 2 0.0 0.000000 3.469914 1.817576
431 1 2 0.0 0.000000 3.469914 1.982809
432 1 2 0.0 0.000000 3.469914 2.148043
433 1 2 0.0 0.000000 3.469914 2.313277
434 1 2 0.0 0.000000 3.469914 2.478511
435 1 2 0.0 0.000000 3.469914 2.643745
436 1 2 0.0 0.000000 3.469914 2.808979
437 1 2 0.0 0.000000 3.469914 2.974212
438 1 2 0.0 0.000000 3.469914 3.139446
439 1 2 0.0 0.000000 3.469914 3.304680
440 1 2 0.0 17.184336 3.469914 0.000000
441 1 2 0.0 17.019102 3.469914 0.000000
442 1 2 0.0 16.853868 3.469914 0.000000
443 1 2 0.0 16.688635 3.469914 0.000000
444 1 2 0.0 16.523401 3.469914 0.000000
445 1 2 0.0 16.358167 3.469914 0.000000
446 1 2 0.0 16.192933 3.469914 0.000000
447 1 2 0.0 16.027699 3.469914 0.000000
448 1 2 0.0 15.862465 3.469914 0.000000
449 1 2 0.0 15.697232 3.469914 0.000000
450 1 2 0.0 15.531994 3.469914 0.000000
451 1 2 0.0 15.366761 3.469914 0.000000
452 1 2 0.0 15.201527 3.469914 0.000000
453 1 2 0.0 15.036293 3.469914 0.000000
454 1 2 0.0 14.871059 3.469914 0.000000
455 1 2 0.0 14.705825 3.469914 0.000000
456 1 2 0.0 14.540591 3.469914 0.000000
457 1 2 0.0 14.375358 3.469914 0.000000
458 1 2 0.0 14.210124 3.469914 0.000000
459 1 2 0.0 14.044890 3.469914 0.000000
460 1 2 0.0 0.000000 3.469914 17.184336
461 1 2 0.0 0.000000 3.469914 17.019102
462 1 2 0.0 0.000000 3.469914 16.853868
463 1 2 0.0 0.000000 3.469914 16.688635
464 1 2 0.0 0.000000 3.469914 16.523401
465 1 2 0.0 0.000000 3.469914 16.358167
466 1 2 0.0 0.000000 3.469914 16.192933
467 1 2 0.0 0.000000 3.469914 16.027699
468 1 2 0.0 0.000000 3.469914 15.862465
469 1 2 0.0 0.000000 3.469914 15.697232
470 1 2 0.0 0.000000 3.469914 15.531994
471 1 2 0.0 0.000000 3.469914 15.366761
472 1 2 0.0 0.000000 3.469914 15.201527
473 1 2 0.0 0.000000 3.469914 15.036293
474 1 2 0.0 0.000000 3.469914 14.871059
475 1 2 0.0 0.000000 3.469914 14.705825
476 1 2 0.0 0.000000 3.469914 14.540591
477 1 2 0.0 0.000000 3.469914 14.375358
478 1 2 0.0 0.000000 3.469914 14.210124
479 1 2 0.0 0.000000 3.469914 14.044890
480 1 2 0.0 7.105062 3.469914 0.000000
481 1 2 0.0 7.270296 3.469914 0.000000
482 1 2 0.0 7.435530 3.469914 0.000000
483 1 2 0.0 7.600763 3.469914 0.000000
484 1 2 0.0 7.765997 3.469914 0.000000
485 1 2 0.0 7.931231 3.469914 0.000000
486 1 2 0.0 8.096465 3.469914 0.000000
487 1 2 0.0 8.261699 3.469914 0.000000
488 1 2 0.0 8.426933 3.469914 0.000000
489 1 2 0.0 8.592166 3.469914 0.000000
490 1 2 0.0 8.757404 3.469914 0.000000
491 1 2 0.0 8.922637 3.469914 0.000000
492 1 2 0.0 9.087871 3.469914 0.000000
493 1 2 0.0 9.253105 3.469914 0.000000
494 1 2 0.0 9.418339 3.469914 0.000000
495 1 2 0.0 9.583573 3.469914 0.000000
496 1 2 0.0 9.748807 3.469914 0.000000
497 1 2 0.0 9.914040 3.469914 0.000000
498 1 2 0.0 10.079274 3.469914 0.000000
499 1 2 0.0 10.244508 3.469914 0.000000
500 1 2 0.0 6.939828 3.635148 0.000000
501 1 2 0.0 6.939828 3.800382 0.000000
502 1 2 0.0 6.939828 3.965616 0.000000
503 1 2 0.0 6.939828 4.130849 0.000000
504 1 2 0.0 6.939828 4.296083 0.000000
505 1 2 0.0 6.939828 4.461317 0.000000
506 1 2 0.0 6.939828 4.626551 0.000000
507 1 2 0.0 6.939828 4.791785 0.000000
508 1 2 0.0 6.939828 4.957019 0.000000
509 1 2 0.0 6.939828 5.122252 0.000000
510 1 2 0.0 6.939828 5.287490 0.000000
511 1 2 0.0 6.939828 5.452723 0.000000
512 1 2 0.0 6.939828 5.617957 0.000000
513 1 2 0.0 6.939828 5.783191 0.000000
514 1 2 0.0 6.939828 5.948425 0.000000
515 1 2 0.0 6.939828 6.113659 0.000000
516 1 2 0.0 6.939828 6.278893 0.000000
517 1 2 0.0 6.939828 6.444126 0.000000
518 1 2 0.0 6.939828 6.609360 0.000000
519 1 2 0.0 6.939828 6.774594 0.000000
520 1 2 0.0 6.939828 3.469914 0.165234
521 1 2 0.0 6.939828 3.469914 0.330468
522 1 2 0.0 6.939828 3.469914 0.495702
523 1 2 0.0 6.939828 3.469914 0.660935
524 1 2 0.0 6.939828 3.469914 0.826169
525 1 2 0.0 6.939828 3.469914 0.991403
526 1 2 0.0 6.939828 3.469914 1.156637
527 1 2 0.0 6.939828 3.469914 1.321871
528 1 2 0.0 6.939828 3.469914 1.487105
529 1 2 0.0 6.939828 3.469914 1.652338
530 1 2 0.0 6.939828 3.469914 1.817576
531 1 2 0.0 6.939828 3.469914 1.982809
532 1 2 0.0 6.939828 3.469914 2.148043
533 1 2 0.0 6.939828 3.469914 2.313277
534 1 2 0.0 6.939828 3.469914 2.478511
535 1 2 0.0 6.939828 3.469914 2.643745
536 1 2 0.0 6.939828 3.469914 2.808979
537 1 2 0.0 6.939828 3.469914 2.974212
538 1 2 0.0 6.939828 3.469914 3.139446
539 1 2 0.0 6.939828 3.469914 3.304680
540 1 2 0.0 6.939828 3.469914 17.184336
541 1 2 0.0 6.939828 3.469914 17.019102
542 1 2 0.0 6.939828 3.469914 16.853868
543 1 2 0.0 6.939828 3.469914 16.688635
544 1 2 0.0 6.939828 3.469914 16.523401
545 1 2 0.0 6.939828 3.469914 16.358167
546 1 2 0.0 6.939828 3.469914 16.192933
547 1 2 0.0 6.939828 3.469914 16.027699
548 1 2 0.0 6.939828 3.469914 15.862465
549 1 2 0.0 6.939828 3.469914 15.697232
550 1 2 0.0 6.939828 3.469914 15.531994
551 1 2 0.0 6.939828 3.469914 15.366761
552 1 2 0.0 6.939828 3.469914 15.201527
553 1 2 0.0 6.939828 3.469914 15.036293
554 1 2 0.0 6.939828 3.469914 14.871059
555 1 2 0.0 6.939828 3.469914 14.705825
556 1 2 0.0 6.939828 3.469914 14.540591
557 1 2 0.0 6.939828 3.469914 14.375358
558 1 2 0.0 6.939828 3.469914 14.210124
559 1 2 0.0 6.939828 3.469914 14.044890
560 1 2 0.0 10.574976 3.469914 0.000000
561 1 2 0.0 10.740210 3.469914 0.000000
562 1 2 0.0 10.905444 3.469914 0.000000
563 1 2 0.0 11.070677 3.469914 0.000000
564 1 2 0.0 11.235911 3.469914 0.000000
565 1 2 0.0 11.401145 3.469914 0.000000
566 1 2 0.0 11.566379 3.469914 0.000000
567 1 2 0.0 11.731613 3.469914 0.000000
568 1 2 0.0 11.896847 3.469914 0.000000
569 1 2 0.0 12.062080 3.469914 0.000000
570 1 2 0.0 12.227318 3.469914 0.000000
571 1 2 0.0 12.392551 3.469914 0.000000
572 1 2 0.0 12.557785 3.469914 0.000000
573 1 2 0.0 12.723019 3.469914 0.000000
574 1 2 0.0 12.888253 3.469914 0.000000
575 1 2 0.0 13.053487 3.469914 0.000000
576 1 2 0.0 13.218721 3.469914 0.000000
577 1 2 0.0 13.383954 3.469914 0.000000
578 1 2 0.0 13.549188 3.469914 0.000000
579 1 2 0.0 13.714422 3.469914 0.000000
580 1 2 0.0 10.409742 3.469914 17.184336
581 1 2 0.0 10.409742 3.469914 17.019102
582 1 2 0.0 10.409742 3.469914 16.853868
583 1 2 0.0 10.409742 3.469914 16.688635
584 1 2 0.0 10.409742 3.469914 16.523401
585 1 2 0.0 10.409742 3.469914 16.358167
586 1 2 0.0 10.409742 3.469914 16.192933
587 1 2 0.0 10.409742 3.469914 16.027699
588 1 2 0.0 10.409742 3.469914 15.862465
589 1 2 0.0 10.409742 3.469914 15.697232
590 1 2 0.0 10.409742 3.469914 15.531994
591 1 2 0.0 10.409742 3.469914 15.366761
592 1 2 0.0 10.409742 3.469914 15.201527
593 1 2 0.0 10.409742 3.469914 15.036293
594 1 2 0.0 10.409742 3.469914 14.871059
595 1 2 0.0 10.409742 3.469914 14.705825
596 1 2 0.0 10.409742 3.469914 14.540591
597 1 2 0.0 10.409742 3.469914 14.375358
598 1 2 0.0 10.409742 3.469914 14.210124
599 1 2 0.0 10.409742 3.469914 14.044890
600 1 2 0.0 13.879656 3.469914 0.165234
601 1 2 0.0 13.879656 3.469914 0.330468
602 1 2 0.0 13.879656 3.469914 0.495702
603 1 2 0.0 13.879656 3.469914 0.660935
604 1 2 0.0 13.879656 3.469914 0.826169
605 1 2 0.0 13.879656 3.469914 0.991403
606 1 2 0.0 13.879656 3.469914 1.156637
607 1 2 0.0 13.879656 3.469914 1.321871
608 1 2 0.0 13.879656 3.469914 1.487105
609 1 2 0.0 13.879656 3.469914 1.652338
610 1 2 0.0 13.879656 3.469914 1.817576
611 1 2 0.0 13.879656 3.469914 1.982809
612 1 2 0.0 13.879656 3.469914 2.148043
613 1 2 0.0 13.879656 3.469914 2.313277
614 1 2 0.0 13.879656 3.469914 2.478511
615 1 2 0.0 13.879656 3.469914 2.643745
616 1 2 0.0 13.879656 3.469914 2.808979
617 1 2 0.0 13.879656 3.469914 2.974212
618 1 2 0.0 13.879656 3.469914 3.139446
619 1 2 0.0 13.879656 3.469914 3.304680
620 1 2 0.0 0.000000 7.105062 0.000000
621 1 2 0.0 0.000000 7.270296 0.000000
622 1 2 0.0 0.000000 7.435530 0.000000
623 1 2 0.0 0.000000 7.600763 0.000000
624 1 2 0.0 0.000000 7.765997 0.000000
625 1 2 0.0 0.000000 7.931231 0.000000
626 1 2 0.0 0.000000 8.096465 0.000000
627 1 2 0.0 0.000000 8.261699 0.000000
628 1 2 0.0 0.000000 8.426933 0.000000
629 1 2 0.0 0.000000 8.592166 0.000000
630 1 2 0.0 0.000000 8.757404 0.000000
631 1 2 0.0 0.000000 8.922637 0.000000
632 1 2 0.0 0.000000 9.087871 0.000000
633 1 2 0.0 0.000000 9.253105 0.000000
634 1 2 0.0 0.000000 9.418339 0.000000
635 1 2 0.0 0.000000 9.583573 0.000000
636 1 2 0.0 0.000000 9.748807 0.000000
637 1 2 0.0 0.000000 9.914040 0.000000
638 1 2 0.0 0.000000 10.079274 0.000000
639 1 2 0.0 0.000000 10.244508 0.000000
640 1 2 0.0 0.000000 6.939828 0.165234
641 1 2 0.0 0.000000 6.939828 0.330468
642 1 2 0.0 0.000000 6.939828 0.495702
643 1 2 0.0 0.000000 6.939828 0.660935
644 1 2 0.0 0.000000 6.939828 0.826169
645 1 2 0.0 0.000000 6.939828 0.991403
646 1 2 0.0 0.000000 6.939828 1.156637
647 1 2 0.0 0.000000 6.939828 1.321871
648 1 2 0.0 0.000000 6.939828 1.487105
649 1 2 0.0 0.000000 6.939828 1.652338
650 1 2 0.0 0.000000 6.939828 1.817576
651 1 2 0.0 0.000000 6.939828 1.982809
652 1 2 0.0 0.000000 6.939828 2.148043
653 1 2 0.0 0.000000 6.939828 2.313277
654 1 2 0.0 0.000000 6.939828 2.478511
655 1 2 0.0 0.000000 6.939828 2.643745
656 1 2 0.0 0.000000 6.939828 2.808979
657 1 2 0.0 0.000000 6.939828 2.974212
658 1 2 0.0 0.000000 6.939828 3.139446
659 1 2 0.0 0.000000 6.939828 3.304680
660 1 2 0.0 17.184336 6.939828 0.000000
661 1 2 0.0 17.019102 6.939828 0.000000
662 1 2 0.0 16.853868 6.939828 0.000000
663 1 2 0.0 16.688635 6.939828 0.000000
664 1 2 0.0 16.523401 6.939828 0.000000
665 1 2 0.0 16.358167 6.939828 0.000000
666 1 2 0.0 16.192933 6.939828 0.000000
667 1 2 0.0 16.027699 6.939828 0.000000
668 1 2 0.0 15.862465 6.939828 0.000000
669 1 2 0.0 15.697232 6.939828 0.000000
670 1 2 0.0 15.531994 6.939828 0.000000
671 1 2 0.0 15.366761 6.939828 0.000000
672 1 2 0.0 15.201527 6.939828 0.000000
673 1 2 0.0 15.036293 6.939828 0.000000
674 1 2 0.0 14.871059 6.939828 0.000000
675 1 2 0.0 14.705825 6.939828 0.000000
676 1 2 0.0 14.540591 6.939828 0.000000
677 1 2 0.0 14.375358 6.939828 0.000000
678 1 2 0.0 14.210124 6.939828 0.000000
679 1 2 0.0 14.044890 6.939828 0.000000
680 1 2 0.0 3.635148 6.939828 0.000000
681 1 2 0.0 3.800382 6.939828 0.000000
682 1 2 0.0 3.965616 6.939828 0.000000
683 1 2 0.0 4.130849 6.939828 0.000000
684 1 2 0.0 4.296083 6.939828 0.000000
685 1 2 0.0 4.461317 6.939828 0.000000
686 1 2 0.0 4.626551 6.939828 0.000000
687 1 2 0.0 4.791785 6.939828 0.000000
688 1 2 0.0 4.957019 6.939828 0.000000
689 1 2 0.0 5.122252 6.939828 0.000000
690 1 2 0.0 5.287490 6.939828 0.000000
691 1 2 0.0 5.452723 6.939828 0.000000
692 1 2 0.0 5.617957 6.939828 0.000000
693 1 2 0.0 5.783191 6.939828 0.000000
694 1 2 0.0 5.948425 6.939828 0.000000
695 1 2 0.0 6.113659 6.939828 0.000000
696 1 2 0.0 6.278893 6.939828 0.000000
697 1 2 0.0 6.444126 6.939828 0.000000
698 1 2 0.0 6.609360 6.939828 0.000000
699 1 2 0.0 6.774594 6.939828 0.000000
700 1 2 0.0 3.469914 7.105062 0.000000
701 1 2 0.0 3.469914 7.270296 0.000000
702 1 2 0.0 3.469914 7.435530 0.000000
703 1 2 0.0 3.469914 7.600763 0.000000
704 1 2 0.0 3.469914 7.765997 0.000000
705 1 2 0.0 3.469914 7.931231 0.000000
706 1 2 0.0 3.469914 8.096465 0.000000
707 1 2 0.0 3.469914 8.261699 0.000000
708 1 2 0.0 3.469914 8.426933 0.000000
709 1 2 0.0 3.469914 8.592166 0.000000
710 1 2 0.0 3.469914 8.757404 0.000000
711 1 2 0.0 3.469914 8.922637 0.000000
712 1 2 0.0 3.469914 9.087871 0.000000
713 1 2 0.0 3.469914 9.253105 0.000000
714 1 2 0.0 3.469914 9.418339 0.000000
715 1 2 0.0 3.469914 9.583573 0.000000
716 1 2 0.0 3.469914 9.748807 0.000000
717 1 2 0.0 3.469914 9.914040 0.000000
718 1 2 0.0 3.469914 10.079274 0.000000
719 1 2 0.0 3.469914 10.244508 0.000000
720 1 2 0.0 3.469914 6.939828 0.165234
721 1 2 0.0 3.469914 6.939828 0.330468
722 1 2 0.0 3.469914 6.939828 0.495702
723 1 2 0.0 3.469914 6.939828 0.660935
724 1 2 0.0 3.469914 6.939828 0.826169
725 1 2 0.0 3.469914 6.939828 0.991403
726 1 2 0.0 3.469914 6.939828 1.156637
727 1 2 0.0 3.469914 6.939828 1.321871
728 1 2 0.0 3.469914 6.939828 1.487105
729 1 2 0.0 3.469914 6.939828 1.652338
730 1 2 0.0 3.469914 6.939828 1.817576
731 1 2 0.0 3.469914 6.939828 1.982809
732 1 2 0.0 3.469914 6.939828 2.148043
733 1 2 0.0 3.469914 6.939828 2.313277
734 1 2 0.0 3.469914 6.939828 2.478511
735 1 2 0.0 3.469914 6.939828 2.643745
736 1 2 0.0 3.469914 6.939828 2.808979
737 1 2 0.0 3.469914 6.939828 2.974212
738 1 2 0.0 3.469914 6.939828 3.139446
739 1 2 0.0 3.469914 6.939828 3.304680
740 1 2 0.0 6.939828 6.939828 0.165234
741 1 2 0.0 6.939828 6.939828 0.330468
742 1 2 0.0 6.939828 6.939828 0.495702
743 1 2 0.0 6.939828 6.939828 0.660935
744 1 2 0.0 6.939828 6.939828 0.826169
745 1 2 0.0 6.939828 6.939828 0.991403
746 1 2 0.0 6.939828 6.939828 1.156637
747 1 2 0.0 6.939828 6.939828 1.321871
748 1 2 0.0 6.939828 6.939828 1.487105
749 1 2 0.0 6.939828 6.939828 1.652338
750 1 2 0.0 6.939828 6.939828 1.817576
751 1 2 0.0 6.939828 6.939828 1.982809
752 1 2 0.0 6.939828 6.939828 2.148043
753 1 2 0.0 6.939828 6.939828 2.313277
754 1 2 0.0 6.939828 6.939828 2.478511
755 1 2 0.0 6.939828 6.939828 2.643745
756 1 2 0.0 6.939828 6.939828 2.808979
757 1 2 0.0 6.939828 6.939828 2.974212
758 1 2 0.0 6.939828 6.939828 3.139446
759 1 2 0.0 6.939828 6.939828 3.304680
760 1 2 0.0 6.939828 6.939828 17.184336
761 1 2 0.0 6.939828 6.939828 17.019102
762 1 2 0.0 6.939828 6.939828 16.853868
763 1 2 0.0 6.939828 6.939828 16.688635
764 1 2 0.0 6.939828 6.939828 16.523401
765 1 2 0.0 6.939828 6.939828 16.358167
766 1 2 0.0 6.939828 6.939828 16.192933
767 1 2 0.0 6.939828 6.939828 16.027699
768 1 2 0.0 6.939828 6.939828 15.862465
769 1 2 0.0 6.939828 6.939828 15.697232
770 1 2 0.0 6.939828 6.939828 15.531994
771 1 2 0.0 6.939828 6.939828 15.366761
772 1 2 0.0 6.939828 6.939828 15.201527
773 1 2 0.0 6.939828 6.939828 15.036293
774 1 2 0.0 6.939828 6.939828 14.871059
775 1 2 0.0 6.939828 6.939828 14.705825
776 1 2 0.0 6.939828 6.939828 14.540591
777 1 2 0.0 6.939828 6.939828 14.375358
778 1 2 0.0 6.939828 6.939828 14.210124
779 1 2 0.0 6.939828 6.939828 14.044890
780 1 2 0.0 10.574976 6.939828 0.000000
781 1 2 0.0 10.740210 6.939828 0.000000
782 1 2 0.0 10.905444 6.939828 0.000000
783 1 2 0.0 11.070677 6.939828 0.000000
784 1 2 0.0 11.235911 6.939828 0.000000
785 1 2 0.0 11.401145 6.939828 0.000000
786 1 2 0.0 11.566379 6.939828 0.000000
787 1 2 0.0 11.731613 6.939828 0.000000
788 1 2 0.0 11.896847 6.939828 0.000000
789 1 2 0.0 12.062080 6.939828 0.000000
790 1 2 0.0 12.227318 6.939828 0.000000
791 1 2 0.0 12.392551 6.939828 0.000000
792 1 2 0.0 12.557785 6.939828 0.000000
793 1 2 0.0 12.723019 6.939828 0.000000
794 1 2 0.0 12.888253 6.939828 0.000000
795 1 2 0.0 13.053487 6.939828 0.000000
796 1 2 0.0 13.218721 6.939828 0.000000
797 1 2 0.0 13.383954 6.939828 0.000000
798 1 2 0.0 13.549188 6.939828 0.000000
799 1 2 0.0 13.714422 6.939828 0.000000
800 1 2 0.0 10.409742 7.105062 0.000000
801 1 2 0.0 10.409742 7.270296 0.000000
802 1 2 0.0 10.409742 7.435530 0.000000
803 1 2 0.0 10.409742 7.600763 0.000000
804 1 2 0.0 10.409742 7.765997 0.000000
805 1 2 0.0 10.409742 7.931231 0.000000
806 1 2 0.0 10.409742 8.096465 0.000000
807 1 2 0.0 10.409742 8.261699 0.000000
808 1 2 0.0 10.409742 8.426933 0.000000
809 1 2 0.0 10.409742 8.592166 0.000000
810 1 2 0.0 10.409742 8.757404 0.000000
811 1 2 0.0 10.409742 8.922637 0.000000
812 1 2 0.0 10.409742 9.087871 0.000000
813 1 2 0.0 10.409742 9.253105 0.000000
814 1 2 0.0 10.409742 9.418339 0.000000
815 1 2 0.0 10.409742 9.583573 0.000000
816 1 2 0.0 10.409742 9.748807 0.000000
817 1 2 0.0 10.409742 9.914040 0.000000
818 1 2 0.0 10.409742 10.079274 0.000000
819 1 2 0.0 10.409742 10.244508 0.000000
820 1 2 0.0 10.409742 6.939828 17.184336
821 1 2 0.0 10.409742 6.939828 17.019102
822 1 2 0.0 10.409742 6.939828 16.853868
823 1 2 0.0 10.409742 6.939828 16.688635
824 1 2 0.0 10.409742 6.939828 16.523401
825 1 2 0.0 10.409742 6.939828 16.358167
826 1 2 0.0 10.409742 6.939828 16.192933
827 1 2 0.0 10.409742 6.939828 16.027699
828 1 2 0.0 10.409742 6.939828 15.862465
829 1 2 0.0 10.409742 6.939828 15.697232
830 1 2 0.0 10.409742 6.939828 15.531994
831 1 2 0.0 10.409742 6.939828 15.366761
832 1 2 0.0 10.409742 6.939828 15.201527
833 1 2 0.0 10.409742 6.939828 15.036293
834 1 2 0.0 10.409742 6.939828 14.871059
835 1 2 0.0 10.409742 6.939828 14.705825
836 1 2 0.0 10.409742 6.939828 14.540591
837 1 2 0.0 10.409742 6.939828 14.375358
838 1 2 0.0 10.409742 6.939828 14.210124
839 1 2 0.0 10.409742 6.939828 14.044890
840 1 2 0.0 13.879656 7.105062 0.000000
841 1 2 0.0 13.879656 7.270296 0.000000
842 1 2 0.0 13.879656 7.435530 0.000000
843 1 2 0.0 13.879656 7.600763 0.000000
844 1 2 0.0 13.879656 7.765997 0.000000
845 1 2 0.0 13.879656 7.931231 0.000000
846 1 2 0.0 13.879656 8.096465 0.000000
847 1 2 0.0 13.879656 8.261699 0.000000
848 1 2 0.0 13.879656 8.426933 0.000000
849 1 2 0.0 13.879656 8.592166 0.000000
850 1 2 0.0 13.879656 8.757404 0.000000
851 1 2 0.0 13.879656 8.922637 0.000000
852 1 2 0.0 13.879656 9.087871 0.000000
853 1 2 0.0 13.879656 9.253105 0.000000
854 1 2 0.0 13.879656 9.418339 0.000000
855 1 2 0.0 13.879656 9.583573 0.000000
856 1 2 0.0 13.879656 9.748807 0.000000
857 1 2 0.0 13.879656 9.914040 0.000000
858 1 2 0.0 13.879656 10.079274 0.000000
859 1 2 0.0 13.879656 10.244508 0.000000
860 1 2 0.0 0.000000 10.574976 0.000000
861 1 2 0.0 0.000000 10.740210 0.000000
862 1 2 0.0 0.000000 10.905444 0.000000
863 1 2 0.0 0.000000 11.070677 0.000000
864 1 2 0.0 0.000000 11.235911 0.000000
865 1 2 0.0 0.000000 11.401145 0.000000
866 1 2 0.0 0.000000 11.566379 0.000000
867 1 2 0.0 0.000000 11.731613 0.000000
868 1 2 0.0 0.000000 11.896847 0.000000
869 1 2 0.0 0.000000 12.062080 0.000000
870 1 2 0.0 0.000000 12.227318 0.000000
871 1 2 0.0 0.000000 12.392551 0.000000
872 1 2 0.0 0.000000 12.557785 0.000000
873 1 2 0.0 0.000000 12.723019 0.000000
874 1 2 0.0 0.000000 12.888253 0.000000
875 1 2 0.0 0.000000 13.053487 0.000000
876 1 2 0.0 0.000000 13.218721 0.000000
877 1 2 0.0 0.000000 13.383954 0.000000
878 1 2 0.0 0.000000 13.549188 0.000000
879 1 2 0.0 0.000000 13.714422 0.000000
880 1 2 0.0 0.000000 10.409742 0.165234
881 1 2 0.0 0.000000 10.409742 0.330468
882 1 2 0.0 0.000000 10.409742 0.495702
883 1 2 0.0 0.000000 10.409742 0.660935
884 1 2 0.0 0.000000 10.409742 0.826169
885 1 2 0.0 0.000000 10.409742 0.991403
886 1 2 0.0 0.000000 10.409742 1.156637
887 1 2 0.0 0.000000 10.409742 1.321871
888 1 2 0.0 0.000000 10.409742 1.487105
889 1 2 0.0 0.000000 10.409742 1.652338
890 1 2 0.0 0.000000 10.409742 1.817576
891 1 2 0.0 0.000000 10.409742 1.982809
892 1 2 0.0 0.000000 10.409742 2.148043
893 1 2 0.0 0.000000 10.409742 2.313277
894 1 2 0.0 0.000000 10.409742 2.478511
895 1 2 0.0 0.000000 10.409742 2.643745
896 1 2 0.0 0.000000 10.409742 2.808979
897 1 2 0.0 0.000000 10.409742 2.974212
898 1 2 0.0 0.000000 10.409742 3.139446
899 1 2 0.0 0.000000 10.409742 3.304680
900 1 2 0.0 17.184336 10.409742 0.000000
901 1 2 0.0 17.019102 10.409742 0.000000
902 1 2 0.0 16.853868 10.409742 0.000000
903 1 2 0.0 16.688635 10.409742 0.000000
904 1 2 0.0 16.523401 10.409742 0.000000
905 1 2 0.0 16.358167 10.409742 0.000000
906 1 2 0.0 16.192933 10.409742 0.000000
907 1 2 0.0 16.027699 10.409742 0.000000
908 1 2 0.0 15.862465 10.409742 0.000000
909 1 2 0.0 15.697232 10.409742 0.000000
910 1 2 0.0 15.531994 10.409742 0.000000
911 1 2 0.0 15.366761 10.409742 0.000000
912 1 2 0.0 15.201527 10.409742 0.000000
913 1 2 0.0 15.036293 10.409742 0.000000
914 1 2 0.0 14.871059 10.409742 0.000000
915 1 2 0.0 14.705825 10.409742 0.000000
916 1 2 0.0 14.540591 10.409742 0.000000
917 1 2 0.0 14.375358 10.409742 0.000000
918 1 2 0.0 14.210124 10.409742 0.000000
919 1 2 0.0 14.044890 10.409742 0.000000
920 1 2 0.0 3.469914 10.574976 0.000000
921 1 2 0.0 3.469914 10.740210 0.000000
922 1 2 0.0 3.469914 10.905444 0.000000
923 1 2 0.0 3.469914 11.070677 0.000000
924 1 2 0.0 3.469914 11.235911 0.000000
925 1 2 0.0 3.469914 11.401145 0.000000
926 1 2 0.0 3.469914 11.566379 0.000000
927 1 2 0.0 3.469914 11.731613 0.000000
928 1 2 0.0 3.469914 11.896847 0.000000
929 1 2 0.0 3.469914 12.062080 0.000000
930 1 2 0.0 3.469914 12.227318 0.000000
931 1 2 0.0 3.469914 12.392551 0.000000
932 1 2 0.0 3.469914 12.557785 0.000000
933 1 2 0.0 3.469914 12.723019 0.000000
934 1 2 0.0 3.469914 12.888253 0.000000
935 1 2 0.0 3.469914 13.053487 0.000000
936 1 2 0.0 3.469914 13.218721 0.000000
937 1 2 0.0 3.469914 13.383954 0.000000
938 1 2 0.0 3.469914 13.549188 0.000000
939 1 2 0.0 3.469914 13.714422 0.000000
940 1 2 0.0 3.469914 10.409742 17.184336
941 1 2 0.0 3.469914 10.409742 17.019102
942 1 2 0.0 3.469914 10.409742 16.853868
943 1 2 0.0 3.469914 10.409742 16.688635
944 1 2 0.0 3.469914 10.409742 16.523401
945 1 2 0.0 3.469914 10.409742 16.358167
946 1 2 0.0 3.469914 10.409742 16.192933
947 1 2 0.0 3.469914 10.409742 16.027699
948 1 2 0.0 3.469914 10.409742 15.862465
949 1 2 0.0 3.469914 10.409742 15.697232
950 1 2 0.0 3.469914 10.409742 15.531994
951 1 2 0.0 3.469914 10.409742 15.366761
952 1 2 0.0 3.469914 10.409742 15.201527
953 1 2 0.0 3.469914 10.409742 15.036293
954 1 2 0.0 3.469914 10.409742 14.871059
955 1 2 0.0 3.469914 10.409742 14.705825
956 1 2 0.0 3.469914 10.409742 14.540591
957 1 2 0.0 3.469914 10.409742 14.375358
958 1 2 0.0 3.469914 10.409742 14.210124
959 1 2 0.0 3.469914 10.409742 14.044890
960 1 2 0.0 6.939828 10.409742 0.165234
961 1 2 0.0 6.939828 10.409742 0.330468
962 1 2 0.0 6.939828 10.409742 0.495702
963 1 2 0.0 6.939828 10.409742 0.660935
964 1 2 0.0 6.939828 10.409742 0.826169
965 1 2 0.0 6.939828 10.409742 0.991403
966 1 2 0.0 6.939828 10.409742 1.156637
967 1 2 0.0 6.939828 10.409742 1.321871
968 1 2 0.0 6.939828 10.409742 1.487105
969 1 2 0.0 6.939828 10.409742 1.652338
970 1 2 0.0 6.939828 10.409742 1.817576
971 1 2 0.0 6.939828 10.409742 1.982809
972 1 2 0.0 6.939828 10.409742 2.148043
973 1 2 0.0 6.939828 10.409742 2.313277
974 1 2 0.0 6.939828 10.409742 2.478511
975 1 2 0.0 6.939828 10.409742 2.643745
976 1 2 0.0 6.939828 10.409742 2.808979
977 1 2 0.0 6.939828 10.409742 2.974212
978 1 2 0.0 6.939828 10.409742 3.139446
979 1 2 0.0 6.939828 10.409742 3.304680
980 1 2 0.0 10.409742 10.574976 0.000000
981 1 2 0.0 10.409742 10.740210 0.000000
982 1 2 0.0 10.409742 10.905444 0.000000
983 1 2 0.0 10.409742 11.070677 0.000000
984 1 2 0.0 10.409742 11.235911 0.000000
985 1 2 0.0 10.409742 11.401145 0.000000
986 1 2 0.0 10.409742 11.566379 0.000000
987 1 2 0.0 10.409742 11.731613 0.000000
988 1 2 0.0 10.409742 11.896847 0.000000
989 1 2 0.0 10.409742 12.062080 0.000000
990 1 2 0.0 10.409742 12.227318 0.000000
991 1 2 0.0 10.409742 12.392551 0.000000
992 1 2 0.0 10.409742 12.557785 0.000000
993 1 2 0.0 10.409742 12.723019 0.000000
994 1 2 0.0 10.409742 12.888253 0.000000
995 1 2 0.0 10.409742 13.053487 0.000000
996 1 2 0.0 10.409742 13.218721 0.000000
997 1 2 0.0 10.409742 13.383954 0.000000
998 1 2 0.0 10.409742 13.549188 0.000000
999 1 2 0.0 10.409742 13.714422 0.000000
1000 1 2 0.0 10.409742 10.409742 17.184336
1001 1 2 0.0 10.409742 10.409742 17.019102
1002 1 2 0.0 10.409742 10.409742 16.853868
1003 1 2 0.0 10.409742 10.409742 16.688635
1004 1 2 0.0 10.409742 10.409742 16.523401
1005 1 2 0.0 10.409742 10.409742 16.358167
1006 1 2 0.0 10.409742 10.409742 16.192933
1007 1 2 0.0 10.409742 10.409742 16.027699
1008 1 2 0.0 10.409742 10.409742 15.862465
1009 1 2 0.0 10.409742 10.409742 15.697232
1010 1 2 0.0 10.409742 10.409742 15.531994
1011 1 2 0.0 10.409742 10.409742 15.366761
1012 1 2 0.0 10.409742 10.409742 15.201527
1013 1 2 0.0 10.409742 10.409742 15.036293
1014 1 2 0.0 10.409742 10.409742 14.871059
1015 1 2 0.0 10.409742 10.409742 14.705825
1016 1 2 0.0 10.409742 10.409742 14.540591
1017 1 2 0.0 10.409742 10.409742 14.375358
1018 1 2 0.0 10.409742 10.409742 14.210124
1019 1 2 0.0 10.409742 10.409742 14.044890
1020 1 2 0.0 13.879656 10.574976 0.000000
1021 1 2 0.0 13.879656 10.740210 0.000000
1022 1 2 0.0 13.879656 10.905444 0.000000
1023 1 2 0.0 13.879656 11.070677 0.000000
1024 1 2 0.0 13.879656 11.235911 0.000000
1025 1 2 0.0 13.879656 11.401145 0.000000
1026 1 2 0.0 13.879656 11.566379 0.000000
1027 1 2 0.0 13.879656 11.731613 0.000000
1028 1 2 0.0 13.879656 11.896847 0.000000
1029 1 2 0.0 13.879656 12.062080 0.000000
1030 1 2 0.0 13.879656 12.227318 0.000000
1031 1 2 0.0 13.879656 12.392551 0.000000
1032 1 2 0.0 13.879656 12.557785 0.000000
1033 1 2 0.0 13.879656 12.723019 0.000000
1034 1 2 0.0 13.879656 12.888253 0.000000
1035 1 2 0.0 13.879656 13.053487 0.000000
1036 1 2 0.0 13.879656 13.218721 0.000000
1037 1 2 0.0 13.879656 13.383954 0.000000
1038 1 2 0.0 13.879656 13.549188 0.000000
1039 1 2 0.0 13.879656 13.714422 0.000000
1040 1 2 0.0 13.879656 10.409742 17.184336
1041 1 2 0.0 13.879656 10.409742 17.019102
1042 1 2 0.0 13.879656 10.409742 16.853868
1043 1 2 0.0 13.879656 10.409742 16.688635
1044 1 2 0.0 13.879656 10.409742 16.523401
1045 1 2 0.0 13.879656 10.409742 16.358167
1046 1 2 0.0 13.879656 10.409742 16.192933
1047 1 2 0.0 13.879656 10.409742 16.027699
1048 1 2 0.0 13.879656 10.409742 15.862465
1049 1 2 0.0 13.879656 10.409742 15.697232
1050 1 2 0.0 13.879656 10.409742 15.531994
1051 1 2 0.0 13.879656 10.409742 15.366761
1052 1 2 0.0 13.879656 10.409742 15.201527
1053 1 2 0.0 13.879656 10.409742 15.036293
1054 1 2 0.0 13.879656 10.409742 14.871059
1055 1 2 0.0 13.879656 10.409742 14.705825
1056 1 2 0.0 13.879656 10.409742 14.540591
1057 1 2 0.0 13.879656 10.409742 14.375358
1058 1 2 0.0 13.879656 10.409742 14.210124
1059 1 2 0.0 13.879656 10.409742 14.044890
1060 1 2 0.0 0.165234 13.879656 0.000000
1061 1 2 0.0 0.330468 13.879656 0.000000
1062 1 2 0.0 0.495702 13.879656 0.000000
1063 1 2 0.0 0.660935 13.879656 0.000000
1064 1 2 0.0 0.826169 13.879656 0.000000
1065 1 2 0.0 0.991403 13.879656 0.000000
1066 1 2 0.0 1.156637 13.879656 0.000000
1067 1 2 0.0 1.321871 13.879656 0.000000
1068 1 2 0.0 1.487105 13.879656 0.000000
1069 1 2 0.0 1.652338 13.879656 0.000000
1070 1 2 0.0 1.817576 13.879656 0.000000
1071 1 2 0.0 1.982809 13.879656 0.000000
1072 1 2 0.0 2.148043 13.879656 0.000000
1073 1 2 0.0 2.313277 13.879656 0.000000
1074 1 2 0.0 2.478511 13.879656 0.000000
1075 1 2 0.0 2.643745 13.879656 0.000000
1076 1 2 0.0 2.808979 13.879656 0.000000
1077 1 2 0.0 2.974212 13.879656 0.000000
1078 1 2 0.0 3.139446 13.879656 0.000000
1079 1 2 0.0 3.304680 13.879656 0.000000
1080 1 2 0.0 17.184336 13.879656 0.000000
1081 1 2 0.0 17.019102 13.879656 0.000000
1082 1 2 0.0 16.853868 13.879656 0.000000
1083 1 2 0.0 16.688635 13.879656 0.000000
1084 1 2 0.0 16.523401 13.879656 0.000000
1085 1 2 0.0 16.358167 13.879656 0.000000
1086 1 2 0.0 16.192933 13.879656 0.000000
1087 1 2 0.0 16.027699 13.879656 0.000000
1088 1 2 0.0 15.862465 13.879656 0.000000
1089 1 2 0.0 15.697232 13.879656 0.000000
1090 1 2 0.0 15.531994 13.879656 0.000000
1091 1 2 0.0 15.366761 13.879656 0.000000
1092 1 2 0.0 15.201527 13.879656 0.000000
1093 1 2 0.0 15.036293 13.879656 0.000000
1094 1 2 0.0 14.871059 13.879656 0.000000
1095 1 2 0.0 14.705825 13.879656 0.000000
1096 1 2 0.0 14.540591 13.879656 0.000000
1097 1 2 0.0 14.375358 13.879656 0.000000
1098 1 2 0.0 14.210124 13.879656 0.000000
1099 1 2 0.0 14.044890 13.879656 0.000000
1100 1 2 0.0 3.469914 13.879656 0.165234
1101 1 2 0.0 3.469914 13.879656 0.330468
1102 1 2 0.0 3.469914 13.879656 0.495702
1103 1 2 0.0 3.469914 13.879656 0.660935
1104 1 2 0.0 3.469914 13.879656 0.826169
1105 1 2 0.0 3.469914 13.879656 0.991403
1106 1 2 0.0 3.469914 13.879656 1.156637
1107 1 2 0.0 3.469914 13.879656 1.321871
1108 1 2 0.0 3.469914 13.879656 1.487105
1109 1 2 0.0 3.469914 13.879656 1.652338
1110 1 2 0.0 3.469914 13.879656 1.817576
1111 1 2 0.0 3.469914 13.879656 1.982809
1112 1 2 0.0 3.469914 13.879656 2.148043
1113 1 2 0.0 3.469914 13.879656 2.313277
1114 1 2 0.0 3.469914 13.879656 2.478511
1115 1 2 0.0 3.469914 13.879656 2.643745
1116 1 2 0.0 3.469914 13.879656 2.808979
1117 1 2 0.0 3.469914 13.879656 2.974212
1118 1 2 0.0 3.469914 13.879656 3.139446
1119 1 2 0.0 3.469914 13.879656 3.304680
1120 1 2 0.0 7.105062 13.879656 0.000000
1121 1 2 0.0 7.270296 13.879656 0.000000
1122 1 2 0.0 7.435530 13.879656 0.000000
1123 1 2 0.0 7.600763 13.879656 0.000000
1124 1 2 0.0 7.765997 13.879656 0.000000
1125 1 2 0.0 7.931231 13.879656 0.000000
1126 1 2 0.0 8.096465 13.879656 0.000000
1127 1 2 0.0 8.261699 13.879656 0.000000
1128 1 2 0.0 8.426933 13.879656 0.000000
1129 1 2 0.0 8.592166 13.879656 0.000000
1130 1 2 0.0 8.757404 13.879656 0.000000
1131 1 2 0.0 8.922637 13.879656 0.000000
1132 1 2 0.0 9.087871 13.879656 0.000000
1133 1 2 0.0 9.253105 13.879656 0.000000
1134 1 2 0.0 9.418339 13.879656 0.000000
1135 1 2 0.0 9.583573 13.879656 0.000000
1136 1 2 0.0 9.748807 13.879656 0.000000
1137 1 2 0.0 9.914040 13.879656 0.000000
1138 1 2 0.0 10.079274 13.879656 0.000000
1139 1 2 0.0 10.244508 13.879656 0.000000
1140 1 2 0.0 6.939828 13.879656 0.165234
1141 1 2 0.0 6.939828 13.879656 0.330468
1142 1 2 0.0 6.939828 13.879656 0.495702
1143 1 2 0.0 6.939828 13.879656 0.660935
1144 1 2 0.0 6.939828 13.879656 0.826169
1145 1 2 0.0 6.939828 13.879656 0.991403
1146 1 2 0.0 6.939828 13.879656 1.156637
1147 1 2 0.0 6.939828 13.879656 1.321871
1148 1 2 0.0 6.939828 13.879656 1.487105
1149 1 2 0.0 6.939828 13.879656 1.652338
1150 1 2 0.0 6.939828 13.879656 1.817576
1151 1 2 0.0 6.939828 13.879656 1.982809
1152 1 2 0.0 6.939828 13.879656 2.148043
1153 1 2 0.0 6.939828 13.879656 2.313277
1154 1 2 0.0 6.939828 13.879656 2.478511
1155 1 2 0.0 6.939828 13.879656 2.643745
1156 1 2 0.0 6.939828 13.879656 2.808979
1157 1 2 0.0 6.939828 13.879656 2.974212
1158 1 2 0.0 6.939828 13.879656 3.139446
1159 1 2 0.0 6.939828 13.879656 3.304680
1160 1 2 0.0 10.574976 13.879656 0.000000
1161 1 2 0.0 10.740210 13.879656 0.000000
1162 1 2 0.0 10.905444 13.879656 0.000000
1163 1 2 0.0 11.070677 13.879656 0.000000
1164 1 2 0.0 11.235911 13.879656 0.000000
1165 1 2 0.0 11.401145 13.879656 0.000000
1166 1 2 0.0 11.566379 13.879656 0.000000
1167 1 2 0.0 11.731613 13.879656 0.000000
1168 1 2 0.0 11.896847 13.879656 0.000000
1169 1 2 0.0 12.062080 13.879656 0.000000
1170 1 2 0.0 12.227318 13.879656 0.000000
1171 1 2 0.0 12.392551 13.879656 0.000000
1172 1 2 0.0 12.557785 13.879656 0.000000
1173 1 2 0.0 12.723019 13.879656 0.000000
1174 1 2 0.0 12.888253 13.879656 0.000000
1175 1 2 0.0 13.053487 13.879656 0.000000
1176 1 2 0.0 13.218721 13.879656 0.000000
1177 1 2 0.0 13.383954 13.879656 0.000000
1178 1 2 0.0 13.549188 13.879656 0.000000
1179 1 2 0.0 13.714422 13.879656 0.000000
1180 1 2 0.0 10.409742 13.879656 0.165234
1181 1 2 0.0 10.409742 13.879656 0.330468
1182 1 2 0.0 10.409742 13.879656 0.495702
1183 1 2 0.0 10.409742 13.879656 0.660935
1184 1 2 0.0 10.409742 13.879656 0.826169
1185 1 2 0.0 10.409742 13.879656 0.991403
1186 1 2 0.0 10.409742 13.879656 1.156637
1187 1 2 0.0 10.409742 13.879656 1.321871
1188 1 2 0.0 10.409742 13.879656 1.487105
1189 1 2 0.0 10.409742 13.879656 1.652338
1190 1 2 0.0 10.409742 13.879656 1.817576
1191 1 2 0.0 10.409742 13.879656 1.982809
1192 1 2 0.0 10.409742 13.879656 2.148043
1193 1 2 0.0 10.409742 13.879656 2.313277
1194 1 2 0.0 10.409742 13.879656 2.478511
1195 1 2 0.0 10.409742 13.879656 2.643745
1196 1 2 0.0 10.409742 13.879656 2.808979
1197 1 2 0.0 10.409742 13.879656 2.974212
1198 1 2 0.0 10.409742 13.879656 3.139446
1199 1 2 0.0 10.409742 13.879656 3.304680
1200 1 2 0.0 13.879656 13.879656 17.184336
1201 1 2 0.0 13.879656 13.879656 17.019102
1202 1 2 0.0 13.879656 13.879656 16.853868
1203 1 2 0.0 13.879656 13.879656 16.688635
1204 1 2 0.0 13.879656 13.879656 16.523401
1205 1 2 0.0 13.879656 13.879656 16.358167
1206 1 2 0.0 13.879656 13.879656 16.192933
1207 1 2 0.0 13.879656 13.879656 16.027699
1208 1 2 0.0 13.879656 13.879656 15.862465
1209 1 2 0.0 13.879656 13.879656 15.697232
1210 1 2 0.0 13.879656 13.879656 15.531994
1211 1 2 0.0 13.879656 13.879656 15.366761
1212 1 2 0.0 13.879656 13.879656 15.201527
1213 1 2 0.0 13.879656 13.879656 15.036293
1214 1 2 0.0 13.879656 13.879656 14.871059
1215 1 2 0.0 13.879656 13.879656 14.705825
1216 1 2 0.0 13.879656 13.879656 14.540591
1217 1 2 0.0 13.879656 13.879656 14.375358
1218 1 2 0.0 13.879656 13.879656 14.210124
1219 1 2 0.0 13.879656 13.879656 14.044890
1220 1 2 0.0 0.000000 0.000000 3.635148
1221 1 2 0.0 0.000000 0.000000 3.800382
1222 1 2 0.0 0.000000 0.000000 3.965616
1223 1 2 0.0 0.000000 0.000000 4.130849
1224 1 2 0.0 0.000000 0.000000 4.296083
1225 1 2 0.0 0.000000 0.000000 4.461317
1226 1 2 0.0 0.000000 0.000000 4.626551
1227 1 2 0.0 0.000000 0.000000 4.791785
1228 1 2 0.0 0.000000 0.000000 4.957019
1229 1 2 0.0 0.000000 0.000000 5.122252
1230 1 2 0.0 0.000000 0.000000 5.287490
1231 1 2 0.0 0.000000 0.000000 5.452723
1232 1 2 0.0 0.000000 0.000000 5.617957
1233 1 2 0.0 0.000000 0.000000 5.783191
1234 1 2 0.0 0.000000 0.000000 5.948425
1235 1 2 0.0 0.000000 0.000000 6.113659
1236 1 2 0.0 0.000000 0.000000 6.278893
1237 1 2 0.0 0.000000 0.000000 6.444126
1238 1 2 0.0 0.000000 0.000000 6.609360
1239 1 2 0.0 0.000000 0.000000 6.774594
1240 1 2 0.0 17.184336 0.000000 3.469914
1241 1 2 0.0 17.019102 0.000000 3.469914
1242 1 2 0.0 16.853868 0.000000 3.469914
1243 1 2 0.0 16.688635 0.000000 3.469914
1244 1 2 0.0 16.523401 0.000000 3.469914
1245 1 2 0.0 16.358167 0.000000 3.469914
1246 1 2 0.0 16.192933 0.000000 3.469914
1247 1 2 0.0 16.027699 0.000000 3.469914
1248 1 2 0.0 15.862465 0.000000 3.469914
1249 1 2 0.0 15.697232 0.000000 3.469914
1250 1 2 0.0 15.531994 0.000000 3.469914
1251 1 2 0.0 15.366761 0.000000 3.469914
1252 1 2 0.0 15.201527 0.000000 3.469914
1253 1 2 0.0 15.036293 0.000000 3.469914
1254 1 2 0.0 14.871059 0.000000 3.469914
1255 1 2 0.0 14.705825 0.000000 3.469914
1256 1 2 0.0 14.540591 0.000000 3.469914
1257 1 2 0.0 14.375358 0.000000 3.469914
1258 1 2 0.0 14.210124 0.000000 3.469914
1259 1 2 0.0 14.044890 0.000000 3.469914
1260 1 2 0.0 0.000000 17.184336 3.469914
1261 1 2 0.0 0.000000 17.019102 3.469914
1262 1 2 0.0 0.000000 16.853868 3.469914
1263 1 2 0.0 0.000000 16.688635 3.469914
1264 1 2 0.0 0.000000 16.523401 3.469914
1265 1 2 0.0 0.000000 16.358167 3.469914
1266 1 2 0.0 0.000000 16.192933 3.469914
1267 1 2 0.0 0.000000 16.027699 3.469914
1268 1 2 0.0 0.000000 15.862465 3.469914
1269 1 2 0.0 0.000000 15.697232 3.469914
1270 1 2 0.0 0.000000 15.531994 3.469914
1271 1 2 0.0 0.000000 15.366761 3.469914
1272 1 2 0.0 0.000000 15.201527 3.469914
1273 1 2 0.0 0.000000 15.036293 3.469914
1274 1 2 0.0 0.000000 14.871059 3.469914
1275 1 2 0.0 0.000000 14.705825 3.469914
1276 1 2 0.0 0.000000 14.540591 3.469914
1277 1 2 0.0 0.000000 14.375358 3.469914
1278 1 2 0.0 0.000000 14.210124 3.469914
1279 1 2 0.0 0.000000 14.044890 3.469914
1280 1 2 0.0 3.635148 0.000000 3.469914
1281 1 2 0.0 3.800382 0.000000 3.469914
1282 1 2 0.0 3.965616 0.000000 3.469914
1283 1 2 0.0 4.130849 0.000000 3.469914
1284 1 2 0.0 4.296083 0.000000 3.469914
1285 1 2 0.0 4.461317 0.000000 3.469914
1286 1 2 0.0 4.626551 0.000000 3.469914
1287 1 2 0.0 4.791785 0.000000 3.469914
1288 1 2 0.0 4.957019 0.000000 3.469914
1289 1 2 0.0 5.122252 0.000000 3.469914
1290 1 2 0.0 5.287490 0.000000 3.469914
1291 1 2 0.0 5.452723 0.000000 3.469914
1292 1 2 0.0 5.617957 0.000000 3.469914
1293 1 2 0.0 5.783191 0.000000 3.469914
1294 1 2 0.0 5.948425 0.000000 3.469914
1295 1 2 0.0 6.113659 0.000000 3.469914
1296 1 2 0.0 6.278893 0.000000 3.469914
1297 1 2 0.0 6.444126 0.000000 3.469914
1298 1 2 0.0 6.609360 0.000000 3.469914
1299 1 2 0.0 6.774594 0.000000 3.469914
1300 1 2 0.0 3.469914 0.165234 3.469914
1301 1 2 0.0 3.469914 0.330468 3.469914
1302 1 2 0.0 3.469914 0.495702 3.469914
1303 1 2 0.0 3.469914 0.660935 3.469914
1304 1 2 0.0 3.469914 0.826169 3.469914
1305 1 2 0.0 3.469914 0.991403 3.469914
1306 1 2 0.0 3.469914 1.156637 3.469914
1307 1 2 0.0 3.469914 1.321871 3.469914
1308 1 2 0.0 3.469914 1.487105 3.469914
1309 1 2 0.0 3.469914 1.652338 3.469914
1310 1 2 0.0 3.469914 1.817576 3.469914
1311 1 2 0.0 3.469914 1.982809 3.469914
1312 1 2 0.0 3.469914 2.148043 3.469914
1313 1 2 0.0 3.469914 2.313277 3.469914
1314 1 2 0.0 3.469914 2.478511 3.469914
1315 1 2 0.0 3.469914 2.643745 3.469914
1316 1 2 0.0 3.469914 2.808979 3.469914
1317 1 2 0.0 3.469914 2.974212 3.469914
1318 1 2 0.0 3.469914 3.139446 3.469914
1319 1 2 0.0 3.469914 3.304680 3.469914
1320 1 2 0.0 3.469914 17.184336 3.469914
1321 1 2 0.0 3.469914 17.019102 3.469914
1322 1 2 0.0 3.469914 16.853868 3.469914
1323 1 2 0.0 3.469914 16.688635 3.469914
1324 1 2 0.0 3.469914 16.523401 3.469914
1325 1 2 0.0 3.469914 16.358167 3.469914
1326 1 2 0.0 3.469914 16.192933 3.469914
1327 1 2 0.0 3.469914 16.027699 3.469914
1328 1 2 0.0 3.469914 15.862465 3.469914
1329 1 2 0.0 3.469914 15.697232 3.469914
1330 1 2 0.0 3.469914 15.531994 3.469914
1331 1 2 0.0 3.469914 15.366761 3.469914
1332 1 2 0.0 3.469914 15.201527 3.469914
1333 1 2 0.0 3.469914 15.036293 3.469914
1334 1 2 0.0 3.469914 14.871059 3.469914
1335 1 2 0.0 3.469914 14.705825 3.469914
1336 1 2 0.0 3.469914 14.540591 3.469914
1337 1 2 0.0 3.469914 14.375358 3.469914
1338 1 2 0.0 3.469914 14.210124 3.469914
1339 1 2 0.0 3.469914 14.044890 3.469914
1340 1 2 0.0 6.939828 0.165234 3.469914
1341 1 2 0.0 6.939828 0.330468 3.469914
1342 1 2 0.0 6.939828 0.495702 3.469914
1343 1 2 0.0 6.939828 0.660935 3.469914
1344 1 2 0.0 6.939828 0.826169 3.469914
1345 1 2 0.0 6.939828 0.991403 3.469914
1346 1 2 0.0 6.939828 1.156637 3.469914
1347 1 2 0.0 6.939828 1.321871 3.469914
1348 1 2 0.0 6.939828 1.487105 3.469914
1349 1 2 0.0 6.939828 1.652338 3.469914
1350 1 2 0.0 6.939828 1.817576 3.469914
1351 1 2 0.0 6.939828 1.982809 3.469914
1352 1 2 0.0 6.939828 2.148043 3.469914
1353 1 2 0.0 6.939828 2.313277 3.469914
1354 1 2 0.0 6.939828 2.478511 3.469914
1355 1 2 0.0 6.939828 2.643745 3.469914
1356 1 2 0.0 6.939828 2.808979 3.469914
1357 1 2 0.0 6.939828 2.974212 3.469914
1358 1 2 0.0 6.939828 3.139446 3.469914
1359 1 2 0.0 6.939828 3.304680 3.469914
1360 1 2 0.0 6.939828 0.000000 3.635148
1361 1 2 0.0 6.939828 0.000000 3.800382
1362 1 2 0.0 6.939828 0.000000 3.965616
1363 1 2 0.0 6.939828 0.000000 4.130849
1364 1 2 0.0 6.939828 0.000000 4.296083
1365 1 2 0.0 6.939828 0.000000 4.461317
1366 1 2 0.0 6.939828 0.000000 4.626551
1367 1 2 0.0 6.939828 0.000000 4.791785
1368 1 2 0.0 6.939828 0.000000 4.957019
1369 1 2 0.0 6.939828 0.000000 5.122252
1370 1 2 0.0 6.939828 0.000000 5.287490
1371 1 2 0.0 6.939828 0.000000 5.452723
1372 1 2 0.0 6.939828 0.000000 5.617957
1373 1 2 0.0 6.939828 0.000000 5.783191
1374 1 2 0.0 6.939828 0.000000 5.948425
1375 1 2 0.0 6.939828 0.000000 6.113659
1376 1 2 0.0 6.939828 0.000000 6.278893
1377 1 2 0.0 6.939828 0.000000 6.444126
1378 1 2 0.0 6.939828 0.000000 6.609360
1379 1 2 0.0 6.939828 0.000000 6.774594
1380 1 2 0.0 10.574976 0.000000 3.469914
1381 1 2 0.0 10.740210 0.000000 3.469914
1382 1 2 0.0 10.905444 0.000000 3.469914
1383 1 2 0.0 11.070677 0.000000 3.469914
1384 1 2 0.0 11.235911 0.000000 3.469914
1385 1 2 0.0 11.401145 0.000000 3.469914
1386 1 2 0.0 11.566379 0.000000 3.469914
1387 1 2 0.0 11.731613 0.000000 3.469914
1388 1 2 0.0 11.896847 0.000000 3.469914
1389 1 2 0.0 12.062080 0.000000 3.469914
1390 1 2 0.0 12.227318 0.000000 3.469914
1391 1 2 0.0 12.392551 0.000000 3.469914
1392 1 2 0.0 12.557785 0.000000 3.469914
1393 1 2 0.0 12.723019 0.000000 3.469914
1394 1 2 0.0 12.888253 0.000000 3.469914
1395 1 2 0.0 13.053487 0.000000 3.469914
1396 1 2 0.0 13.218721 0.000000 3.469914
1397 1 2 0.0 13.383954 0.000000 3.469914
1398 1 2 0.0 13.549188 0.000000 3.469914
1399 1 2 0.0 13.714422 0.000000 3.469914
1400 1 2 0.0 10.409742 0.165234 3.469914
1401 1 2 0.0 10.409742 0.330468 3.469914
1402 1 2 0.0 10.409742 0.495702 3.469914
1403 1 2 0.0 10.409742 0.660935 3.469914
1404 1 2 0.0 10.409742 0.826169 3.469914
1405 1 2 0.0 10.409742 0.991403 3.469914
1406 1 2 0.0 10.409742 1.156637 3.469914
1407 1 2 0.0 10.409742 1.321871 3.469914
1408 1 2 0.0 10.409742 1.487105 3.469914
1409 1 2 0.0 10.409742 1.652338 3.469914
1410 1 2 0.0 10.409742 1.817576 3.469914
1411 1 2 0.0 10.409742 1.982809 3.469914
1412 1 2 0.0 10.409742 2.148043 3.469914
1413 1 2 0.0 10.409742 2.313277 3.469914
1414 1 2 0.0 10.409742 2.478511 3.469914
1415 1 2 0.0 10.409742 2.643745 3.469914
1416 1 2 0.0 10.409742 2.808979 3.469914
1417 1 2 0.0 10.409742 2.974212 3.469914
1418 1 2 0.0 10.409742 3.139446 3.469914
1419 1 2 0.0 10.409742 3.304680 3.469914
1420 1 2 0.0 10.409742 17.184336 3.469914
1421 1 2 0.0 10.409742 17.019102 3.469914
1422 1 2 0.0 10.409742 16.853868 3.469914
1423 1 2 0.0 10.409742 16.688635 3.469914
1424 1 2 0.0 10.409742 16.523401 3.469914
1425 1 2 0.0 10.409742 16.358167 3.469914
1426 1 2 0.0 10.409742 16.192933 3.469914
1427 1 2 0.0 10.409742 16.027699 3.469914
1428 1 2 0.0 10.409742 15.862465 3.469914
1429 1 2 0.0 10.409742 15.697232 3.469914
1430 1 2 0.0 10.409742 15.531994 3.469914
1431 1 2 0.0 10.409742 15.366761 3.469914
1432 1 2 0.0 10.409742 15.201527 3.469914
1433 1 2 0.0 10.409742 15.036293 3.469914
1434 1 2 0.0 10.409742 14.871059 3.469914
1435 1 2 0.0 10.409742 14.705825 3.469914
1436 1 2 0.0 10.409742 14.540591 3.469914
1437 1 2 0.0 10.409742 14.375358 3.469914
1438 1 2 0.0 10.409742 14.210124 3.469914
1439 1 2 0.0 10.409742 14.044890 3.469914
1440 1 2 0.0 13.879656 0.000000 3.635148
1441 1 2 0.0 13.879656 0.000000 3.800382
1442 1 2 0.0 13.879656 0.000000 3.965616
1443 1 2 0.0 13.879656 0.000000 4.130849
1444 1 2 0.0 13.879656 0.000000 4.296083
1445 1 2 0.0 13.879656 0.000000 4.461317
1446 1 2 0.0 13.879656 0.000000 4.626551
1447 1 2 0.0 13.879656 0.000000 4.791785
1448 1 2 0.0 13.879656 0.000000 4.957019
1449 1 2 0.0 13.879656 0.000000 5.122252
1450 1 2 0.0 13.879656 0.000000 5.287490
1451 1 2 0.0 13.879656 0.000000 5.452723
1452 1 2 0.0 13.879656 0.000000 5.617957
1453 1 2 0.0 13.879656 0.000000 5.783191
1454 1 2 0.0 13.879656 0.000000 5.948425
1455 1 2 0.0 13.879656 0.000000 6.113659
1456 1 2 0.0 13.879656 0.000000 6.278893
1457 1 2 0.0 13.879656 0.000000 6.444126
1458 1 2 0.0 13.879656 0.000000 6.609360
1459 1 2 0.0 13.879656 0.000000 6.774594
1460 1 2 0.0 0.165234 3.469914 3.469914
1461 1 2 0.0 0.330468 3.469914 3.469914
1462 1 2 0.0 0.495702 3.469914 3.469914
1463 1 2 0.0 0.660935 3.469914 3.469914
1464 1 2 0.0 0.826169 3.469914 3.469914
1465 1 2 0.0 0.991403 3.469914 3.469914
1466 1 2 0.0 1.156637 3.469914 3.469914
1467 1 2 0.0 1.321871 3.469914 3.469914
1468 1 2 0.0 1.487105 3.469914 3.469914
1469 1 2 0.0 1.652338 3.469914 3.469914
1470 1 2 0.0 1.817576 3.469914 3.469914
1471 1 2 0.0 1.982809 3.469914 3.469914
1472 1 2 0.0 2.148043 3.469914 3.469914
1473 1 2 0.0 2.313277 3.469914 3.469914
1474 1 2 0.0 2.478511 3.469914 3.469914
1475 1 2 0.0 2.643745 3.469914 3.469914
1476 1 2 0.0 2.808979 3.469914 3.469914
1477 1 2 0.0 2.974212 3.469914 3.469914
1478 1 2 0.0 3.139446 3.469914 3.469914
1479 1 2 0.0 3.304680 3.469914 3.469914
1480 1 2 0.0 0.000000 3.635148 3.469914
1481 1 2 0.0 0.000000 3.800382 3.469914
1482 1 2 0.0 0.000000 3.965616 3.469914
1483 1 2 0.0 0.000000 4.130849 3.469914
1484 1 2 0.0 0.000000 4.296083 3.469914
1485 1 2 0.0 0.000000 4.461317 3.469914
1486 1 2 0.0 0.000000 4.626551 3.469914
1487 1 2 0.0 0.000000 4.791785 3.469914
1488 1 2 0.0 0.000000 4.957019 3.469914
1489 1 2 0.0 0.000000 5.122252 3.469914
1490 1 2 0.0 0.000000 5.287490 3.469914
1491 1 2 0.0 0.000000 5.452723 3.469914
1492 1 2 0.0 0.000000 5.617957 3.469914
1493 1 2 0.0 0.000000 5.783191 3.469914
1494 1 2 0.0 0.000000 5.948425 3.469914
1495 1 2 0.0 0.000000 6.113659 3.469914
1496 1 2 0.0 0.000000 6.278893 3.469914
1497 1 2 0.0 0.000000 6.444126 3.469914
1498 1 2 0.0 0.000000 6.609360 3.469914
1499 1 2 0.0 0.000000 6.774594 3.469914
1500 1 2 0.0 3.469914 3.635148 3.469914
1501 1 2 0.0 3.469914 3.800382 3.469914
1502 1 2 0.0 3.469914 3.965616 3.469914
1503 1 2 0.0 3.469914 4.130849 3.469914
1504 1 2 0.0 3.469914 4.296083 3.469914
1505 1 2 0.0 3.469914 4.461317 3.469914
1506 1 2 0.0 3.469914 4.626551 3.469914
1507 1 2 0.0 3.469914 4.791785 3.469914
1508 1 2 0.0 3.469914 4.957019 3.469914
1509 1 2 0.0 3.469914 5.122252 3.469914
1510 1 2 0.0 3.469914 5.287490 3.469914
1511 1 2 0.0 3.469914 5.452723 3.469914
1512 1 2 0.0 3.469914 5.617957 3.469914
1513 1 2 0.0 3.469914 5.783191 3.469914
1514 1 2 0.0 3.469914 5.948425 3.469914
1515 1 2 0.0 3.469914 6.113659 3.469914
1516 1 2 0.0 3.469914 6.278893 3.469914
1517 1 2 0.0 3.469914 6.444126 3.469914
1518 1 2 0.0 3.469914 6.609360 3.469914
1519 1 2 0.0 3.469914 6.774594 3.469914
1520 1 2 0.0 3.469914 3.469914 3.635148
1521 1 2 0.0 3.469914 3.469914 3.800382
1522 1 2 0.0 3.469914 3.469914 3.965616
1523 1 2 0.0 3.469914 3.469914 4.130849
1524 1 2 0.0 3.469914 3.469914 4.296083
1525 1 2 0.0 3.469914 3.469914 4.461317
1526 1 2 0.0 3.469914 3.469914 4.626551
1527 1 2 0.0 3.469914 3.469914 4.791785
1528 1 2 0.0 3.469914 3.469914 4.957019
1529 1 2 0.0 3.469914 3.469914 5.122252
1530 1 2 0.0 3.469914 3.469914 5.287490
1531 1 2 0.0 3.469914 3.469914 5.452723
1532 1 2 0.0 3.469914 3.469914 5.617957
1533 1 2 0.0 3.469914 3.469914 5.783191
1534 1 2 0.0 3.469914 3.469914 5.948425
1535 1 2 0.0 3.469914 3.469914 6.113659
1536 1 2 0.0 3.469914 3.469914 6.278893
1537 1 2 0.0 3.469914 3.469914 6.444126
1538 1 2 0.0 3.469914 3.469914 6.609360
1539 1 2 0.0 3.469914 3.469914 6.774594
1540 1 2 0.0 6.939828 3.635148 3.469914
1541 1 2 0.0 6.939828 3.800382 3.469914
1542 1 2 0.0 6.939828 3.965616 3.469914
1543 1 2 0.0 6.939828 4.130849 3.469914
1544 1 2 0.0 6.939828 4.296083 3.469914
1545 1 2 0.0 6.939828 4.461317 3.469914
1546 1 2 0.0 6.939828 4.626551 3.469914
1547 1 2 0.0 6.939828 4.791785 3.469914
1548 1 2 0.0 6.939828 4.957019 3.469914
1549 1 2 0.0 6.939828 5.122252 3.469914
1550 1 2 0.0 6.939828 5.287490 3.469914
1551 1 2 0.0 6.939828 5.452723 3.469914
1552 1 2 0.0 6.939828 5.617957 3.469914
1553 1 2 0.0 6.939828 5.783191 3.469914
1554 1 2 0.0 6.939828 5.948425 3.469914
1555 1 2 0.0 6.939828 6.113659 3.469914
1556 1 2 0.0 6.939828 6.278893 3.469914
1557 1 2 0.0 6.939828 6.444126 3.469914
1558 1 2 0.0 6.939828 6.609360 3.469914
1559 1 2 0.0 6.939828 6.774594 3.469914
1560 1 2 0.0 6.939828 3.469914 3.635148
1561 1 2 0.0 6.939828 3.469914 3.800382
1562 1 2 0.0 6.939828 3.469914 3.965616
1563 1 2 0.0 6.939828 3.469914 4.130849
1564 1 2 0.0 6.939828 3.469914 4.296083
1565 1 2 0.0 6.939828 3.469914 4.461317
1566 1 2 0.0 6.939828 3.469914 4.626551
1567 1 2 0.0 6.939828 3.469914 4.791785
1568 1 2 0.0 6.939828 3.469914 4.957019
1569 1 2 0.0 6.939828 3.469914 5.122252
1570 1 2 0.0 6.939828 3.469914 5.287490
1571 1 2 0.0 6.939828 3.469914 5.452723
1572 1 2 0.0 6.939828 3.469914 5.617957
1573 1 2 0.0 6.939828 3.469914 5.783191
1574 1 2 0.0 6.939828 3.469914 5.948425
1575 1 2 0.0 6.939828 3.469914 6.113659
1576 1 2 0.0 6.939828 3.469914 6.278893
1577 1 2 0.0 6.939828 3.469914 6.444126
1578 1 2 0.0 6.939828 3.469914 6.609360
1579 1 2 0.0 6.939828 3.469914 6.774594
1580 1 2 0.0 10.574976 3.469914 3.469914
1581 1 2 0.0 10.740210 3.469914 3.469914
1582 1 2 0.0 10.905444 3.469914 3.469914
1583 1 2 0.0 11.070677 3.469914 3.469914
1584 1 2 0.0 11.235911 3.469914 3.469914
1585 1 2 0.0 11.401145 3.469914 3.469914
1586 1 2 0.0 11.566379 3.469914 3.469914
1587 1 2 0.0 11.731613 3.469914 3.469914
1588 1 2 0.0 11.896847 3.469914 3.469914
1589 1 2 0.0 12.062080 3.469914 3.469914
1590 1 2 0.0 12.227318 3.469914 3.469914
1591 1 2 0.0 12.392551 3.469914 3.469914
1592 1 2 0.0 12.557785 3.469914 3.469914
1593 1 2 0.0 12.723019 3.469914 3.469914
1594 1 2 0.0 12.888253 3.469914 3.469914
1595 1 2 0.0 13.053487 3.469914 3.469914
1596 1 2 0.0 13.218721 3.469914 3.469914
1597 1 2 0.0 13.383954 3.469914 3.469914
1598 1 2 0.0 13.549188 3.469914 3.469914
1599 1 2 0.0 13.714422 3.469914 3.469914
1600 1 2 0.0 10.409742 3.469914 3.635148
1601 1 2 0.0 10.409742 3.469914 3.800382
1602 1 2 0.0 10.409742 3.469914 3.965616
1603 1 2 0.0 10.409742 3.469914 4.130849
1604 1 2 0.0 10.409742 3.469914 4.296083
1605 1 2 0.0 10.409742 3.469914 4.461317
1606 1 2 0.0 10.409742 3.469914 4.626551
1607 1 2 0.0 10.409742 3.469914 4.791785
1608 1 2 0.0 10.409742 3.469914 4.957019
1609 1 2 0.0 10.409742 3.469914 5.122252
1610 1 2 0.0 10.409742 3.469914 5.287490
1611 1 2 0.0 10.409742 3.469914 5.452723
1612 1 2 0.0 10.409742 3.469914 5.617957
1613 1 2 0.0 10.409742 3.469914 5.783191
1614 1 2 0.0 10.409742 3.469914 5.948425
1615 1 2 0.0 10.409742 3.469914 6.113659
1616 1 2 0.0 10.409742 3.469914 6.278893
1617 1 2 0.0 10.409742 3.469914 6.444126
1618 1 2 0.0 10.409742 3.469914 6.609360
1619 1 2 0.0 10.409742 3.469914 6.774594
1620 1 2 0.0 13.879656 3.635148 3.469914
1621 1 2 0.0 13.879656 3.800382 3.469914
1622 1 2 0.0 13.879656 3.965616 3.469914
1623 1 2 0.0 13.879656 4.130849 3.469914
1624 1 2 0.0 13.879656 4.296083 3.469914
1625 1 2 0.0 13.879656 4.461317 3.469914
1626 1 2 0.0 13.879656 4.626551 3.469914
1627 1 2 0.0 13.879656 4.791785 3.469914
1628 1 2 0.0 13.879656 4.957019 3.469914
1629 1 2 0.0 13.879656 5.122252 3.469914
1630 1 2 0.0 13.879656 5.287490 3.469914
1631 1 2 0.0 13.879656 5.452723 3.469914
1632 1 2 0.0 13.879656 5.617957 3.469914
1633 1 2 0.0 13.879656 5.783191 3.469914
1634 1 2 0.0 13.879656 5.948425 3.469914
1635 1 2 0.0 13.879656 6.113659 3.469914
1636 1 2 0.0 13.879656 6.278893 3.469914
1637 1 2 0.0 13.879656 6.444126 3.469914
1638 1 2 0.0 13.879656 6.609360 3.469914
1639 1 2 0.0 13.879656 6.774594 3.469914
1640 1 2 0.0 0.000000 7.105062 3.469914
1641 1 2 0.0 0.000000 7.270296 3.469914
1642 1 2 0.0 0.000000 7.435530 3.469914
1643 1 2 0.0 0.000000 7.600763 3.469914
1644 1 2 0.0 0.000000 7.765997 3.469914
1645 1 2 0.0 0.000000 7.931231 3.469914
1646 1 2 0.0 0.000000 8.096465 3.469914
1647 1 2 0.0 0.000000 8.261699 3.469914
1648 1 2 0.0 0.000000 8.426933 3.469914
1649 1 2 0.0 0.000000 8.592166 3.469914
1650 1 2 0.0 0.000000 8.757404 3.469914
1651 1 2 0.0 0.000000 8.922637 3.469914
1652 1 2 0.0 0.000000 9.087871 3.469914
1653 1 2 0.0 0.000000 9.253105 3.469914
1654 1 2 0.0 0.000000 9.418339 3.469914
1655 1 2 0.0 0.000000 9.583573 3.469914
1656 1 2 0.0 0.000000 9.748807 3.469914
1657 1 2 0.0 0.000000 9.914040 3.469914
1658 1 2 0.0 0.000000 10.079274 3.469914
1659 1 2 0.0 0.000000 10.244508 3.469914
1660 1 2 0.0 3.469914 6.939828 3.635148
1661 1 2 0.0 3.469914 6.939828 3.800382
1662 1 2 0.0 3.469914 6.939828 3.965616
1663 1 2 0.0 3.469914 6.939828 4.130849
1664 1 2 0.0 3.469914 6.939828 4.296083
1665 1 2 0.0 3.469914 6.939828 4.461317
1666 1 2 0.0 3.469914 6.939828 4.626551
1667 1 2 0.0 3.469914 6.939828 4.791785
1668 1 2 0.0 3.469914 6.939828 4.957019
1669 1 2 0.0 3.469914 6.939828 5.122252
1670 1 2 0.0 3.469914 6.939828 5.287490
1671 1 2 0.0 3.469914 6.939828 5.452723
1672 1 2 0.0 3.469914 6.939828 5.617957
1673 1 2 0.0 3.469914 6.939828 5.783191
1674 1 2 0.0 3.469914 6.939828 5.948425
1675 1 2 0.0 3.469914 6.939828 6.113659
1676 1 2 0.0 3.469914 6.939828 6.278893
1677 1 2 0.0 3.469914 6.939828 6.444126
1678 1 2 0.0 3.469914 6.939828 6.609360
1679 1 2 0.0 3.469914 6.939828 6.774594
1680 1 2 0.0 7.105062 6.939828 3.469914
1681 1 2 0.0 7.270296 6.939828 3.469914
1682 1 2 0.0 7.435530 6.939828 3.469914
1683 1 2 0.0 7.600763 6.939828 3.469914
1684 1 2 0.0 7.765997 6.939828 3.469914
1685 1 2 0.0 7.931231 6.939828 3.469914
1686 1 2 0.0 8.096465 6.939828 3.469914
1687 1 2 0.0 8.261699 6.939828 3.469914
1688 1 2 0.0 8.426933 6.939828 3.469914
1689 1 2 0.0 8.592166 6.939828 3.469914
1690 1 2 0.0 8.757404 6.939828 3.469914
1691 1 2 0.0 8.922637 6.939828 3.469914
1692 1 2 0.0 9.087871 6.939828 3.469914
1693 1 2 0.0 9.253105 6.939828 3.469914
1694 1 2 0.0 9.418339 6.939828 3.469914
1695 1 2 0.0 9.583573 6.939828 3.469914
1696 1 2 0.0 9.748807 6.939828 3.469914
1697 1 2 0.0 9.914040 6.939828 3.469914
1698 1 2 0.0 10.079274 6.939828 3.469914
1699 1 2 0.0 10.244508 6.939828 3.469914
1700 1 2 0.0 6.939828 6.939828 3.635148
1701 1 2 0.0 6.939828 6.939828 3.800382
1702 1 2 0.0 6.939828 6.939828 3.965616
1703 1 2 0.0 6.939828 6.939828 4.130849
1704 1 2 0.0 6.939828 6.939828 4.296083
1705 1 2 0.0 6.939828 6.939828 4.461317
1706 1 2 0.0 6.939828 6.939828 4.626551
1707 1 2 0.0 6.939828 6.939828 4.791785
1708 1 2 0.0 6.939828 6.939828 4.957019
1709 1 2 0.0 6.939828 6.939828 5.122252
1710 1 2 0.0 6.939828 6.939828 5.287490
1711 1 2 0.0 6.939828 6.939828 5.452723
1712 1 2 0.0 6.939828 6.939828 5.617957
1713 1 2 0.0 6.939828 6.939828 5.783191
1714 1 2 0.0 6.939828 6.939828 5.948425
1715 1 2 0.0 6.939828 6.939828 6.113659
1716 1 2 0.0 6.939828 6.939828 6.278893
1717 1 2 0.0 6.939828 6.939828 6.444126
1718 1 2 0.0 6.939828 6.939828 6.609360
1719 1 2 0.0 6.939828 6.939828 6.774594
1720 1 2 0.0 10.574976 6.939828 3.469914
1721 1 2 0.0 10.740210 6.939828 3.469914
1722 1 2 0.0 10.905444 6.939828 3.469914
1723 1 2 0.0 11.070677 6.939828 3.469914
1724 1 2 0.0 11.235911 6.939828 3.469914
1725 1 2 0.0 11.401145 6.939828 3.469914
1726 1 2 0.0 11.566379 6.939828 3.469914
1727 1 2 0.0 11.731613 6.939828 3.469914
1728 1 2 0.0 11.896847 6.939828 3.469914
1729 1 2 0.0 12.062080 6.939828 3.469914
1730 1 2 0.0 12.227318 6.939828 3.469914
1731 1 2 0.0 12.392551 6.939828 3.469914
1732 1 2 0.0 12.557785 6.939828 3.469914
1733 1 2 0.0 12.723019 6.939828 3.469914
1734 1 2 0.0 12.888253 6.939828 3.469914
1735 1 2 0.0 13.053487 6.939828 3.469914
1736 1 2 0.0 13.218721 6.939828 3.469914
1737 1 2 0.0 13.383954 6.939828 3.469914
1738 1 2 0.0 13.549188 6.939828 3.469914
1739 1 2 0.0 13.714422 6.939828 3.469914
1740 1 2 0.0 10.409742 7.105062 3.469914
1741 1 2 0.0 10.409742 7.270296 3.469914
1742 1 2 0.0 10.409742 7.435530 3.469914
1743 1 2 0.0 10.409742 7.600763 3.469914
1744 1 2 0.0 10.409742 7.765997 3.469914
1745 1 2 0.0 10.409742 7.931231 3.469914
1746 1 2 0.0 10.409742 8.096465 3.469914
1747 1 2 0.0 10.409742 8.261699 3.469914
1748 1 2 0.0 10.409742 8.426933 3.469914
1749 1 2 0.0 10.409742 8.592166 3.469914
1750 1 2 0.0 10.409742 8.757404 3.469914
1751 1 2 0.0 10.409742 8.922637 3.469914
1752 1 2 0.0 10.409742 9.087871 3.469914
1753 1 2 0.0 10.409742 9.253105 3.469914
1754 1 2 0.0 10.409742 9.418339 3.469914
1755 1 2 0.0 10.409742 9.583573 3.469914
1756 1 2 0.0 10.409742 9.748807 3.469914
1757 1 2 0.0 10.409742 9.914040 3.469914
1758 1 2 0.0 10.409742 10.079274 3.469914
1759 1 2 0.0 10.409742 10.244508 3.469914
1760 1 2 0.0 10.409742 6.939828 3.635148
1761 1 2 0.0 10.409742 6.939828 3.800382
1762 1 2 0.0 10.409742 6.939828 3.965616
1763 1 2 0.0 10.409742 6.939828 4.130849
1764 1 2 0.0 10.409742 6.939828 4.296083
1765 1 2 0.0 10.409742 6.939828 4.461317
1766 1 2 0.0 10.409742 6.939828 4.626551
1767 1 2 0.0 10.409742 6.939828 4.791785
1768 1 2 0.0 10.409742 6.939828 4.957019
1769 1 2 0.0 10.409742 6.939828 5.122252
1770 1 2 0.0 10.409742 6.939828 5.287490
1771 1 2 0.0 10.409742 6.939828 5.452723
1772 1 2 0.0 10.409742 6.939828 5.617957
1773 1 2 0.0 10.409742 6.939828 5.783191
1774 1 2 0.0 10.409742 6.939828 5.948425
1775 1 2 0.0 10.409742 6.939828 6.113659
1776 1 2 0.0 10.409742 6.939828 6.278893
1777 1 2 0.0 10.409742 6.939828 6.444126
1778 1 2 0.0 10.409742 6.939828 6.609360
1779 1 2 0.0 10.409742 6.939828 6.774594
1780 1 2 0.0 13.879656 7.105062 3.469914
1781 1 2 0.0 13.879656 7.270296 3.469914
1782 1 2 0.0 13.879656 7.435530 3.469914
1783 1 2 0.0 13.879656 7.600763 3.469914
1784 1 2 0.0 13.879656 7.765997 3.469914
1785 1 2 0.0 13.879656 7.931231 3.469914
1786 1 2 0.0 13.879656 8.096465 3.469914
1787 1 2 0.0 13.879656 8.261699 3.469914
1788 1 2 0.0 13.879656 8.426933 3.469914
1789 1 2 0.0 13.879656 8.592166 3.469914
1790 1 2 0.0 13.879656 8.757404 3.469914
1791 1 2 0.0 13.879656 8.922637 3.469914
1792 1 2 0.0 13.879656 9.087871 3.469914
1793 1 2 0.0 13.879656 9.253105 3.469914
1794 1 2 0.0 13.879656 9.418339 3.469914
1795 1 2 0.0 13.879656 9.583573 3.469914
1796 1 2 0.0 13.879656 9.748807 3.469914
1797 1 2 0.0 13.879656 9.914040 3.469914
1798 1 2 0.0 13.879656 10.079274 3.469914
1799 1 2 0.0 13.879656 10.244508 3.469914
1800 1 2 0.0 13.879656 6.939828 3.635148
1801 1 2 0.0 13.879656 6.939828 3.800382
1802 1 2 0.0 13.879656 6.939828 3.965616
1803 1 2 0.0 13.879656 6.939828 4.130849
1804 1 2 0.0 13.879656 6.939828 4.296083
1805 1 2 0.0 13.879656 6.939828 4.461317
1806 1 2 0.0 13.879656 6.939828 4.626551
1807 1 2 0.0 13.879656 6.939828 4.791785
1808 1 2 0.0 13.879656 6.939828 4.957019
1809 1 2 0.0 13.879656 6.939828 5.122252
1810 1 2 0.0 13.879656 6.939828 5.287490
1811 1 2 0.0 13.879656 6.939828 5.452723
1812 1 2 0.0 13.879656 6.939828 5.617957
1813 1 2 0.0 13.879656 6.939828 5.783191
1814 1 2 0.0 13.879656 6.939828 5.948425
1815 1 2 0.0 13.879656 6.939828 6.113659
1816 1 2 0.0 13.879656 6.939828 6.278893
1817 1 2 0.0 13.879656 6.939828 6.444126
1818 1 2 0.0 13.879656 6.939828 6.609360
1819 1 2 0.0 13.879656 6.939828 6.774594
1820 1 2 0.0 0.000000 10.574976 3.469914
1821 1 2 0.0 0.000000 10.740210 3.469914
1822 1 2 0.0 0.000000 10.905444 3.469914
1823 1 2 0.0 0.000000 11.070677 3.469914
1824 1 2 0.0 0.000000 11.235911 3.469914
1825 1 2 0.0 0.000000 11.401145 3.469914
1826 1 2 0.0 0.000000 11.566379 3.469914
1827 1 2 0.0 0.000000 11.731613 3.469914
1828 1 2 0.0 0.000000 11.896847 3.469914
1829 1 2 0.0 0.000000 12.062080 3.469914
1830 1 2 0.0 0.000000 12.227318 3.469914
1831 1 2 0.0 0.000000 12.392551 3.469914
1832 1 2 0.0 0.000000 12.557785 3.469914
1833 1 2 0.0 0.000000 12.723019 3.469914
1834 1 2 0.0 0.000000 12.888253 3.469914
1835 1 2 0.0 0.000000 13.053487 3.469914
1836 1 2 0.0 0.000000 13.218721 3.469914
1837 1 2 0.0 0.000000 13.383954 3.469914
1838 1 2 0.0 0.000000 13.549188 3.469914
1839 1 2 0.0 0.000000 13.714422 3.469914
1840 1 2 0.0 17.184336 10.409742 3.469914
1841 1 2 0.0 17.019102 10.409742 3.469914
1842 1 2 0.0 16.853868 10.409742 3.469914
1843 1 2 0.0 16.688635 10.409742 3.469914
1844 1 2 0.0 16.523401 10.409742 3.469914
1845 1 2 0.0 16.358167 10.409742 3.469914
1846 1 2 0.0 16.192933 10.409742 3.469914
1847 1 2 0.0 16.027699 10.409742 3.469914
1848 1 2 0.0 15.862465 10.409742 3.469914
1849 1 2 0.0 15.697232 10.409742 3.469914
1850 1 2 0.0 15.531994 10.409742 3.469914
1851 1 2 0.0 15.366761 10.409742 3.469914
1852 1 2 0.0 15.201527 10.409742 3.469914
1853 1 2 0.0 15.036293 10.409742 3.469914
1854 1 2 0.0 14.871059 10.409742 3.469914
1855 1 2 0.0 14.705825 10.409742 3.469914
1856 1 2 0.0 14.540591 10.409742 3.469914
1857 1 2 0.0 14.375358 10.409742 3.469914
1858 1 2 0.0 14.210124 10.409742 3.469914
1859 1 2 0.0 14.044890 10.409742 3.469914
1860 1 2 0.0 7.105062 10.409742 3.469914
1861 1 2 0.0 7.270296 10.409742 3.469914
1862 1 2 0.0 7.435530 10.409742 3.469914
1863 1 2 0.0 7.600763 10.409742 3.469914
1864 1 2 0.0 7.765997 10.409742 3.469914
1865 1 2 0.0 7.931231 10.409742 3.469914
1866 1 2 0.0 8.096465 10.409742 3.469914
1867 1 2 0.0 8.261699 10.409742 3.469914
1868 1 2 0.0 8.426933 10.409742 3.469914
1869 1 2 0.0 8.592166 10.409742 3.469914
1870 1 2 0.0 8.757404 10.409742 3.469914
1871 1 2 0.0 8.922637 10.409742 3.469914
1872 1 2 0.0 9.087871 10.409742 3.469914
1873 1 2 0.0 9.253105 10.409742 3.469914
1874 1 2 0.0 9.418339 10.409742 3.469914
1875 1 2 0.0 9.583573 10.409742 3.469914
1876 1 2 0.0 9.748807 10.409742 3.469914
1877 1 2 0.0 9.914040 10.409742 3.469914
1878 1 2 0.0 10.079274 10.409742 3.469914
1879 1 2 0.0 10.244508 10.409742 3.469914
1880 1 2 0.0 6.939828 10.409742 3.635148
1881 1 2 0.0 6.939828 10.409742 3.800382
1882 1 2 0.0 6.939828 10.409742 3.965616
1883 1 2 0.0 6.939828 10.409742 4.130849
1884 1 2 0.0 6.939828 10.409742 4.296083
1885 1 2 0.0 6.939828 10.409742 4.461317
1886 1 2 0.0 6.939828 10.409742 4.626551
1887 1 2 0.0 6.939828 10.409742 4.791785
1888 1 2 0.0 6.939828 10.409742 4.957019
1889 1 2 0.0 6.939828 10.409742 5.122252
1890 1 2 0.0 6.939828 10.409742 5.287490
1891 1 2 0.0 6.939828 10.409742 5.452723
1892 1 2 0.0 6.939828 10.409742 5.617957
1893 1 2 0.0 6.939828 10.409742 5.783191
1894 1 2 0.0 6.939828 10.409742 5.948425
1895 1 2 0.0 6.939828 10.409742 6.113659
1896 1 2 0.0 6.939828 10.409742 6.278893
1897 1 2 0.0 6.939828 10.409742 6.444126
1898 1 2 0.0 6.939828 10.409742 6.609360
1899 1 2 0.0 6.939828 10.409742 6.774594
1900 1 2 0.0 10.409742 10.574976 3.469914
1901 1 2 0.0 10.409742 10.740210 3.469914
1902 1 2 0.0 10.409742 10.905444 3.469914
1903 1 2 0.0 10.409742 11.070677 3.469914
1904 1 2 0.0 10.409742 11.235911 3.469914
1905 1 2 0.0 10.409742 11.401145 3.469914
1906 1 2 0.0 10.409742 11.566379 3.469914
1907 1 2 0.0 10.409742 11.731613 3.469914
1908 1 2 0.0 10.409742 11.896847 3.469914
1909 1 2 0.0 10.409742 12.062080 3.469914
1910 1 2 0.0 10.409742 12.227318 3.469914
1911 1 2 0.0 10.409742 12.392551 3.469914
1912 1 2 0.0 10.409742 12.557785 3.469914
1913 1 2 0.0 10.409742 12.723019 3.469914
1914 1 2 0.0 10.409742 12.888253 3.469914
1915 1 2 0.0 10.409742 13.053487 3.469914
1916 1 2 0.0 10.409742 13.218721 3.469914
1917 1 2 0.0 10.409742 13.383954 3.469914
1918 1 2 0.0 10.409742 13.549188 3.469914
1919 1 2 0.0 10.409742 13.714422 3.469914
1920 1 2 0.0 13.879656 10.574976 3.469914
1921 1 2 0.0 13.879656 10.740210 3.469914
1922 1 2 0.0 13.879656 10.905444 3.469914
1923 1 2 0.0 13.879656 11.070677 3.469914
1924 1 2 0.0 13.879656 11.235911 3.469914
1925 1 2 0.0 13.879656 11.401145 3.469914
1926 1 2 0.0 13.879656 11.566379 3.469914
1927 1 2 0.0 13.879656 11.731613 3.469914
1928 1 2 0.0 13.879656 11.896847 3.469914
1929 1 2 0.0 13.879656 12.062080 3.469914
1930 1 2 0.0 13.879656 12.227318 3.469914
1931 1 2 0.0 13.879656 12.392551 3.469914
1932 1 2 0.0 13.879656 12.557785 3.469914
1933 1 2 0.0 13.879656 12.723019 3.469914
1934 1 2 0.0 13.879656 12.888253 3.469914
1935 1 2 0.0 13.879656 13.053487 3.469914
1936 1 2 0.0 13.879656 13.218721 3.469914
1937 1 2 0.0 13.879656 13.383954 3.469914
1938 1 2 0.0 13.879656 13.549188 3.469914
1939 1 2 0.0 13.879656 13.714422 3.469914
1940 1 2 0.0 0.000000 13.879656 3.635148
1941 1 2 0.0 0.000000 13.879656 3.800382
1942 1 2 0.0 0.000000 13.879656 3.965616
1943 1 2 0.0 0.000000 13.879656 4.130849
1944 1 2 0.0 0.000000 13.879656 4.296083
1945 1 2 0.0 0.000000 13.879656 4.461317
1946 1 2 0.0 0.000000 13.879656 4.626551
1947 1 2 0.0 0.000000 13.879656 4.791785
1948 1 2 0.0 0.000000 13.879656 4.957019
1949 1 2 0.0 0.000000 13.879656 5.122252
1950 1 2 0.0 0.000000 13.879656 5.287490
1951 1 2 0.0 0.000000 13.879656 5.452723
1952 1 2 0.0 0.000000 13.879656 5.617957
1953 1 2 0.0 0.000000 13.879656 5.783191
1954 1 2 0.0 0.000000 13.879656 5.948425
1955 1 2 0.0 0.000000 13.879656 6.113659
1956 1 2 0.0 0.000000 13.879656 6.278893
1957 1 2 0.0 0.000000 13.879656 6.444126
1958 1 2 0.0 0.000000 13.879656 6.609360
1959 1 2 0.0 0.000000 13.879656 6.774594
1960 1 2 0.0 3.469914 13.879656 3.635148
1961 1 2 0.0 3.469914 13.879656 3.800382
1962 1 2 0.0 3.469914 13.879656 3.965616
1963 1 2 0.0 3.469914 13.879656 4.130849
1964 1 2 0.0 3.469914 13.879656 4.296083
1965 1 2 0.0 3.469914 13.879656 4.461317
1966 1 2 0.0 3.469914 13.879656 4.626551
1967 1 2 0.0 3.469914 13.879656 4.791785
1968 1 2 0.0 3.469914 13.879656 4.957019
1969 1 2 0.0 3.469914 13.879656 5.122252
1970 1 2 0.0 3.469914 13.879656 5.287490
1971 1 2 0.0 3.469914 13.879656 5.452723
1972 1 2 0.0 3.469914 13.879656 5.617957
1973 1 2 0.0 3.469914 13.879656 5.783191
1974 1 2 0.0 3.469914 13.879656 5.948425
1975 1 2 0.0 3.469914 13.879656 6.113659
1976 1 2 0.0 3.469914 13.879656 6.278893
1977 1 2 0.0 3.469914 13.879656 6.444126
1978 1 2 0.0 3.469914 13.879656 6.609360
1979 1 2 0.0 3.469914 13.879656 6.774594
1980 1 2 0.0 10.574976 13.879656 3.469914
1981 1 2 0.0 10.740210 13.879656 3.469914
1982 1 2 0.0 10.905444 13.879656 3.469914
1983 1 2 0.0 11.070677 13.879656 3.469914
1984 1 2 0.0 11.235911 13.879656 3.469914
1985 1 2 0.0 11.401145 13.879656 3.469914
1986 1 2 0.0 11.566379 13.879656 3.469914
1987 1 2 0.0 11.731613 13.879656 3.469914
1988 1 2 0.0 11.896847 13.879656 3.469914
1989 1 2 0.0 12.062080 13.879656 3.469914
1990 1 2 0.0 12.227318 13.879656 3.469914
1991 1 2 0.0 12.392551 13.879656 3.469914
1992 1 2 0.0 12.557785 13.879656 3.469914
1993 1 2 0.0 12.723019 13.879656 3.469914
1994 1 2 0.0 12.888253 13.879656 3.469914
1995 1 2 0.0 13.053487 13.879656 3.469914
1996 1 2 0.0 13.218721 13.879656 3.469914
1997 1 2 0.0 13.383954 13.879656 3.469914
1998 1 2 0.0 13.549188 13.879656 3.469914
1999 1 2 0.0 13.714422 13.879656 3.469914
2000 1 2 0.0 13.879656 13.879656 3.635148
2001 1 2 0.0 13.879656 13.879656 3.800382
2002 1 2 0.0 13.879656 13.879656 3.965616
2003 1 2 0.0 13.879656 13.879656 4.130849
2004 1 2 0.0 13.879656 13.879656 4.296083
2005 1 2 0.0 13.879656 13.879656 4.461317
2006 1 2 0.0 13.879656 13.879656 4.626551
2007 1 2 0.0 13.879656 13.879656 4.791785
2008 1 2 0.0 13.879656 13.879656 4.957019
2009 1 2 0.0 13.879656 13.879656 5.122252
2010 1 2 0.0 13.879656 13.879656 5.287490
2011 1 2 0.0 13.879656 13.879656 5.452723
2012 1 2 0.0 13.879656 13.879656 5.617957
2013 1 2 0.0 13.879656 13.879656 5.783191
2014 1 2 0.0 13.879656 13.879656 5.948425
2015 1 2 0.0 13.879656 13.879656 6.113659
2016 1 2 0.0 13.879656 13.879656 6.278893
2017 1 2 0.0 13.879656 13.879656 6.444126
2018 1 2 0.0 13.879656 13.879656 6.609360
2019 1 2 0.0 13.879656 13.879656 6.774594
2020 1 2 0.0 7.105062 0.000000 6.939828
2021 1 2 0.0 7.270296 0.000000 6.939828
2022 1 2 0.0 7.435530 0.000000 6.939828
2023 1 2 0.0 7.600763 0.000000 6.939828
2024 1 2 0.0 7.765997 0.000000 6.939828
2025 1 2 0.0 7.931231 0.000000 6.939828
2026 1 2 0.0 8.096465 0.000000 6.939828
2027 1 2 0.0 8.261699 0.000000 6.939828
2028 1 2 0.0 8.426933 0.000000 6.939828
2029 1 2 0.0 8.592166 0.000000 6.939828
2030 1 2 0.0 8.757404 0.000000 6.939828
2031 1 2 0.0 8.922637 0.000000 6.939828
2032 1 2 0.0 9.087871 0.000000 6.939828
2033 1 2 0.0 9.253105 0.000000 6.939828
2034 1 2 0.0 9.418339 0.000000 6.939828
2035 1 2 0.0 9.583573 0.000000 6.939828
2036 1 2 0.0 9.748807 0.000000 6.939828
2037 1 2 0.0 9.914040 0.000000 6.939828
2038 1 2 0.0 10.079274 0.000000 6.939828
2039 1 2 0.0 10.244508 0.000000 6.939828
2040 1 2 0.0 6.939828 0.165234 6.939828
2041 1 2 0.0 6.939828 0.330468 6.939828
2042 1 2 0.0 6.939828 0.495702 6.939828
2043 1 2 0.0 6.939828 0.660935 6.939828
2044 1 2 0.0 6.939828 0.826169 6.939828
2045 1 2 0.0 6.939828 0.991403 6.939828
2046 1 2 0.0 6.939828 1.156637 6.939828
2047 1 2 0.0 6.939828 1.321871 6.939828
2048 1 2 0.0 6.939828 1.487105 6.939828
2049 1 2 0.0 6.939828 1.652338 6.939828
2050 1 2 0.0 6.939828 1.817576 6.939828
2051 1 2 0.0 6.939828 1.982809 6.939828
2052 1 2 0.0 6.939828 2.148043 6.939828
2053 1 2 0.0 6.939828 2.313277 6.939828
2054 1 2 0.0 6.939828 2.478511 6.939828
2055 1 2 0.0 6.939828 2.643745 6.939828
2056 1 2 0.0 6.939828 2.808979 6.939828
2057 1 2 0.0 6.939828 2.974212 6.939828
2058 1 2 0.0 6.939828 3.139446 6.939828
2059 1 2 0.0 6.939828 3.304680 6.939828
2060 1 2 0.0 6.939828 0.000000 7.105062
2061 1 2 0.0 6.939828 0.000000 7.270296
2062 1 2 0.0 6.939828 0.000000 7.435530
2063 1 2 0.0 6.939828 0.000000 7.600763
2064 1 2 0.0 6.939828 0.000000 7.765997
2065 1 2 0.0 6.939828 0.000000 7.931231
2066 1 2 0.0 6.939828 0.000000 8.096465
2067 1 2 0.0 6.939828 0.000000 8.261699
2068 1 2 0.0 6.939828 0.000000 8.426933
2069 1 2 0.0 6.939828 0.000000 8.592166
2070 1 2 0.0 6.939828 0.000000 8.757404
2071 1 2 0.0 6.939828 0.000000 8.922637
2072 1 2 0.0 6.939828 0.000000 9.087871
2073 1 2 0.0 6.939828 0.000000 9.253105
2074 1 2 0.0 6.939828 0.000000 9.418339
2075 1 2 0.0 6.939828 0.000000 9.583573
2076 1 2 0.0 6.939828 0.000000 9.748807
2077 1 2 0.0 6.939828 0.000000 9.914040
2078 1 2 0.0 6.939828 0.000000 10.079274
2079 1 2 0.0 6.939828 0.000000 10.244508
2080 1 2 0.0 10.409742 0.165234 6.939828
2081 1 2 0.0 10.409742 0.330468 6.939828
2082 1 2 0.0 10.409742 0.495702 6.939828
2083 1 2 0.0 10.409742 0.660935 6.939828
2084 1 2 0.0 10.409742 0.826169 6.939828
2085 1 2 0.0 10.409742 0.991403 6.939828
2086 1 2 0.0 10.409742 1.156637 6.939828
2087 1 2 0.0 10.409742 1.321871 6.939828
2088 1 2 0.0 10.409742 1.487105 6.939828
2089 1 2 0.0 10.409742 1.652338 6.939828
2090 1 2 0.0 10.409742 1.817576 6.939828
2091 1 2 0.0 10.409742 1.982809 6.939828
2092 1 2 0.0 10.409742 2.148043 6.939828
2093 1 2 0.0 10.409742 2.313277 6.939828
2094 1 2 0.0 10.409742 2.478511 6.939828
2095 1 2 0.0 10.409742 2.643745 6.939828
2096 1 2 0.0 10.409742 2.808979 6.939828
2097 1 2 0.0 10.409742 2.974212 6.939828
2098 1 2 0.0 10.409742 3.139446 6.939828
2099 1 2 0.0 10.409742 3.304680 6.939828
2100 1 2 0.0 10.409742 0.000000 7.105062
2101 1 2 0.0 10.409742 0.000000 7.270296
2102 1 2 0.0 10.409742 0.000000 7.435530
2103 1 2 0.0 10.409742 0.000000 7.600763
2104 1 2 0.0 10.409742 0.000000 7.765997
2105 1 2 0.0 10.409742 0.000000 7.931231
2106 1 2 0.0 10.409742 0.000000 8.096465
2107 1 2 0.0 10.409742 0.000000 8.261699
2108 1 2 0.0 10.409742 0.000000 8.426933
2109 1 2 0.0 10.409742 0.000000 8.592166
2110 1 2 0.0 10.409742 0.000000 8.757404
2111 1 2 0.0 10.409742 0.000000 8.922637
2112 1 2 0.0 10.409742 0.000000 9.087871
2113 1 2 0.0 10.409742 0.000000 9.253105
2114 1 2 0.0 10.409742 0.000000 9.418339
2115 1 2 0.0 10.409742 0.000000 9.583573
2116 1 2 0.0 10.409742 0.000000 9.748807
2117 1 2 0.0 10.409742 0.000000 9.914040
2118 1 2 0.0 10.409742 0.000000 10.079274
2119 1 2 0.0 10.409742 0.000000 10.244508
2120 1 2 0.0 10.409742 17.184336 6.939828
2121 1 2 0.0 10.409742 17.019102 6.939828
2122 1 2 0.0 10.409742 16.853868 6.939828
2123 1 2 0.0 10.409742 16.688635 6.939828
2124 1 2 0.0 10.409742 16.523401 6.939828
2125 1 2 0.0 10.409742 16.358167 6.939828
2126 1 2 0.0 10.409742 16.192933 6.939828
2127 1 2 0.0 10.409742 16.027699 6.939828
2128 1 2 0.0 10.409742 15.862465 6.939828
2129 1 2 0.0 10.409742 15.697232 6.939828
2130 1 2 0.0 10.409742 15.531994 6.939828
2131 1 2 0.0 10.409742 15.366761 6.939828
2132 1 2 0.0 10.409742 15.201527 6.939828
2133 1 2 0.0 10.409742 15.036293 6.939828
2134 1 2 0.0 10.409742 14.871059 6.939828
2135 1 2 0.0 10.409742 14.705825 6.939828
2136 1 2 0.0 10.409742 14.540591 6.939828
2137 1 2 0.0 10.409742 14.375358 6.939828
2138 1 2 0.0 10.409742 14.210124 6.939828
2139 1 2 0.0 10.409742 14.044890 6.939828
2140 1 2 0.0 13.879656 0.165234 6.939828
2141 1 2 0.0 13.879656 0.330468 6.939828
2142 1 2 0.0 13.879656 0.495702 6.939828
2143 1 2 0.0 13.879656 0.660935 6.939828
2144 1 2 0.0 13.879656 0.826169 6.939828
2145 1 2 0.0 13.879656 0.991403 6.939828
2146 1 2 0.0 13.879656 1.156637 6.939828
2147 1 2 0.0 13.879656 1.321871 6.939828
2148 1 2 0.0 13.879656 1.487105 6.939828
2149 1 2 0.0 13.879656 1.652338 6.939828
2150 1 2 0.0 13.879656 1.817576 6.939828
2151 1 2 0.0 13.879656 1.982809 6.939828
2152 1 2 0.0 13.879656 2.148043 6.939828
2153 1 2 0.0 13.879656 2.313277 6.939828
2154 1 2 0.0 13.879656 2.478511 6.939828
2155 1 2 0.0 13.879656 2.643745 6.939828
2156 1 2 0.0 13.879656 2.808979 6.939828
2157 1 2 0.0 13.879656 2.974212 6.939828
2158 1 2 0.0 13.879656 3.139446 6.939828
2159 1 2 0.0 13.879656 3.304680 6.939828
2160 1 2 0.0 13.879656 0.000000 7.105062
2161 1 2 0.0 13.879656 0.000000 7.270296
2162 1 2 0.0 13.879656 0.000000 7.435530
2163 1 2 0.0 13.879656 0.000000 7.600763
2164 1 2 0.0 13.879656 0.000000 7.765997
2165 1 2 0.0 13.879656 0.000000 7.931231
2166 1 2 0.0 13.879656 0.000000 8.096465
2167 1 2 0.0 13.879656 0.000000 8.261699
2168 1 2 0.0 13.879656 0.000000 8.426933
2169 1 2 0.0 13.879656 0.000000 8.592166
2170 1 2 0.0 13.879656 0.000000 8.757404
2171 1 2 0.0 13.879656 0.000000 8.922637
2172 1 2 0.0 13.879656 0.000000 9.087871
2173 1 2 0.0 13.879656 0.000000 9.253105
2174 1 2 0.0 13.879656 0.000000 9.418339
2175 1 2 0.0 13.879656 0.000000 9.583573
2176 1 2 0.0 13.879656 0.000000 9.748807
2177 1 2 0.0 13.879656 0.000000 9.914040
2178 1 2 0.0 13.879656 0.000000 10.079274
2179 1 2 0.0 13.879656 0.000000 10.244508
2180 1 2 0.0 13.879656 17.184336 6.939828
2181 1 2 0.0 13.879656 17.019102 6.939828
2182 1 2 0.0 13.879656 16.853868 6.939828
2183 1 2 0.0 13.879656 16.688635 6.939828
2184 1 2 0.0 13.879656 16.523401 6.939828
2185 1 2 0.0 13.879656 16.358167 6.939828
2186 1 2 0.0 13.879656 16.192933 6.939828
2187 1 2 0.0 13.879656 16.027699 6.939828
2188 1 2 0.0 13.879656 15.862465 6.939828
2189 1 2 0.0 13.879656 15.697232 6.939828
2190 1 2 0.0 13.879656 15.531994 6.939828
2191 1 2 0.0 13.879656 15.366761 6.939828
2192 1 2 0.0 13.879656 15.201527 6.939828
2193 1 2 0.0 13.879656 15.036293 6.939828
2194 1 2 0.0 13.879656 14.871059 6.939828
2195 1 2 0.0 13.879656 14.705825 6.939828
2196 1 2 0.0 13.879656 14.540591 6.939828
2197 1 2 0.0 13.879656 14.375358 6.939828
2198 1 2 0.0 13.879656 14.210124 6.939828
2199 1 2 0.0 13.879656 14.044890 6.939828
2200 1 2 0.0 0.165234 3.469914 6.939828
2201 1 2 0.0 0.330468 3.469914 6.939828
2202 1 2 0.0 0.495702 3.469914 6.939828
2203 1 2 0.0 0.660935 3.469914 6.939828
2204 1 2 0.0 0.826169 3.469914 6.939828
2205 1 2 0.0 0.991403 3.469914 6.939828
2206 1 2 0.0 1.156637 3.469914 6.939828
2207 1 2 0.0 1.321871 3.469914 6.939828
2208 1 2 0.0 1.487105 3.469914 6.939828
2209 1 2 0.0 1.652338 3.469914 6.939828
2210 1 2 0.0 1.817576 3.469914 6.939828
2211 1 2 0.0 1.982809 3.469914 6.939828
2212 1 2 0.0 2.148043 3.469914 6.939828
2213 1 2 0.0 2.313277 3.469914 6.939828
2214 1 2 0.0 2.478511 3.469914 6.939828
2215 1 2 0.0 2.643745 3.469914 6.939828
2216 1 2 0.0 2.808979 3.469914 6.939828
2217 1 2 0.0 2.974212 3.469914 6.939828
2218 1 2 0.0 3.139446 3.469914 6.939828
2219 1 2 0.0 3.304680 3.469914 6.939828
2220 1 2 0.0 0.000000 3.635148 6.939828
2221 1 2 0.0 0.000000 3.800382 6.939828
2222 1 2 0.0 0.000000 3.965616 6.939828
2223 1 2 0.0 0.000000 4.130849 6.939828
2224 1 2 0.0 0.000000 4.296083 6.939828
2225 1 2 0.0 0.000000 4.461317 6.939828
2226 1 2 0.0 0.000000 4.626551 6.939828
2227 1 2 0.0 0.000000 4.791785 6.939828
2228 1 2 0.0 0.000000 4.957019 6.939828
2229 1 2 0.0 0.000000 5.122252 6.939828
2230 1 2 0.0 0.000000 5.287490 6.939828
2231 1 2 0.0 0.000000 5.452723 6.939828
2232 1 2 0.0 0.000000 5.617957 6.939828
2233 1 2 0.0 0.000000 5.783191 6.939828
2234 1 2 0.0 0.000000 5.948425 6.939828
2235 1 2 0.0 0.000000 6.113659 6.939828
2236 1 2 0.0 0.000000 6.278893 6.939828
2237 1 2 0.0 0.000000 6.444126 6.939828
2238 1 2 0.0 0.000000 6.609360 6.939828
2239 1 2 0.0 0.000000 6.774594 6.939828
2240 1 2 0.0 0.000000 3.469914 7.105062
2241 1 2 0.0 0.000000 3.469914 7.270296
2242 1 2 0.0 0.000000 3.469914 7.435530
2243 1 2 0.0 0.000000 3.469914 7.600763
2244 1 2 0.0 0.000000 3.469914 7.765997
2245 1 2 0.0 0.000000 3.469914 7.931231
2246 1 2 0.0 0.000000 3.469914 8.096465
2247 1 2 0.0 0.000000 3.469914 8.261699
2248 1 2 0.0 0.000000 3.469914 8.426933
2249 1 2 0.0 0.000000 3.469914 8.592166
2250 1 2 0.0 0.000000 3.469914 8.757404
2251 1 2 0.0 0.000000 3.469914 8.922637
2252 1 2 0.0 0.000000 3.469914 9.087871
2253 1 2 0.0 0.000000 3.469914 9.253105
2254 1 2 0.0 0.000000 3.469914 9.418339
2255 1 2 0.0 0.000000 3.469914 9.583573
2256 1 2 0.0 0.000000 3.469914 9.748807
2257 1 2 0.0 0.000000 3.469914 9.914040
2258 1 2 0.0 0.000000 3.469914 10.079274
2259 1 2 0.0 0.000000 3.469914 10.244508
2260 1 2 0.0 17.184336 3.469914 6.939828
2261 1 2 0.0 17.019102 3.469914 6.939828
2262 1 2 0.0 16.853868 3.469914 6.939828
2263 1 2 0.0 16.688635 3.469914 6.939828
2264 1 2 0.0 16.523401 3.469914 6.939828
2265 1 2 0.0 16.358167 3.469914 6.939828
2266 1 2 0.0 16.192933 3.469914 6.939828
2267 1 2 0.0 16.027699 3.469914 6.939828
2268 1 2 0.0 15.862465 3.469914 6.939828
2269 1 2 0.0 15.697232 3.469914 6.939828
2270 1 2 0.0 15.531994 3.469914 6.939828
2271 1 2 0.0 15.366761 3.469914 6.939828
2272 1 2 0.0 15.201527 3.469914 6.939828
2273 1 2 0.0 15.036293 3.469914 6.939828
2274 1 2 0.0 14.871059 3.469914 6.939828
2275 1 2 0.0 14.705825 3.469914 6.939828
2276 1 2 0.0 14.540591 3.469914 6.939828
2277 1 2 0.0 14.375358 3.469914 6.939828
2278 1 2 0.0 14.210124 3.469914 6.939828
2279 1 2 0.0 14.044890 3.469914 6.939828
2280 1 2 0.0 3.469914 3.635148 6.939828
2281 1 2 0.0 3.469914 3.800382 6.939828
2282 1 2 0.0 3.469914 3.965616 6.939828
2283 1 2 0.0 3.469914 4.130849 6.939828
2284 1 2 0.0 3.469914 4.296083 6.939828
2285 1 2 0.0 3.469914 4.461317 6.939828
2286 1 2 0.0 3.469914 4.626551 6.939828
2287 1 2 0.0 3.469914 4.791785 6.939828
2288 1 2 0.0 3.469914 4.957019 6.939828
2289 1 2 0.0 3.469914 5.122252 6.939828
2290 1 2 0.0 3.469914 5.287490 6.939828
2291 1 2 0.0 3.469914 5.452723 6.939828
2292 1 2 0.0 3.469914 5.617957 6.939828
2293 1 2 0.0 3.469914 5.783191 6.939828
2294 1 2 0.0 3.469914 5.948425 6.939828
2295 1 2 0.0 3.469914 6.113659 6.939828
2296 1 2 0.0 3.469914 6.278893 6.939828
2297 1 2 0.0 3.469914 6.444126 6.939828
2298 1 2 0.0 3.469914 6.609360 6.939828
2299 1 2 0.0 3.469914 6.774594 6.939828
2300 1 2 0.0 3.469914 3.469914 7.105062
2301 1 2 0.0 3.469914 3.469914 7.270296
2302 1 2 0.0 3.469914 3.469914 7.435530
2303 1 2 0.0 3.469914 3.469914 7.600763
2304 1 2 0.0 3.469914 3.469914 7.765997
2305 1 2 0.0 3.469914 3.469914 7.931231
2306 1 2 0.0 3.469914 3.469914 8.096465
2307 1 2 0.0 3.469914 3.469914 8.261699
2308 1 2 0.0 3.469914 3.469914 8.426933
2309 1 2 0.0 3.469914 3.469914 8.592166
2310 1 2 0.0 3.469914 3.469914 8.757404
2311 1 2 0.0 3.469914 3.469914 8.922637
2312 1 2 0.0 3.469914 3.469914 9.087871
2313 1 2 0.0 3.469914 3.469914 9.253105
2314 1 2 0.0 3.469914 3.469914 9.418339
2315 1 2 0.0 3.469914 3.469914 9.583573
2316 1 2 0.0 3.469914 3.469914 9.748807
2317 1 2 0.0 3.469914 3.469914 9.914040
2318 1 2 0.0 3.469914 3.469914 10.079274
2319 1 2 0.0 3.469914 3.469914 10.244508
2320 1 2 0.0 7.105062 3.469914 6.939828
2321 1 2 0.0 7.270296 3.469914 6.939828
2322 1 2 0.0 7.435530 3.469914 6.939828
2323 1 2 0.0 7.600763 3.469914 6.939828
2324 1 2 0.0 7.765997 3.469914 6.939828
2325 1 2 0.0 7.931231 3.469914 6.939828
2326 1 2 0.0 8.096465 3.469914 6.939828
2327 1 2 0.0 8.261699 3.469914 6.939828
2328 1 2 0.0 8.426933 3.469914 6.939828
2329 1 2 0.0 8.592166 3.469914 6.939828
2330 1 2 0.0 8.757404 3.469914 6.939828
2331 1 2 0.0 8.922637 3.469914 6.939828
2332 1 2 0.0 9.087871 3.469914 6.939828
2333 1 2 0.0 9.253105 3.469914 6.939828
2334 1 2 0.0 9.418339 3.469914 6.939828
2335 1 2 0.0 9.583573 3.469914 6.939828
2336 1 2 0.0 9.748807 3.469914 6.939828
2337 1 2 0.0 9.914040 3.469914 6.939828
2338 1 2 0.0 10.079274 3.469914 6.939828
2339 1 2 0.0 10.244508 3.469914 6.939828
2340 1 2 0.0 13.879656 3.635148 6.939828
2341 1 2 0.0 13.879656 3.800382 6.939828
2342 1 2 0.0 13.879656 3.965616 6.939828
2343 1 2 0.0 13.879656 4.130849 6.939828
2344 1 2 0.0 13.879656 4.296083 6.939828
2345 1 2 0.0 13.879656 4.461317 6.939828
2346 1 2 0.0 13.879656 4.626551 6.939828
2347 1 2 0.0 13.879656 4.791785 6.939828
2348 1 2 0.0 13.879656 4.957019 6.939828
2349 1 2 0.0 13.879656 5.122252 6.939828
2350 1 2 0.0 13.879656 5.287490 6.939828
2351 1 2 0.0 13.879656 5.452723 6.939828
2352 1 2 0.0 13.879656 5.617957 6.939828
2353 1 2 0.0 13.879656 5.783191 6.939828
2354 1 2 0.0 13.879656 5.948425 6.939828
2355 1 2 0.0 13.879656 6.113659 6.939828
2356 1 2 0.0 13.879656 6.278893 6.939828
2357 1 2 0.0 13.879656 6.444126 6.939828
2358 1 2 0.0 13.879656 6.609360 6.939828
2359 1 2 0.0 13.879656 6.774594 6.939828
2360 1 2 0.0 13.879656 3.469914 7.105062
2361 1 2 0.0 13.879656 3.469914 7.270296
2362 1 2 0.0 13.879656 3.469914 7.435530
2363 1 2 0.0 13.879656 3.469914 7.600763
2364 1 2 0.0 13.879656 3.469914 7.765997
2365 1 2 0.0 13.879656 3.469914 7.931231
2366 1 2 0.0 13.879656 3.469914 8.096465
2367 1 2 0.0 13.879656 3.469914 8.261699
2368 1 2 0.0 13.879656 3.469914 8.426933
2369 1 2 0.0 13.879656 3.469914 8.592166
2370 1 2 0.0 13.879656 3.469914 8.757404
2371 1 2 0.0 13.879656 3.469914 8.922637
2372 1 2 0.0 13.879656 3.469914 9.087871
2373 1 2 0.0 13.879656 3.469914 9.253105
2374 1 2 0.0 13.879656 3.469914 9.418339
2375 1 2 0.0 13.879656 3.469914 9.583573
2376 1 2 0.0 13.879656 3.469914 9.748807
2377 1 2 0.0 13.879656 3.469914 9.914040
2378 1 2 0.0 13.879656 3.469914 10.079274
2379 1 2 0.0 13.879656 3.469914 10.244508
2380 1 2 0.0 0.000000 6.939828 7.105062
2381 1 2 0.0 0.000000 6.939828 7.270296
2382 1 2 0.0 0.000000 6.939828 7.435530
2383 1 2 0.0 0.000000 6.939828 7.600763
2384 1 2 0.0 0.000000 6.939828 7.765997
2385 1 2 0.0 0.000000 6.939828 7.931231
2386 1 2 0.0 0.000000 6.939828 8.096465
2387 1 2 0.0 0.000000 6.939828 8.261699
2388 1 2 0.0 0.000000 6.939828 8.426933
2389 1 2 0.0 0.000000 6.939828 8.592166
2390 1 2 0.0 0.000000 6.939828 8.757404
2391 1 2 0.0 0.000000 6.939828 8.922637
2392 1 2 0.0 0.000000 6.939828 9.087871
2393 1 2 0.0 0.000000 6.939828 9.253105
2394 1 2 0.0 0.000000 6.939828 9.418339
2395 1 2 0.0 0.000000 6.939828 9.583573
2396 1 2 0.0 0.000000 6.939828 9.748807
2397 1 2 0.0 0.000000 6.939828 9.914040
2398 1 2 0.0 0.000000 6.939828 10.079274
2399 1 2 0.0 0.000000 6.939828 10.244508
2400 1 2 0.0 17.184336 6.939828 6.939828
2401 1 2 0.0 17.019102 6.939828 6.939828
2402 1 2 0.0 16.853868 6.939828 6.939828
2403 1 2 0.0 16.688635 6.939828 6.939828
2404 1 2 0.0 16.523401 6.939828 6.939828
2405 1 2 0.0 16.358167 6.939828 6.939828
2406 1 2 0.0 16.192933 6.939828 6.939828
2407 1 2 0.0 16.027699 6.939828 6.939828
2408 1 2 0.0 15.862465 6.939828 6.939828
2409 1 2 0.0 15.697232 6.939828 6.939828
2410 1 2 0.0 15.531994 6.939828 6.939828
2411 1 2 0.0 15.366761 6.939828 6.939828
2412 1 2 0.0 15.201527 6.939828 6.939828
2413 1 2 0.0 15.036293 6.939828 6.939828
2414 1 2 0.0 14.871059 6.939828 6.939828
2415 1 2 0.0 14.705825 6.939828 6.939828
2416 1 2 0.0 14.540591 6.939828 6.939828
2417 1 2 0.0 14.375358 6.939828 6.939828
2418 1 2 0.0 14.210124 6.939828 6.939828
2419 1 2 0.0 14.044890 6.939828 6.939828
2420 1 2 0.0 3.469914 7.105062 6.939828
2421 1 2 0.0 3.469914 7.270296 6.939828
2422 1 2 0.0 3.469914 7.435530 6.939828
2423 1 2 0.0 3.469914 7.600763 6.939828
2424 1 2 0.0 3.469914 7.765997 6.939828
2425 1 2 0.0 3.469914 7.931231 6.939828
2426 1 2 0.0 3.469914 8.096465 6.939828
2427 1 2 0.0 3.469914 8.261699 6.939828
2428 1 2 0.0 3.469914 8.426933 6.939828
2429 1 2 0.0 3.469914 8.592166 6.939828
2430 1 2 0.0 3.469914 8.757404 6.939828
2431 1 2 0.0 3.469914 8.922637 6.939828
2432 1 2 0.0 3.469914 9.087871 6.939828
2433 1 2 0.0 3.469914 9.253105 6.939828
2434 1 2 0.0 3.469914 9.418339 6.939828
2435 1 2 0.0 3.469914 9.583573 6.939828
2436 1 2 0.0 3.469914 9.748807 6.939828
2437 1 2 0.0 3.469914 9.914040 6.939828
2438 1 2 0.0 3.469914 10.079274 6.939828
2439 1 2 0.0 3.469914 10.244508 6.939828
2440 1 2 0.0 3.469914 6.939828 7.105062
2441 1 2 0.0 3.469914 6.939828 7.270296
2442 1 2 0.0 3.469914 6.939828 7.435530
2443 1 2 0.0 3.469914 6.939828 7.600763
2444 1 2 0.0 3.469914 6.939828 7.765997
2445 1 2 0.0 3.469914 6.939828 7.931231
2446 1 2 0.0 3.469914 6.939828 8.096465
2447 1 2 0.0 3.469914 6.939828 8.261699
2448 1 2 0.0 3.469914 6.939828 8.426933
2449 1 2 0.0 3.469914 6.939828 8.592166
2450 1 2 0.0 3.469914 6.939828 8.757404
2451 1 2 0.0 3.469914 6.939828 8.922637
2452 1 2 0.0 3.469914 6.939828 9.087871
2453 1 2 0.0 3.469914 6.939828 9.253105
2454 1 2 0.0 3.469914 6.939828 9.418339
2455 1 2 0.0 3.469914 6.939828 9.583573
2456 1 2 0.0 3.469914 6.939828 9.748807
2457 1 2 0.0 3.469914 6.939828 9.914040
2458 1 2 0.0 3.469914 6.939828 10.079274
2459 1 2 0.0 3.469914 6.939828 10.244508
2460 1 2 0.0 7.105062 6.939828 6.939828
2461 1 2 0.0 7.270296 6.939828 6.939828
2462 1 2 0.0 7.435530 6.939828 6.939828
2463 1 2 0.0 7.600763 6.939828 6.939828
2464 1 2 0.0 7.765997 6.939828 6.939828
2465 1 2 0.0 7.931231 6.939828 6.939828
2466 1 2 0.0 8.096465 6.939828 6.939828
2467 1 2 0.0 8.261699 6.939828 6.939828
2468 1 2 0.0 8.426933 6.939828 6.939828
2469 1 2 0.0 8.592166 6.939828 6.939828
2470 1 2 0.0 8.757404 6.939828 6.939828
2471 1 2 0.0 8.922637 6.939828 6.939828
2472 1 2 0.0 9.087871 6.939828 6.939828
2473 1 2 0.0 9.253105 6.939828 6.939828
2474 1 2 0.0 9.418339 6.939828 6.939828
2475 1 2 0.0 9.583573 6.939828 6.939828
2476 1 2 0.0 9.748807 6.939828 6.939828
2477 1 2 0.0 9.914040 6.939828 6.939828
2478 1 2 0.0 10.079274 6.939828 6.939828
2479 1 2 0.0 10.244508 6.939828 6.939828
2480 1 2 0.0 6.939828 7.105062 6.939828
2481 1 2 0.0 6.939828 7.270296 6.939828
2482 1 2 0.0 6.939828 7.435530 6.939828
2483 1 2 0.0 6.939828 7.600763 6.939828
2484 1 2 0.0 6.939828 7.765997 6.939828
2485 1 2 0.0 6.939828 7.931231 6.939828
2486 1 2 0.0 6.939828 8.096465 6.939828
2487 1 2 0.0 6.939828 8.261699 6.939828
2488 1 2 0.0 6.939828 8.426933 6.939828
2489 1 2 0.0 6.939828 8.592166 6.939828
2490 1 2 0.0 6.939828 8.757404 6.939828
2491 1 2 0.0 6.939828 8.922637 6.939828
2492 1 2 0.0 6.939828 9.087871 6.939828
2493 1 2 0.0 6.939828 9.253105 6.939828
2494 1 2 0.0 6.939828 9.418339 6.939828
2495 1 2 0.0 6.939828 9.583573 6.939828
2496 1 2 0.0 6.939828 9.748807 6.939828
2497 1 2 0.0 6.939828 9.914040 6.939828
2498 1 2 0.0 6.939828 10.079274 6.939828
2499 1 2 0.0 6.939828 10.244508 6.939828
2500 1 2 0.0 6.939828 6.939828 7.105062
2501 1 2 0.0 6.939828 6.939828 7.270296
2502 1 2 0.0 6.939828 6.939828 7.435530
2503 1 2 0.0 6.939828 6.939828 7.600763
2504 1 2 0.0 6.939828 6.939828 7.765997
2505 1 2 0.0 6.939828 6.939828 7.931231
2506 1 2 0.0 6.939828 6.939828 8.096465
2507 1 2 0.0 6.939828 6.939828 8.261699
2508 1 2 0.0 6.939828 6.939828 8.426933
2509 1 2 0.0 6.939828 6.939828 8.592166
2510 1 2 0.0 6.939828 6.939828 8.757404
2511 1 2 0.0 6.939828 6.939828 8.922637
2512 1 2 0.0 6.939828 6.939828 9.087871
2513 1 2 0.0 6.939828 6.939828 9.253105
2514 1 2 0.0 6.939828 6.939828 9.418339
2515 1 2 0.0 6.939828 6.939828 9.583573
2516 1 2 0.0 6.939828 6.939828 9.748807
2517 1 2 0.0 6.939828 6.939828 9.914040
2518 1 2 0.0 6.939828 6.939828 10.079274
2519 1 2 0.0 6.939828 6.939828 10.244508
2520 1 2 0.0 10.409742 7.105062 6.939828
2521 1 2 0.0 10.409742 7.270296 6.939828
2522 1 2 0.0 10.409742 7.435530 6.939828
2523 1 2 0.0 10.409742 7.600763 6.939828
2524 1 2 0.0 10.409742 7.765997 6.939828
2525 1 2 0.0 10.409742 7.931231 6.939828
2526 1 2 0.0 10.409742 8.096465 6.939828
2527 1 2 0.0 10.409742 8.261699 6.939828
2528 1 2 0.0 10.409742 8.426933 6.939828
2529 1 2 0.0 10.409742 8.592166 6.939828
2530 1 2 0.0 10.409742 8.757404 6.939828
2531 1 2 0.0 10.409742 8.922637 6.939828
2532 1 2 0.0 10.409742 9.087871 6.939828
2533 1 2 0.0 10.409742 9.253105 6.939828
2534 1 2 0.0 10.409742 9.418339 6.939828
2535 1 2 0.0 10.409742 9.583573 6.939828
2536 1 2 0.0 10.409742 9.748807 6.939828
2537 1 2 0.0 10.409742 9.914040 6.939828
2538 1 2 0.0 10.409742 10.079274 6.939828
2539 1 2 0.0 10.409742 10.244508 6.939828
2540 1 2 0.0 10.409742 6.939828 7.105062
2541 1 2 0.0 10.409742 6.939828 7.270296
2542 1 2 0.0 10.409742 6.939828 7.435530
2543 1 2 0.0 10.409742 6.939828 7.600763
2544 1 2 0.0 10.409742 6.939828 7.765997
2545 1 2 0.0 10.409742 6.939828 7.931231
2546 1 2 0.0 10.409742 6.939828 8.096465
2547 1 2 0.0 10.409742 6.939828 8.261699
2548 1 2 0.0 10.409742 6.939828 8.426933
2549 1 2 0.0 10.409742 6.939828 8.592166
2550 1 2 0.0 10.409742 6.939828 8.757404
2551 1 2 0.0 10.409742 6.939828 8.922637
2552 1 2 0.0 10.409742 6.939828 9.087871
2553 1 2 0.0 10.409742 6.939828 9.253105
2554 1 2 0.0 10.409742 6.939828 9.418339
2555 1 2 0.0 10.409742 6.939828 9.583573
2556 1 2 0.0 10.409742 6.939828 9.748807
2557 1 2 0.0 10.409742 6.939828 9.914040
2558 1 2 0.0 10.409742 6.939828 10.079274
2559 1 2 0.0 10.409742 6.939828 10.244508
2560 1 2 0.0 13.879656 7.105062 6.939828
2561 1 2 0.0 13.879656 7.270296 6.939828
2562 1 2 0.0 13.879656 7.435530 6.939828
2563 1 2 0.0 13.879656 7.600763 6.939828
2564 1 2 0.0 13.879656 7.765997 6.939828
2565 1 2 0.0 13.879656 7.931231 6.939828
2566 1 2 0.0 13.879656 8.096465 6.939828
2567 1 2 0.0 13.879656 8.261699 6.939828
2568 1 2 0.0 13.879656 8.426933 6.939828
2569 1 2 0.0 13.879656 8.592166 6.939828
2570 1 2 0.0 13.879656 8.757404 6.939828
2571 1 2 0.0 13.879656 8.922637 6.939828
2572 1 2 0.0 13.879656 9.087871 6.939828
2573 1 2 0.0 13.879656 9.253105 6.939828
2574 1 2 0.0 13.879656 9.418339 6.939828
2575 1 2 0.0 13.879656 9.583573 6.939828
2576 1 2 0.0 13.879656 9.748807 6.939828
2577 1 2 0.0 13.879656 9.914040 6.939828
2578 1 2 0.0 13.879656 10.079274 6.939828
2579 1 2 0.0 13.879656 10.244508 6.939828
2580 1 2 0.0 3.469914 10.574976 6.939828
2581 1 2 0.0 3.469914 10.740210 6.939828
2582 1 2 0.0 3.469914 10.905444 6.939828
2583 1 2 0.0 3.469914 11.070677 6.939828
2584 1 2 0.0 3.469914 11.235911 6.939828
2585 1 2 0.0 3.469914 11.401145 6.939828
2586 1 2 0.0 3.469914 11.566379 6.939828
2587 1 2 0.0 3.469914 11.731613 6.939828
2588 1 2 0.0 3.469914 11.896847 6.939828
2589 1 2 0.0 3.469914 12.062080 6.939828
2590 1 2 0.0 3.469914 12.227318 6.939828
2591 1 2 0.0 3.469914 12.392551 6.939828
2592 1 2 0.0 3.469914 12.557785 6.939828
2593 1 2 0.0 3.469914 12.723019 6.939828
2594 1 2 0.0 3.469914 12.888253 6.939828
2595 1 2 0.0 3.469914 13.053487 6.939828
2596 1 2 0.0 3.469914 13.218721 6.939828
2597 1 2 0.0 3.469914 13.383954 6.939828
2598 1 2 0.0 3.469914 13.549188 6.939828
2599 1 2 0.0 3.469914 13.714422 6.939828
2600 1 2 0.0 3.469914 10.409742 7.105062
2601 1 2 0.0 3.469914 10.409742 7.270296
2602 1 2 0.0 3.469914 10.409742 7.435530
2603 1 2 0.0 3.469914 10.409742 7.600763
2604 1 2 0.0 3.469914 10.409742 7.765997
2605 1 2 0.0 3.469914 10.409742 7.931231
2606 1 2 0.0 3.469914 10.409742 8.096465
2607 1 2 0.0 3.469914 10.409742 8.261699
2608 1 2 0.0 3.469914 10.409742 8.426933
2609 1 2 0.0 3.469914 10.409742 8.592166
2610 1 2 0.0 3.469914 10.409742 8.757404
2611 1 2 0.0 3.469914 10.409742 8.922637
2612 1 2 0.0 3.469914 10.409742 9.087871
2613 1 2 0.0 3.469914 10.409742 9.253105
2614 1 2 0.0 3.469914 10.409742 9.418339
2615 1 2 0.0 3.469914 10.409742 9.583573
2616 1 2 0.0 3.469914 10.409742 9.748807
2617 1 2 0.0 3.469914 10.409742 9.914040
2618 1 2 0.0 3.469914 10.409742 10.079274
2619 1 2 0.0 3.469914 10.409742 10.244508
2620 1 2 0.0 7.105062 10.409742 6.939828
2621 1 2 0.0 7.270296 10.409742 6.939828
2622 1 2 0.0 7.435530 10.409742 6.939828
2623 1 2 0.0 7.600763 10.409742 6.939828
2624 1 2 0.0 7.765997 10.409742 6.939828
2625 1 2 0.0 7.931231 10.409742 6.939828
2626 1 2 0.0 8.096465 10.409742 6.939828
2627 1 2 0.0 8.261699 10.409742 6.939828
2628 1 2 0.0 8.426933 10.409742 6.939828
2629 1 2 0.0 8.592166 10.409742 6.939828
2630 1 2 0.0 8.757404 10.409742 6.939828
2631 1 2 0.0 8.922637 10.409742 6.939828
2632 1 2 0.0 9.087871 10.409742 6.939828
2633 1 2 0.0 9.253105 10.409742 6.939828
2634 1 2 0.0 9.418339 10.409742 6.939828
2635 1 2 0.0 9.583573 10.409742 6.939828
2636 1 2 0.0 9.748807 10.409742 6.939828
2637 1 2 0.0 9.914040 10.409742 6.939828
2638 1 2 0.0 10.079274 10.409742 6.939828
2639 1 2 0.0 10.244508 10.409742 6.939828
2640 1 2 0.0 6.939828 10.409742 7.105062
2641 1 2 0.0 6.939828 10.409742 7.270296
2642 1 2 0.0 6.939828 10.409742 7.435530
2643 1 2 0.0 6.939828 10.409742 7.600763
2644 1 2 0.0 6.939828 10.409742 7.765997
2645 1 2 0.0 6.939828 10.409742 7.931231
2646 1 2 0.0 6.939828 10.409742 8.096465
2647 1 2 0.0 6.939828 10.409742 8.261699
2648 1 2 0.0 6.939828 10.409742 8.426933
2649 1 2 0.0 6.939828 10.409742 8.592166
2650 1 2 0.0 6.939828 10.409742 8.757404
2651 1 2 0.0 6.939828 10.409742 8.922637
2652 1 2 0.0 6.939828 10.409742 9.087871
2653 1 2 0.0 6.939828 10.409742 9.253105
2654 1 2 0.0 6.939828 10.409742 9.418339
2655 1 2 0.0 6.939828 10.409742 9.583573
2656 1 2 0.0 6.939828 10.409742 9.748807
2657 1 2 0.0 6.939828 10.409742 9.914040
2658 1 2 0.0 6.939828 10.409742 10.079274
2659 1 2 0.0 6.939828 10.409742 10.244508
2660 1 2 0.0 10.574976 10.409742 6.939828
2661 1 2 0.0 10.740210 10.409742 6.939828
2662 1 2 0.0 10.905444 10.409742 6.939828
2663 1 2 0.0 11.070677 10.409742 6.939828
2664 1 2 0.0 11.235911 10.409742 6.939828
2665 1 2 0.0 11.401145 10.409742 6.939828
2666 1 2 0.0 11.566379 10.409742 6.939828
2667 1 2 0.0 11.731613 10.409742 6.939828
2668 1 2 0.0 11.896847 10.409742 6.939828
2669 1 2 0.0 12.062080 10.409742 6.939828
2670 1 2 0.0 12.227318 10.409742 6.939828
2671 1 2 0.0 12.392551 10.409742 6.939828
2672 1 2 0.0 12.557785 10.409742 6.939828
2673 1 2 0.0 12.723019 10.409742 6.939828
2674 1 2 0.0 12.888253 10.409742 6.939828
2675 1 2 0.0 13.053487 10.409742 6.939828
2676 1 2 0.0 13.218721 10.409742 6.939828
2677 1 2 0.0 13.383954 10.409742 6.939828
2678 1 2 0.0 13.549188 10.409742 6.939828
2679 1 2 0.0 13.714422 10.409742 6.939828
2680 1 2 0.0 10.409742 10.574976 6.939828
2681 1 2 0.0 10.409742 10.740210 6.939828
2682 1 2 0.0 10.409742 10.905444 6.939828
2683 1 2 0.0 10.409742 11.070677 6.939828
2684 1 2 0.0 10.409742 11.235911 6.939828
2685 1 2 0.0 10.409742 11.401145 6.939828
2686 1 2 0.0 10.409742 11.566379 6.939828
2687 1 2 0.0 10.409742 11.731613 6.939828
2688 1 2 0.0 10.409742 11.896847 6.939828
2689 1 2 0.0 10.409742 12.062080 6.939828
2690 1 2 0.0 10.409742 12.227318 6.939828
2691 1 2 0.0 10.409742 12.392551 6.939828
2692 1 2 0.0 10.409742 12.557785 6.939828
2693 1 2 0.0 10.409742 12.723019 6.939828
2694 1 2 0.0 10.409742 12.888253 6.939828
2695 1 2 0.0 10.409742 13.053487 6.939828
2696 1 2 0.0 10.409742 13.218721 6.939828
2697 1 2 0.0 10.409742 13.383954 6.939828
2698 1 2 0.0 10.409742 13.549188 6.939828
2699 1 2 0.0 10.409742 13.714422 6.939828
2700 1 2 0.0 13.879656 10.409742 7.105062
2701 1 2 0.0 13.879656 10.409742 7.270296
2702 1 2 0.0 13.879656 10.409742 7.435530
2703 1 2 0.0 13.879656 10.409742 7.600763
2704 1 2 0.0 13.879656 10.409742 7.765997
2705 1 2 0.0 13.879656 10.409742 7.931231
2706 1 2 0.0 13.879656 10.409742 8.096465
2707 1 2 0.0 13.879656 10.409742 8.261699
2708 1 2 0.0 13.879656 10.409742 8.426933
2709 1 2 0.0 13.879656 10.409742 8.592166
2710 1 2 0.0 13.879656 10.409742 8.757404
2711 1 2 0.0 13.879656 10.409742 8.922637
2712 1 2 0.0 13.879656 10.409742 9.087871
2713 1 2 0.0 13.879656 10.409742 9.253105
2714 1 2 0.0 13.879656 10.409742 9.418339
2715 1 2 0.0 13.879656 10.409742 9.583573
2716 1 2 0.0 13.879656 10.409742 9.748807
2717 1 2 0.0 13.879656 10.409742 9.914040
2718 1 2 0.0 13.879656 10.409742 10.079274
2719 1 2 0.0 13.879656 10.409742 10.244508
2720 1 2 0.0 0.165234 13.879656 6.939828
2721 1 2 0.0 0.330468 13.879656 6.939828
2722 1 2 0.0 0.495702 13.879656 6.939828
2723 1 2 0.0 0.660935 13.879656 6.939828
2724 1 2 0.0 0.826169 13.879656 6.939828
2725 1 2 0.0 0.991403 13.879656 6.939828
2726 1 2 0.0 1.156637 13.879656 6.939828
2727 1 2 0.0 1.321871 13.879656 6.939828
2728 1 2 0.0 1.487105 13.879656 6.939828
2729 1 2 0.0 1.652338 13.879656 6.939828
2730 1 2 0.0 1.817576 13.879656 6.939828
2731 1 2 0.0 1.982809 13.879656 6.939828
2732 1 2 0.0 2.148043 13.879656 6.939828
2733 1 2 0.0 2.313277 13.879656 6.939828
2734 1 2 0.0 2.478511 13.879656 6.939828
2735 1 2 0.0 2.643745 13.879656 6.939828
2736 1 2 0.0 2.808979 13.879656 6.939828
2737 1 2 0.0 2.974212 13.879656 6.939828
2738 1 2 0.0 3.139446 13.879656 6.939828
2739 1 2 0.0 3.304680 13.879656 6.939828
2740 1 2 0.0 0.000000 13.879656 7.105062
2741 1 2 0.0 0.000000 13.879656 7.270296
2742 1 2 0.0 0.000000 13.879656 7.435530
2743 1 2 0.0 0.000000 13.879656 7.600763
2744 1 2 0.0 0.000000 13.879656 7.765997
2745 1 2 0.0 0.000000 13.879656 7.931231
2746 1 2 0.0 0.000000 13.879656 8.096465
2747 1 2 0.0 0.000000 13.879656 8.261699
2748 1 2 0.0 0.000000 13.879656 8.426933
2749 1 2 0.0 0.000000 13.879656 8.592166
2750 1 2 0.0 0.000000 13.879656 8.757404
2751 1 2 0.0 0.000000 13.879656 8.922637
2752 1 2 0.0 0.000000 13.879656 9.087871
2753 1 2 0.0 0.000000 13.879656 9.253105
2754 1 2 0.0 0.000000 13.879656 9.418339
2755 1 2 0.0 0.000000 13.879656 9.583573
2756 1 2 0.0 0.000000 13.879656 9.748807
2757 1 2 0.0 0.000000 13.879656 9.914040
2758 1 2 0.0 0.000000 13.879656 10.079274
2759 1 2 0.0 0.000000 13.879656 10.244508
2760 1 2 0.0 3.635148 13.879656 6.939828
2761 1 2 0.0 3.800382 13.879656 6.939828
2762 1 2 0.0 3.965616 13.879656 6.939828
2763 1 2 0.0 4.130849 13.879656 6.939828
2764 1 2 0.0 4.296083 13.879656 6.939828
2765 1 2 0.0 4.461317 13.879656 6.939828
2766 1 2 0.0 4.626551 13.879656 6.939828
2767 1 2 0.0 4.791785 13.879656 6.939828
2768 1 2 0.0 4.957019 13.879656 6.939828
2769 1 2 0.0 5.122252 13.879656 6.939828
2770 1 2 0.0 5.287490 13.879656 6.939828
2771 1 2 0.0 5.452723 13.879656 6.939828
2772 1 2 0.0 5.617957 13.879656 6.939828
2773 1 2 0.0 5.783191 13.879656 6.939828
2774 1 2 0.0 5.948425 13.879656 6.939828
2775 1 2 0.0 6.113659 13.879656 6.939828
2776 1 2 0.0 6.278893 13.879656 6.939828
2777 1 2 0.0 6.444126 13.879656 6.939828
2778 1 2 0.0 6.609360 13.879656 6.939828
2779 1 2 0.0 6.774594 13.879656 6.939828
2780 1 2 0.0 10.574976 13.879656 6.939828
2781 1 2 0.0 10.740210 13.879656 6.939828
2782 1 2 0.0 10.905444 13.879656 6.939828
2783 1 2 0.0 11.070677 13.879656 6.939828
2784 1 2 0.0 11.235911 13.879656 6.939828
2785 1 2 0.0 11.401145 13.879656 6.939828
2786 1 2 0.0 11.566379 13.879656 6.939828
2787 1 2 0.0 11.731613 13.879656 6.939828
2788 1 2 0.0 11.896847 13.879656 6.939828
2789 1 2 0.0 12.062080 13.879656 6.939828
2790 1 2 0.0 12.227318 13.879656 6.939828
2791 1 2 0.0 12.392551 13.879656 6.939828
2792 1 2 0.0 12.557785 13.879656 6.939828
2793 1 2 0.0 12.723019 13.879656 6.939828
2794 1 2 0.0 12.888253 13.879656 6.939828
2795 1 2 0.0 13.053487 13.879656 6.939828
2796 1 2 0.0 13.218721 13.879656 6.939828
2797 1 2 0.0 13.383954 13.879656 6.939828
2798 1 2 0.0 13.549188 13.879656 6.939828
2799 1 2 0.0 13.714422 13.879656 6.939828
2800 1 2 0.0 10.574976 13.879656 6.939828
2801 1 2 0.0 10.740210 13.879656 6.939828
2802 1 2 0.0 10.905444 13.879656 6.939828
2803 1 2 0.0 11.070677 13.879656 6.939828
2804 1 2 0.0 11.235911 13.879656 6.939828
2805 1 2 0.0 11.401145 13.879656 6.939828
2806 1 2 0.0 11.566379 13.879656 6.939828
2807 1 2 0.0 11.731613 13.879656 6.939828
2808 1 2 0.0 11.896847 13.879656 6.939828
2809 1 2 0.0 12.062080 13.879656 6.939828
2810 1 2 0.0 12.227318 13.879656 6.939828
2811 1 2 0.0 12.392551 13.879656 6.939828
2812 1 2 0.0 12.557785 13.879656 6.939828
2813 1 2 0.0 12.723019 13.879656 6.939828
2814 1 2 0.0 12.888253 13.879656 6.939828
2815 1 2 0.0 13.053487 13.879656 6.939828
2816 1 2 0.0 13.218721 13.879656 6.939828
2817 1 2 0.0 13.383954 13.879656 6.939828
2818 1 2 0.0 13.549188 13.879656 6.939828
2819 1 2 0.0 13.714422 13.879656 6.939828
2820 1 2 0.0 10.409742 13.879656 7.105062
2821 1 2 0.0 10.409742 13.879656 7.270296
2822 1 2 0.0 10.409742 13.879656 7.435530
2823 1 2 0.0 10.409742 13.879656 7.600763
2824 1 2 0.0 10.409742 13.879656 7.765997
2825 1 2 0.0 10.409742 13.879656 7.931231
2826 1 2 0.0 10.409742 13.879656 8.096465
2827 1 2 0.0 10.409742 13.879656 8.261699
2828 1 2 0.0 10.409742 13.879656 8.426933
2829 1 2 0.0 10.409742 13.879656 8.592166
2830 1 2 0.0 10.409742 13.879656 8.757404
2831 1 2 0.0 10.409742 13.879656 8.922637
2832 1 2 0.0 10.409742 13.879656 9.087871
2833 1 2 0.0 10.409742 13.879656 9.253105
2834 1 2 0.0 10.409742 13.879656 9.418339
2835 1 2 0.0 10.409742 13.879656 9.583573
2836 1 2 0.0 10.409742 13.879656 9.748807
2837 1 2 0.0 10.409742 13.879656 9.914040
2838 1 2 0.0 10.409742 13.879656 10.079274
2839 1 2 0.0 10.409742 13.879656 10.244508
2840 1 2 0.0 13.879656 13.879656 7.105062
2841 1 2 0.0 13.879656 13.879656 7.270296
2842 1 2 0.0 13.879656 13.879656 7.435530
2843 1 2 0.0 13.879656 13.879656 7.600763
2844 1 2 0.0 13.879656 13.879656 7.765997
2845 1 2 0.0 13.879656 13.879656 7.931231
2846 1 2 0.0 13.879656 13.879656 8.096465
2847 1 2 0.0 13.879656 13.879656 8.261699
2848 1 2 0.0 13.879656 13.879656 8.426933
2849 1 2 0.0 13.879656 13.879656 8.592166
2850 1 2 0.0 13.879656 13.879656 8.757404
2851 1 2 0.0 13.879656 13.879656 8.922637
2852 1 2 0.0 13.879656 13.879656 9.087871
2853 1 2 0.0 13.879656 13.879656 9.253105
2854 1 2 0.0 13.879656 13.879656 9.418339
2855 1 2 0.0 13.879656 13.879656 9.583573
2856 1 2 0.0 13.879656 13.879656 9.748807
2857 1 2 0.0 13.879656 13.879656 9.914040
2858 1 2 0.0 13.879656 13.879656 10.079274
2859 1 2 0.0 13.879656 13.879656 10.244508
2860 1 2 0.0 0.165234 0.000000 10.409742
2861 1 2 0.0 0.330468 0.000000 10.409742
2862 1 2 0.0 0.495702 0.000000 10.409742
2863 1 2 0.0 0.660935 0.000000 10.409742
2864 1 2 0.0 0.826169 0.000000 10.409742
2865 1 2 0.0 0.991403 0.000000 10.409742
2866 1 2 0.0 1.156637 0.000000 10.409742
2867 1 2 0.0 1.321871 0.000000 10.409742
2868 1 2 0.0 1.487105 0.000000 10.409742
2869 1 2 0.0 1.652338 0.000000 10.409742
2870 1 2 0.0 1.817576 0.000000 10.409742
2871 1 2 0.0 1.982809 0.000000 10.409742
2872 1 2 0.0 2.148043 0.000000 10.409742
2873 1 2 0.0 2.313277 0.000000 10.409742
2874 1 2 0.0 2.478511 0.000000 10.409742
2875 1 2 0.0 2.643745 0.000000 10.409742
2876 1 2 0.0 2.808979 0.000000 10.409742
2877 1 2 0.0 2.974212 0.000000 10.409742
2878 1 2 0.0 3.139446 0.000000 10.409742
2879 1 2 0.0 3.304680 0.000000 10.409742
2880 1 2 0.0 3.469914 0.000000 10.574976
2881 1 2 0.0 3.469914 0.000000 10.740210
2882 1 2 0.0 3.469914 0.000000 10.905444
2883 1 2 0.0 3.469914 0.000000 11.070677
2884 1 2 0.0 3.469914 0.000000 11.235911
2885 1 2 0.0 3.469914 0.000000 11.401145
2886 1 2 0.0 3.469914 0.000000 11.566379
2887 1 2 0.0 3.469914 0.000000 11.731613
2888 1 2 0.0 3.469914 0.000000 11.896847
2889 1 2 0.0 3.469914 0.000000 12.062080
2890 1 2 0.0 3.469914 0.000000 12.227318
2891 1 2 0.0 3.469914 0.000000 12.392551
2892 1 2 0.0 3.469914 0.000000 12.557785
2893 1 2 0.0 3.469914 0.000000 12.723019
2894 1 2 0.0 3.469914 0.000000 12.888253
2895 1 2 0.0 3.469914 0.000000 13.053487
2896 1 2 0.0 3.469914 0.000000 13.218721
2897 1 2 0.0 3.469914 0.000000 13.383954
2898 1 2 0.0 3.469914 0.000000 13.549188
2899 1 2 0.0 3.469914 0.000000 13.714422
2900 1 2 0.0 3.469914 17.184336 10.409742
2901 1 2 0.0 3.469914 17.019102 10.409742
2902 1 2 0.0 3.469914 16.853868 10.409742
2903 1 2 0.0 3.469914 16.688635 10.409742
2904 1 2 0.0 3.469914 16.523401 10.409742
2905 1 2 0.0 3.469914 16.358167 10.409742
2906 1 2 0.0 3.469914 16.192933 10.409742
2907 1 2 0.0 3.469914 16.027699 10.409742
2908 1 2 0.0 3.469914 15.862465 10.409742
2909 1 2 0.0 3.469914 15.697232 10.409742
2910 1 2 0.0 3.469914 15.531994 10.409742
2911 1 2 0.0 3.469914 15.366761 10.409742
2912 1 2 0.0 3.469914 15.201527 10.409742
2913 1 2 0.0 3.469914 15.036293 10.409742
2914 1 2 0.0 3.469914 14.871059 10.409742
2915 1 2 0.0 3.469914 14.705825 10.409742
2916 1 2 0.0 3.469914 14.540591 10.409742
2917 1 2 0.0 3.469914 14.375358 10.409742
2918 1 2 0.0 3.469914 14.210124 10.409742
2919 1 2 0.0 3.469914 14.044890 10.409742
2920 1 2 0.0 7.105062 0.000000 10.409742
2921 1 2 0.0 7.270296 0.000000 10.409742
2922 1 2 0.0 7.435530 0.000000 10.409742
2923 1 2 0.0 7.600763 0.000000 10.409742
2924 1 2 0.0 7.765997 0.000000 10.409742
2925 1 2 0.0 7.931231 0.000000 10.409742
2926 1 2 0.0 8.096465 0.000000 10.409742
2927 1 2 0.0 8.261699 0.000000 10.409742
2928 1 2 0.0 8.426933 0.000000 10.409742
2929 1 2 0.0 8.592166 0.000000 10.409742
2930 1 2 0.0 8.757404 0.000000 10.409742
2931 1 2 0.0 8.922637 0.000000 10.409742
2932 1 2 0.0 9.087871 0.000000 10.409742
2933 1 2 0.0 9.253105 0.000000 10.409742
2934 1 2 0.0 9.418339 0.000000 10.409742
2935 1 2 0.0 9.583573 0.000000 10.409742
2936 1 2 0.0 9.748807 0.000000 10.409742
2937 1 2 0.0 9.914040 0.000000 10.409742
2938 1 2 0.0 10.079274 0.000000 10.409742
2939 1 2 0.0 10.244508 0.000000 10.409742
2940 1 2 0.0 6.939828 0.000000 10.574976
2941 1 2 0.0 6.939828 0.000000 10.740210
2942 1 2 0.0 6.939828 0.000000 10.905444
2943 1 2 0.0 6.939828 0.000000 11.070677
2944 1 2 0.0 6.939828 0.000000 11.235911
2945 1 2 0.0 6.939828 0.000000 11.401145
2946 1 2 0.0 6.939828 0.000000 11.566379
2947 1 2 0.0 6.939828 0.000000 11.731613
2948 1 2 0.0 6.939828 0.000000 11.896847
2949 1 2 0.0 6.939828 0.000000 12.062080
2950 1 2 0.0 6.939828 0.000000 12.227318
2951 1 2 0.0 6.939828 0.000000 12.392551
2952 1 2 0.0 6.939828 0.000000 12.557785
2953 1 2 0.0 6.939828 0.000000 12.723019
2954 1 2 0.0 6.939828 0.000000 12.888253
2955 1 2 0.0 6.939828 0.000000 13.053487
2956 1 2 0.0 6.939828 0.000000 13.218721
2957 1 2 0.0 6.939828 0.000000 13.383954
2958 1 2 0.0 6.939828 0.000000 13.549188
2959 1 2 0.0 6.939828 0.000000 13.714422
2960 1 2 0.0 6.939828 17.184336 10.409742
2961 1 2 0.0 6.939828 17.019102 10.409742
2962 1 2 0.0 6.939828 16.853868 10.409742
2963 1 2 0.0 6.939828 16.688635 10.409742
2964 1 2 0.0 6.939828 16.523401 10.409742
2965 1 2 0.0 6.939828 16.358167 10.409742
2966 1 2 0.0 6.939828 16.192933 10.409742
2967 1 2 0.0 6.939828 16.027699 10.409742
2968 1 2 0.0 6.939828 15.862465 10.409742
2969 1 2 0.0 6.939828 15.697232 10.409742
2970 1 2 0.0 6.939828 15.531994 10.409742
2971 1 2 0.0 6.939828 15.366761 10.409742
2972 1 2 0.0 6.939828 15.201527 10.409742
2973 1 2 0.0 6.939828 15.036293 10.409742
2974 1 2 0.0 6.939828 14.871059 10.409742
2975 1 2 0.0 6.939828 14.705825 10.409742
2976 1 2 0.0 6.939828 14.540591 10.409742
2977 1 2 0.0 6.939828 14.375358 10.409742
2978 1 2 0.0 6.939828 14.210124 10.409742
2979 1 2 0.0 6.939828 14.044890 10.409742
2980 1 2 0.0 10.409742 0.165234 10.409742
2981 1 2 0.0 10.409742 0.330468 10.409742
2982 1 2 0.0 10.409742 0.495702 10.409742
2983 1 2 0.0 10.409742 0.660935 10.409742
2984 1 2 0.0 10.409742 0.826169 10.409742
2985 1 2 0.0 10.409742 0.991403 10.409742
2986 1 2 0.0 10.409742 1.156637 10.409742
2987 1 2 0.0 10.409742 1.321871 10.409742
2988 1 2 0.0 10.409742 1.487105 10.409742
2989 1 2 0.0 10.409742 1.652338 10.409742
2990 1 2 0.0 10.409742 1.817576 10.409742
2991 1 2 0.0 10.409742 1.982809 10.409742
2992 1 2 0.0 10.409742 2.148043 10.409742
2993 1 2 0.0 10.409742 2.313277 10.409742
2994 1 2 0.0 10.409742 2.478511 10.409742
2995 1 2 0.0 10.409742 2.643745 10.409742
2996 1 2 0.0 10.409742 2.808979 10.409742
2997 1 2 0.0 10.409742 2.974212 10.409742
2998 1 2 0.0 10.409742 3.139446 10.409742
2999 1 2 0.0 10.409742 3.304680 10.409742
3000 1 2 0.0 10.409742 0.000000 10.574976
3001 1 2 0.0 10.409742 0.000000 10.740210
3002 1 2 0.0 10.409742 0.000000 10.905444
3003 1 2 0.0 10.409742 0.000000 11.070677
3004 1 2 0.0 10.409742 0.000000 11.235911
3005 1 2 0.0 10.409742 0.000000 11.401145
3006 1 2 0.0 10.409742 0.000000 11.566379
3007 1 2 0.0 10.409742 0.000000 11.731613
3008 1 2 0.0 10.409742 0.000000 11.896847
3009 1 2 0.0 10.409742 0.000000 12.062080
3010 1 2 0.0 10.409742 0.000000 12.227318
3011 1 2 0.0 10.409742 0.000000 12.392551
3012 1 2 0.0 10.409742 0.000000 12.557785
3013 1 2 0.0 10.409742 0.000000 12.723019
3014 1 2 0.0 10.409742 0.000000 12.888253
3015 1 2 0.0 10.409742 0.000000 13.053487
3016 1 2 0.0 10.409742 0.000000 13.218721
3017 1 2 0.0 10.409742 0.000000 13.383954
3018 1 2 0.0 10.409742 0.000000 13.549188
3019 1 2 0.0 10.409742 0.000000 13.714422
3020 1 2 0.0 13.879656 0.000000 10.574976
3021 1 2 0.0 13.879656 0.000000 10.740210
3022 1 2 0.0 13.879656 0.000000 10.905444
3023 1 2 0.0 13.879656 0.000000 11.070677
3024 1 2 0.0 13.879656 0.000000 11.235911
3025 1 2 0.0 13.879656 0.000000 11.401145
3026 1 2 0.0 13.879656 0.000000 11.566379
3027 1 2 0.0 13.879656 0.000000 11.731613
3028 1 2 0.0 13.879656 0.000000 11.896847
3029 1 2 0.0 13.879656 0.000000 12.062080
3030 1 2 0.0 13.879656 0.000000 12.227318
3031 1 2 0.0 13.879656 0.000000 12.392551
3032 1 2 0.0 13.879656 0.000000 12.557785
3033 1 2 0.0 13.879656 0.000000 12.723019
3034 1 2 0.0 13.879656 0.000000 12.888253
3035 1 2 0.0 13.879656 0.000000 13.053487
3036 1 2 0.0 13.879656 0.000000 13.218721
3037 1 2 0.0 13.879656 0.000000 13.383954
3038 1 2 0.0 13.879656 0.000000 13.549188
3039 1 2 0.0 13.879656 0.000000 13.714422
3040 1 2 0.0 13.879656 17.184336 10.409742
3041 1 2 0.0 13.879656 17.019102 10.409742
3042 1 2 0.0 13.879656 16.853868 10.409742
3043 1 2 0.0 13.879656 16.688635 10.409742
3044 1 2 0.0 13.879656 16.523401 10.409742
3045 1 2 0.0 13.879656 16.358167 10.409742
3046 1 2 0.0 13.879656 16.192933 10.409742
3047 1 2 0.0 13.879656 16.027699 10.409742
3048 1 2 0.0 13.879656 15.862465 10.409742
3049 1 2 0.0 13.879656 15.697232 10.409742
3050 1 2 0.0 13.879656 15.531994 10.409742
3051 1 2 0.0 13.879656 15.366761 10.409742
3052 1 2 0.0 13.879656 15.201527 10.409742
3053 1 2 0.0 13.879656 15.036293 10.409742
3054 1 2 0.0 13.879656 14.871059 10.409742
3055 1 2 0.0 13.879656 14.705825 10.409742
3056 1 2 0.0 13.879656 14.540591 10.409742
3057 1 2 0.0 13.879656 14.375358 10.409742
3058 1 2 0.0 13.879656 14.210124 10.409742
3059 1 2 0.0 13.879656 14.044890 10.409742
3060 1 2 0.0 13.879656 17.184336 10.409742
3061 1 2 0.0 13.879656 17.019102 10.409742
3062 1 2 0.0 13.879656 16.853868 10.409742
3063 1 2 0.0 13.879656 16.688635 10.409742
3064 1 2 0.0 13.879656 16.523401 10.409742
3065 1 2 0.0 13.879656 16.358167 10.409742
3066 1 2 0.0 13.879656 16.192933 10.409742
3067 1 2 0.0 13.879656 16.027699 10.409742
3068 1 2 0.0 13.879656 15.862465 10.409742
3069 1 2 0.0 13.879656 15.697232 10.409742
3070 1 2 0.0 13.879656 15.531994 10.409742
3071 1 2 0.0 13.879656 15.366761 10.409742
3072 1 2 0.0 13.879656 15.201527 10.409742
3073 1 2 0.0 13.879656 15.036293 10.409742
3074 1 2 0.0 13.879656 14.871059 10.409742
3075 1 2 0.0 13.879656 14.705825 10.409742
3076 1 2 0.0 13.879656 14.540591 10.409742
3077 1 2 0.0 13.879656 14.375358 10.409742
3078 1 2 0.0 13.879656 14.210124 10.409742
3079 1 2 0.0 13.879656 14.044890 10.409742
3080 1 2 0.0 0.165234 3.469914 10.409742
3081 1 2 0.0 0.330468 3.469914 10.409742
3082 1 2 0.0 0.495702 3.469914 10.409742
3083 1 2 0.0 0.660935 3.469914 10.409742
3084 1 2 0.0 0.826169 3.469914 10.409742
3085 1 2 0.0 0.991403 3.469914 10.409742
3086 1 2 0.0 1.156637 3.469914 10.409742
3087 1 2 0.0 1.321871 3.469914 10.409742
3088 1 2 0.0 1.487105 3.469914 10.409742
3089 1 2 0.0 1.652338 3.469914 10.409742
3090 1 2 0.0 1.817576 3.469914 10.409742
3091 1 2 0.0 1.982809 3.469914 10.409742
3092 1 2 0.0 2.148043 3.469914 10.409742
3093 1 2 0.0 2.313277 3.469914 10.409742
3094 1 2 0.0 2.478511 3.469914 10.409742
3095 1 2 0.0 2.643745 3.469914 10.409742
3096 1 2 0.0 2.808979 3.469914 10.409742
3097 1 2 0.0 2.974212 3.469914 10.409742
3098 1 2 0.0 3.139446 3.469914 10.409742
3099 1 2 0.0 3.304680 3.469914 10.409742
3100 1 2 0.0 0.165234 3.469914 10.409742
3101 1 2 0.0 0.330468 3.469914 10.409742
3102 1 2 0.0 0.495702 3.469914 10.409742
3103 1 2 0.0 0.660935 3.469914 10.409742
3104 1 2 0.0 0.826169 3.469914 10.409742
3105 1 2 0.0 0.991403 3.469914 10.409742
3106 1 2 0.0 1.156637 3.469914 10.409742
3107 1 2 0.0 1.321871 3.469914 10.409742
3108 1 2 0.0 1.487105 3.469914 10.409742
3109 1 2 0.0 1.652338 3.469914 10.409742
3110 1 2 0.0 1.817576 3.469914 10.409742
3111 1 2 0.0 1.982809 3.469914 10.409742
3112 1 2 0.0 2.148043 3.469914 10.409742
3113 1 2 0.0 2.313277 3.469914 10.409742
3114 1 2 0.0 2.478511 3.469914 10.409742
3115 1 2 0.0 2.643745 3.469914 10.409742
3116 1 2 0.0 2.808979 3.469914 10.409742
3117 1 2 0.0 2.974212 3.469914 10.409742
3118 1 2 0.0 3.139446 3.469914 10.409742
3119 1 2 0.0 3.304680 3.469914 10.409742
3120 1 2 0.0 0.000000 3.469914 10.574976
3121 1 2 0.0 0.000000 3.469914 10.740210
3122 1 2 0.0 0.000000 3.469914 10.905444
3123 1 2 0.0 0.000000 3.469914 11.070677
3124 1 2 0.0 0.000000 3.469914 11.235911
3125 1 2 0.0 0.000000 3.469914 11.401145
3126 1 2 0.0 0.000000 3.469914 11.566379
3127 1 2 0.0 0.000000 3.469914 11.731613
3128 1 2 0.0 0.000000 3.469914 11.896847
3129 1 2 0.0 0.000000 3.469914 12.062080
3130 1 2 0.0 0.000000 3.469914 12.227318
3131 1 2 0.0 0.000000 3.469914 12.392551
3132 1 2 0.0 0.000000 3.469914 12.557785
3133 1 2 0.0 0.000000 3.469914 12.723019
3134 1 2 0.0 0.000000 3.469914 12.888253
3135 1 2 0.0 0.000000 3.469914 13.053487
3136 1 2 0.0 0.000000 3.469914 13.218721
3137 1 2 0.0 0.000000 3.469914 13.383954
3138 1 2 0.0 0.000000 3.469914 13.549188
3139 1 2 0.0 0.000000 3.469914 13.714422
3140 1 2 0.0 3.635148 3.469914 10.409742
3141 1 2 0.0 3.800382 3.469914 10.409742
3142 1 2 0.0 3.965616 3.469914 10.409742
3143 1 2 0.0 4.130849 3.469914 10.409742
3144 1 2 0.0 4.296083 3.469914 10.409742
3145 1 2 0.0 4.461317 3.469914 10.409742
3146 1 2 0.0 4.626551 3.469914 10.409742
3147 1 2 0.0 4.791785 3.469914 10.409742
3148 1 2 0.0 4.957019 3.469914 10.409742
3149 1 2 0.0 5.122252 3.469914 10.409742
3150 1 2 0.0 5.287490 3.469914 10.409742
3151 1 2 0.0 5.452723 3.469914 10.409742
3152 1 2 0.0 5.617957 3.469914 10.409742
3153 1 2 0.0 5.783191 3.469914 10.409742
3154 1 2 0.0 5.948425 3.469914 10.409742
3155 1 2 0.0 6.113659 3.469914 10.409742
3156 1 2 0.0 6.278893 3.469914 10.409742
3157 1 2 0.0 6.444126 3.469914 10.409742
3158 1 2 0.0 6.609360 3.469914 10.409742
3159 1 2 0.0 6.774594 3.469914 10.409742
3160 1 2 0.0 3.469914 3.469914 10.574976
3161 1 2 0.0 3.469914 3.469914 10.740210
3162 1 2 0.0 3.469914 3.469914 10.905444
3163 1 2 0.0 3.469914 3.469914 11.070677
3164 1 2 0.0 3.469914 3.469914 11.235911
3165 1 2 0.0 3.469914 3.469914 11.401145
3166 1 2 0.0 3.469914 3.469914 11.566379
3167 1 2 0.0 3.469914 3.469914 11.731613
3168 1 2 0.0 3.469914 3.469914 11.896847
3169 1 2 0.0 3.469914 3.469914 12.062080
3170 1 2 0.0 3.469914 3.469914 12.227318
3171 1 2 0.0 3.469914 3.469914 12.392551
3172 1 2 0.0 3.469914 3.469914 12.557785
3173 1 2 0.0 3.469914 3.469914 12.723019
3174 1 2 0.0 3.469914 3.469914 12.888253
3175 1 2 0.0 3.469914 3.469914 13.053487
3176 1 2 0.0 3.469914 3.469914 13.218721
3177 1 2 0.0 3.469914 3.469914 13.383954
3178 1 2 0.0 3.469914 3.469914 13.549188
3179 1 2 0.0 3.469914 3.469914 13.714422
3180 1 2 0.0 7.105062 3.469914 10.409742
3181 1 2 0.0 7.270296 3.469914 10.409742
3182 1 2 0.0 7.435530 3.469914 10.409742
3183 1 2 0.0 7.600763 3.469914 10.409742
3184 1 2 0.0 7.765997 3.469914 10.409742
3185 1 2 0.0 7.931231 3.469914 10.409742
3186 1 2 0.0 8.096465 3.469914 10.409742
3187 1 2 0.0 8.261699 3.469914 10.409742
3188 1 2 0.0 8.426933 3.469914 10.409742
3189 1 2 0.0 8.592166 3.469914 10.409742
3190 1 2 0.0 8.757404 3.469914 10.409742
3191 1 2 0.0 8.922637 3.469914 10.409742
3192 1 2 0.0 9.087871 3.469914 10.409742
3193 1 2 0.0 9.253105 3.469914 10.409742
3194 1 2 0.0 9.418339 3.469914 10.409742
3195 1 2 0.0 9.583573 3.469914 10.409742
3196 1 2 0.0 9.748807 3.469914 10.409742
3197 1 2 0.0 9.914040 3.469914 10.409742
3198 1 2 0.0 10.079274 3.469914 10.409742
3199 1 2 0.0 10.244508 3.469914 10.409742
3200 1 2 0.0 6.939828 3.635148 10.409742
3201 1 2 0.0 6.939828 3.800382 10.409742
3202 1 2 0.0 6.939828 3.965616 10.409742
3203 1 2 0.0 6.939828 4.130849 10.409742
3204 1 2 0.0 6.939828 4.296083 10.409742
3205 1 2 0.0 6.939828 4.461317 10.409742
3206 1 2 0.0 6.939828 4.626551 10.409742
3207 1 2 0.0 6.939828 4.791785 10.409742
3208 1 2 0.0 6.939828 4.957019 10.409742
3209 1 2 0.0 6.939828 5.122252 10.409742
3210 1 2 0.0 6.939828 5.287490 10.409742
3211 1 2 0.0 6.939828 5.452723 10.409742
3212 1 2 0.0 6.939828 5.617957 10.409742
3213 1 2 0.0 6.939828 5.783191 10.409742
3214 1 2 0.0 6.939828 5.948425 10.409742
3215 1 2 0.0 6.939828 6.113659 10.409742
3216 1 2 0.0 6.939828 6.278893 10.409742
3217 1 2 0.0 6.939828 6.444126 10.409742
3218 1 2 0.0 6.939828 6.609360 10.409742
3219 1 2 0.0 6.939828 6.774594 10.409742
3220 1 2 0.0 6.939828 3.469914 10.574976
3221 1 2 0.0 6.939828 3.469914 10.740210
3222 1 2 0.0 6.939828 3.469914 10.905444
3223 1 2 0.0 6.939828 3.469914 11.070677
3224 1 2 0.0 6.939828 3.469914 11.235911
3225 1 2 0.0 6.939828 3.469914 11.401145
3226 1 2 0.0 6.939828 3.469914 11.566379
3227 1 2 0.0 6.939828 3.469914 11.731613
3228 1 2 0.0 6.939828 3.469914 11.896847
3229 1 2 0.0 6.939828 3.469914 12.062080
3230 1 2 0.0 6.939828 3.469914 12.227318
3231 1 2 0.0 6.939828 3.469914 12.392551
3232 1 2 0.0 6.939828 3.469914 12.557785
3233 1 2 0.0 6.939828 3.469914 12.723019
3234 1 2 0.0 6.939828 3.469914 12.888253
3235 1 2 0.0 6.939828 3.469914 13.053487
3236 1 2 0.0 6.939828 3.469914 13.218721
3237 1 2 0.0 6.939828 3.469914 13.383954
3238 1 2 0.0 6.939828 3.469914 13.549188
3239 1 2 0.0 6.939828 3.469914 13.714422
3240 1 2 0.0 10.409742 3.635148 10.409742
3241 1 2 0.0 10.409742 3.800382 10.409742
3242 1 2 0.0 10.409742 3.965616 10.409742
3243 1 2 0.0 10.409742 4.130849 10.409742
3244 1 2 0.0 10.409742 4.296083 10.409742
3245 1 2 0.0 10.409742 4.461317 10.409742
3246 1 2 0.0 10.409742 4.626551 10.409742
3247 1 2 0.0 10.409742 4.791785 10.409742
3248 1 2 0.0 10.409742 4.957019 10.409742
3249 1 2 0.0 10.409742 5.122252 10.409742
3250 1 2 0.0 10.409742 5.287490 10.409742
3251 1 2 0.0 10.409742 5.452723 10.409742
3252 1 2 0.0 10.409742 5.617957 10.409742
3253 1 2 0.0 10.409742 5.783191 10.409742
3254 1 2 0.0 10.409742 5.948425 10.409742
3255 1 2 0.0 10.409742 6.113659 10.409742
3256 1 2 0.0 10.409742 6.278893 10.409742
3257 1 2 0.0 10.409742 6.444126 10.409742
3258 1 2 0.0 10.409742 6.609360 10.409742
3259 1 2 0.0 10.409742 6.774594 10.409742
3260 1 2 0.0 13.879656 3.635148 10.409742
3261 1 2 0.0 13.879656 3.800382 10.409742
3262 1 2 0.0 13.879656 3.965616 10.409742
3263 1 2 0.0 13.879656 4.130849 10.409742
3264 1 2 0.0 13.879656 4.296083 10.409742
3265 1 2 0.0 13.879656 4.461317 10.409742
3266 1 2 0.0 13.879656 4.626551 10.409742
3267 1 2 0.0 13.879656 4.791785 10.409742
3268 1 2 0.0 13.879656 4.957019 10.409742
3269 1 2 0.0 13.879656 5.122252 10.409742
3270 1 2 0.0 13.879656 5.287490 10.409742
3271 1 2 0.0 13.879656 5.452723 10.409742
3272 1 2 0.0 13.879656 5.617957 10.409742
3273 1 2 0.0 13.879656 5.783191 10.409742
3274 1 2 0.0 13.879656 5.948425 10.409742
3275 1 2 0.0 13.879656 6.113659 10.409742
3276 1 2 0.0 13.879656 6.278893 10.409742
3277 1 2 0.0 13.879656 6.444126 10.409742
3278 1 2 0.0 13.879656 6.609360 10.409742
3279 1 2 0.0 13.879656 6.774594 10.409742
3280 1 2 0.0 13.879656 3.469914 10.574976
3281 1 2 0.0 13.879656 3.469914 10.740210
3282 1 2 0.0 13.879656 3.469914 10.905444
3283 1 2 0.0 13.879656 3.469914 11.070677
3284 1 2 0.0 13.879656 3.469914 11.235911
3285 1 2 0.0 13.879656 3.469914 11.401145
3286 1 2 0.0 13.879656 3.469914 11.566379
3287 1 2 0.0 13.879656 3.469914 11.731613
3288 1 2 0.0 13.879656 3.469914 11.896847
3289 1 2 0.0 13.879656 3.469914 12.062080
3290 1 2 0.0 13.879656 3.469914 12.227318
3291 1 2 0.0 13.879656 3.469914 12.392551
3292 1 2 0.0 13.879656 3.469914 12.557785
3293 1 2 0.0 13.879656 3.469914 12.723019
3294 1 2 0.0 13.879656 3.469914 12.888253
3295 1 2 0.0 13.879656 3.469914 13.053487
3296 1 2 0.0 13.879656 3.469914 13.218721
3297 1 2 0.0 13.879656 3.469914 13.383954
3298 1 2 0.0 13.879656 3.469914 13.549188
3299 1 2 0.0 13.879656 3.469914 13.714422
3300 1 2 0.0 0.000000 7.105062 10.409742
3301 1 2 0.0 0.000000 7.270296 10.409742
3302 1 2 0.0 0.000000 7.435530 10.409742
3303 1 2 0.0 0.000000 7.600763 10.409742
3304 1 2 0.0 0.000000 7.765997 10.409742
3305 1 2 0.0 0.000000 7.931231 10.409742
3306 1 2 0.0 0.000000 8.096465 10.409742
3307 1 2 0.0 0.000000 8.261699 10.409742
3308 1 2 0.0 0.000000 8.426933 10.409742
3309 1 2 0.0 0.000000 8.592166 10.409742
3310 1 2 0.0 0.000000 8.757404 10.409742
3311 1 2 0.0 0.000000 8.922637 10.409742
3312 1 2 0.0 0.000000 9.087871 10.409742
3313 1 2 0.0 0.000000 9.253105 10.409742
3314 1 2 0.0 0.000000 9.418339 10.409742
3315 1 2 0.0 0.000000 9.583573 10.409742
3316 1 2 0.0 0.000000 9.748807 10.409742
3317 1 2 0.0 0.000000 9.914040 10.409742
3318 1 2 0.0 0.000000 10.079274 10.409742
3319 1 2 0.0 0.000000 10.244508 10.409742
3320 1 2 0.0 0.000000 6.939828 10.574976
3321 1 2 0.0 0.000000 6.939828 10.740210
3322 1 2 0.0 0.000000 6.939828 10.905444
3323 1 2 0.0 0.000000 6.939828 11.070677
3324 1 2 0.0 0.000000 6.939828 11.235911
3325 1 2 0.0 0.000000 6.939828 11.401145
3326 1 2 0.0 0.000000 6.939828 11.566379
3327 1 2 0.0 0.000000 6.939828 11.731613
3328 1 2 0.0 0.000000 6.939828 11.896847
3329 1 2 0.0 0.000000 6.939828 12.062080
3330 1 2 0.0 0.000000 6.939828 12.227318
3331 1 2 0.0 0.000000 6.939828 12.392551
3332 1 2 0.0 0.000000 6.939828 12.557785
3333 1 2 0.0 0.000000 6.939828 12.723019
3334 1 2 0.0 0.000000 6.939828 12.888253
3335 1 2 0.0 0.000000 6.939828 13.053487
3336 1 2 0.0 0.000000 6.939828 13.218721
3337 1 2 0.0 0.000000 6.939828 13.383954
3338 1 2 0.0 0.000000 6.939828 13.549188
3339 1 2 0.0 0.000000 6.939828 13.714422
3340 1 2 0.0 17.184336 6.939828 10.409742
3341 1 2 0.0 17.019102 6.939828 10.409742
3342 1 2 0.0 16.853868 6.939828 10.409742
3343 1 2 0.0 16.688635 6.939828 10.409742
3344 1 2 0.0 16.523401 6.939828 10.409742
3345 1 2 0.0 16.358167 6.939828 10.409742
3346 1 2 0.0 16.192933 6.939828 10.409742
3347 1 2 0.0 16.027699 6.939828 10.409742
3348 1 2 0.0 15.862465 6.939828 10.409742
3349 1 2 0.0 15.697232 6.939828 10.409742
3350 1 2 0.0 15.531994 6.939828 10.409742
3351 1 2 0.0 15.366761 6.939828 10.409742
3352 1 2 0.0 15.201527 6.939828 10.409742
3353 1 2 0.0 15.036293 6.939828 10.409742
3354 1 2 0.0 14.871059 6.939828 10.409742
3355 1 2 0.0 14.705825 6.939828 10.409742
3356 1 2 0.0 14.540591 6.939828 10.409742
3357 1 2 0.0 14.375358 6.939828 10.409742
3358 1 2 0.0 14.210124 6.939828 10.409742
3359 1 2 0.0 14.044890 6.939828 10.409742
3360 1 2 0.0 3.635148 6.939828 10.409742
3361 1 2 0.0 3.800382 6.939828 10.409742
3362 1 2 0.0 3.965616 6.939828 10.409742
3363 1 2 0.0 4.130849 6.939828 10.409742
3364 1 2 0.0 4.296083 6.939828 10.409742
3365 1 2 0.0 4.461317 6.939828 10.409742
3366 1 2 0.0 4.626551 6.939828 10.409742
3367 1 2 0.0 4.791785 6.939828 10.409742
3368 1 2 0.0 4.957019 6.939828 10.409742
3369 1 2 0.0 5.122252 6.939828 10.409742
3370 1 2 0.0 5.287490 6.939828 10.409742
3371 1 2 0.0 5.452723 6.939828 10.409742
3372 1 2 0.0 5.617957 6.939828 10.409742
3373 1 2 0.0 5.783191 6.939828 10.409742
3374 1 2 0.0 5.948425 6.939828 10.409742
3375 1 2 0.0 6.113659 6.939828 10.409742
3376 1 2 0.0 6.278893 6.939828 10.409742
3377 1 2 0.0 6.444126 6.939828 10.409742
3378 1 2 0.0 6.609360 6.939828 10.409742
3379 1 2 0.0 6.774594 6.939828 10.409742
3380 1 2 0.0 3.635148 6.939828 10.409742
3381 1 2 0.0 3.800382 6.939828 10.409742
3382 1 2 0.0 3.965616 6.939828 10.409742
3383 1 2 0.0 4.130849 6.939828 10.409742
3384 1 2 0.0 4.296083 6.939828 10.409742
3385 1 2 0.0 4.461317 6.939828 10.409742
3386 1 2 0.0 4.626551 6.939828 10.409742
3387 1 2 0.0 4.791785 6.939828 10.409742
3388 1 2 0.0 4.957019 6.939828 10.409742
3389 1 2 0.0 5.122252 6.939828 10.409742
3390 1 2 0.0 5.287490 6.939828 10.409742
3391 1 2 0.0 5.452723 6.939828 10.409742
3392 1 2 0.0 5.617957 6.939828 10.409742
3393 1 2 0.0 5.783191 6.939828 10.409742
3394 1 2 0.0 5.948425 6.939828 10.409742
3395 1 2 0.0 6.113659 6.939828 10.409742
3396 1 2 0.0 6.278893 6.939828 10.409742
3397 1 2 0.0 6.444126 6.939828 10.409742
3398 1 2 0.0 6.609360 6.939828 10.409742
3399 1 2 0.0 6.774594 6.939828 10.409742
3400 1 2 0.0 3.469914 6.939828 10.574976
3401 1 2 0.0 3.469914 6.939828 10.740210
3402 1 2 0.0 3.469914 6.939828 10.905444
3403 1 2 0.0 3.469914 6.939828 11.070677
3404 1 2 0.0 3.469914 6.939828 11.235911
3405 1 2 0.0 3.469914 6.939828 11.401145
3406 1 2 0.0 3.469914 6.939828 11.566379
3407 1 2 0.0 3.469914 6.939828 11.731613
3408 1 2 0.0 3.469914 6.939828 11.896847
3409 1 2 0.0 3.469914 6.939828 12.062080
3410 1 2 0.0 3.469914 6.939828 12.227318
3411 1 2 0.0 3.469914 6.939828 12.392551
3412 1 2 0.0 3.469914 6.939828 12.557785
3413 1 2 0.0 3.469914 6.939828 12.723019
3414 1 2 0.0 3.469914 6.939828 12.888253
3415 1 2 0.0 3.469914 6.939828 13.053487
3416 1 2 0.0 3.469914 6.939828 13.218721
3417 1 2 0.0 3.469914 6.939828 13.383954
3418 1 2 0.0 3.469914 6.939828 13.549188
3419 1 2 0.0 3.469914 6.939828 13.714422
3420 1 2 0.0 6.939828 7.105062 10.409742
3421 1 2 0.0 6.939828 7.270296 10.409742
3422 1 2 0.0 6.939828 7.435530 10.409742
3423 1 2 0.0 6.939828 7.600763 10.409742
3424 1 2 0.0 6.939828 7.765997 10.409742
3425 1 2 0.0 6.939828 7.931231 10.409742
3426 1 2 0.0 6.939828 8.096465 10.409742
3427 1 2 0.0 6.939828 8.261699 10.409742
3428 1 2 0.0 6.939828 8.426933 10.409742
3429 1 2 0.0 6.939828 8.592166 10.409742
3430 1 2 0.0 6.939828 8.757404 10.409742
3431 1 2 0.0 6.939828 8.922637 10.409742
3432 1 2 0.0 6.939828 9.087871 10.409742
3433 1 2 0.0 6.939828 9.253105 10.409742
3434 1 2 0.0 6.939828 9.418339 10.409742
3435 1 2 0.0 6.939828 9.583573 10.409742
3436 1 2 0.0 6.939828 9.748807 10.409742
3437 1 2 0.0 6.939828 9.914040 10.409742
3438 1 2 0.0 6.939828 10.079274 10.409742
3439 1 2 0.0 6.939828 10.244508 10.409742
3440 1 2 0.0 10.574976 6.939828 10.409742
3441 1 2 0.0 10.740210 6.939828 10.409742
3442 1 2 0.0 10.905444 6.939828 10.409742
3443 1 2 0.0 11.070677 6.939828 10.409742
3444 1 2 0.0 11.235911 6.939828 10.409742
3445 1 2 0.0 11.401145 6.939828 10.409742
3446 1 2 0.0 11.566379 6.939828 10.409742
3447 1 2 0.0 11.731613 6.939828 10.409742
3448 1 2 0.0 11.896847 6.939828 10.409742
3449 1 2 0.0 12.062080 6.939828 10.409742
3450 1 2 0.0 12.227318 6.939828 10.409742
3451 1 2 0.0 12.392551 6.939828 10.409742
3452 1 2 0.0 12.557785 6.939828 10.409742
3453 1 2 0.0 12.723019 6.939828 10.409742
3454 1 2 0.0 12.888253 6.939828 10.409742
3455 1 2 0.0 13.053487 6.939828 10.409742
3456 1 2 0.0 13.218721 6.939828 10.409742
3457 1 2 0.0 13.383954 6.939828 10.409742
3458 1 2 0.0 13.549188 6.939828 10.409742
3459 1 2 0.0 13.714422 6.939828 10.409742
3460 1 2 0.0 10.409742 7.105062 10.409742
3461 1 2 0.0 10.409742 7.270296 10.409742
3462 1 2 0.0 10.409742 7.435530 10.409742
3463 1 2 0.0 10.409742 7.600763 10.409742
3464 1 2 0.0 10.409742 7.765997 10.409742
3465 1 2 0.0 10.409742 7.931231 10.409742
3466 1 2 0.0 10.409742 8.096465 10.409742
3467 1 2 0.0 10.409742 8.261699 10.409742
3468 1 2 0.0 10.409742 8.426933 10.409742
3469 1 2 0.0 10.409742 8.592166 10.409742
3470 1 2 0.0 10.409742 8.757404 10.409742
3471 1 2 0.0 10.409742 8.922637 10.409742
3472 1 2 0.0 10.409742 9.087871 10.409742
3473 1 2 0.0 10.409742 9.253105 10.409742
3474 1 2 0.0 10.409742 9.418339 10.409742
3475 1 2 0.0 10.409742 9.583573 10.409742
3476 1 2 0.0 10.409742 9.748807 10.409742
3477 1 2 0.0 10.409742 9.914040 10.409742
3478 1 2 0.0 10.409742 10.079274 10.409742
3479 1 2 0.0 10.409742 10.244508 10.409742
3480 1 2 0.0 13.879656 6.939828 10.574976
3481 1 2 0.0 13.879656 6.939828 10.740210
3482 1 2 0.0 13.879656 6.939828 10.905444
3483 1 2 0.0 13.879656 6.939828 11.070677
3484 1 2 0.0 13.879656 6.939828 11.235911
3485 1 2 0.0 13.879656 6.939828 11.401145
3486 1 2 0.0 13.879656 6.939828 11.566379
3487 1 2 0.0 13.879656 6.939828 11.731613
3488 1 2 0.0 13.879656 6.939828 11.896847
3489 1 2 0.0 13.879656 6.939828 12.062080
3490 1 2 0.0 13.879656 6.939828 12.227318
3491 1 2 0.0 13.879656 6.939828 12.392551
3492 1 2 0.0 13.879656 6.939828 12.557785
3493 1 2 0.0 13.879656 6.939828 12.723019
3494 1 2 0.0 13.879656 6.939828 12.888253
3495 1 2 0.0 13.879656 6.939828 13.053487
3496 1 2 0.0 13.879656 6.939828 13.218721
3497 1 2 0.0 13.879656 6.939828 13.383954
3498 1 2 0.0 13.879656 6.939828 13.549188
3499 1 2 0.0 13.879656 6.939828 13.714422
3500 1 2 0.0 0.165234 10.409742 10.409742
3501 1 2 0.0 0.330468 10.409742 10.409742
3502 1 2 0.0 0.495702 10.409742 10.409742
3503 1 2 0.0 0.660935 10.409742 10.409742
3504 1 2 0.0 0.826169 10.409742 10.409742
3505 1 2 0.0 0.991403 10.409742 10.409742
3506 1 2 0.0 1.156637 10.409742 10.409742
3507 1 2 0.0 1.321871 10.409742 10.409742
3508 1 2 0.0 1.487105 10.409742 10.409742
3509 1 2 0.0 1.652338 10.409742 10.409742
3510 1 2 0.0 1.817576 10.409742 10.409742
3511 1 2 0.0 1.982809 10.409742 10.409742
3512 1 2 0.0 2.148043 10.409742 10.409742
3513 1 2 0.0 2.313277 10.409742 10.409742
3514 1 2 0.0 2.478511 10.409742 10.409742
3515 1 2 0.0 2.643745 10.409742 10.409742
3516 1 2 0.0 2.808979 10.409742 10.409742
3517 1 2 0.0 2.974212 10.409742 10.409742
3518 1 2 0.0 3.139446 10.409742 10.409742
3519 1 2 0.0 3.304680 10.409742 10.409742
3520 1 2 0.0 17.184336 10.409742 10.409742
3521 1 2 0.0 17.019102 10.409742 10.409742
3522 1 2 0.0 16.853868 10.409742 10.409742
3523 1 2 0.0 16.688635 10.409742 10.409742
3524 1 2 0.0 16.523401 10.409742 10.409742
3525 1 2 0.0 16.358167 10.409742 10.409742
3526 1 2 0.0 16.192933 10.409742 10.409742
3527 1 2 0.0 16.027699 10.409742 10.409742
3528 1 2 0.0 15.862465 10.409742 10.409742
3529 1 2 0.0 15.697232 10.409742 10.409742
3530 1 2 0.0 15.531994 10.409742 10.409742
3531 1 2 0.0 15.366761 10.409742 10.409742
3532 1 2 0.0 15.201527 10.409742 10.409742
3533 1 2 0.0 15.036293 10.409742 10.409742
3534 1 2 0.0 14.871059 10.409742 10.409742
3535 1 2 0.0 14.705825 10.409742 10.409742
3536 1 2 0.0 14.540591 10.409742 10.409742
3537 1 2 0.0 14.375358 10.409742 10.409742
3538 1 2 0.0 14.210124 10.409742 10.409742
3539 1 2 0.0 14.044890 10.409742 10.409742
3540 1 2 0.0 3.469914 10.574976 10.409742
3541 1 2 0.0 3.469914 10.740210 10.409742
3542 1 2 0.0 3.469914 10.905444 10.409742
3543 1 2 0.0 3.469914 11.070677 10.409742
3544 1 2 0.0 3.469914 11.235911 10.409742
3545 1 2 0.0 3.469914 11.401145 10.409742
3546 1 2 0.0 3.469914 11.566379 10.409742
3547 1 2 0.0 3.469914 11.731613 10.409742
3548 1 2 0.0 3.469914 11.896847 10.409742
3549 1 2 0.0 3.469914 12.062080 10.409742
3550 1 2 0.0 3.469914 12.227318 10.409742
3551 1 2 0.0 3.469914 12.392551 10.409742
3552 1 2 0.0 3.469914 12.557785 10.409742
3553 1 2 0.0 3.469914 12.723019 10.409742
3554 1 2 0.0 3.469914 12.888253 10.409742
3555 1 2 0.0 3.469914 13.053487 10.409742
3556 1 2 0.0 3.469914 13.218721 10.409742
3557 1 2 0.0 3.469914 13.383954 10.409742
3558 1 2 0.0 3.469914 13.549188 10.409742
3559 1 2 0.0 3.469914 13.714422 10.409742
3560 1 2 0.0 3.469914 10.409742 10.574976
3561 1 2 0.0 3.469914 10.409742 10.740210
3562 1 2 0.0 3.469914 10.409742 10.905444
3563 1 2 0.0 3.469914 10.409742 11.070677
3564 1 2 0.0 3.469914 10.409742 11.235911
3565 1 2 0.0 3.469914 10.409742 11.401145
3566 1 2 0.0 3.469914 10.409742 11.566379
3567 1 2 0.0 3.469914 10.409742 11.731613
3568 1 2 0.0 3.469914 10.409742 11.896847
3569 1 2 0.0 3.469914 10.409742 12.062080
3570 1 2 0.0 3.469914 10.409742 12.227318
3571 1 2 0.0 3.469914 10.409742 12.392551
3572 1 2 0.0 3.469914 10.409742 12.557785
3573 1 2 0.0 3.469914 10.409742 12.723019
3574 1 2 0.0 3.469914 10.409742 12.888253
3575 1 2 0.0 3.469914 10.409742 13.053487
3576 1 2 0.0 3.469914 10.409742 13.218721
3577 1 2 0.0 3.469914 10.409742 13.383954
3578 1 2 0.0 3.469914 10.409742 13.549188
3579 1 2 0.0 3.469914 10.409742 13.714422
3580 1 2 0.0 6.939828 10.409742 10.574976
3581 1 2 0.0 6.939828 10.409742 10.740210
3582 1 2 0.0 6.939828 10.409742 10.905444
3583 1 2 0.0 6.939828 10.409742 11.070677
3584 1 2 0.0 6.939828 10.409742 11.235911
3585 1 2 0.0 6.939828 10.409742 11.401145
3586 1 2 0.0 6.939828 10.409742 11.566379
3587 1 2 0.0 6.939828 10.409742 11.731613
3588 1 2 0.0 6.939828 10.409742 11.896847
3589 1 2 0.0 6.939828 10.409742 12.062080
3590 1 2 0.0 6.939828 10.409742 12.227318
3591 1 2 0.0 6.939828 10.409742 12.392551
3592 1 2 0.0 6.939828 10.409742 12.557785
3593 1 2 0.0 6.939828 10.409742 12.723019
3594 1 2 0.0 6.939828 10.409742 12.888253
3595 1 2 0.0 6.939828 10.409742 13.053487
3596 1 2 0.0 6.939828 10.409742 13.218721
3597 1 2 0.0 6.939828 10.409742 13.383954
3598 1 2 0.0 6.939828 10.409742 13.549188
3599 1 2 0.0 6.939828 10.409742 13.714422
3600 1 2 0.0 10.574976 10.409742 10.409742
3601 1 2 0.0 10.740210 10.409742 10.409742
3602 1 2 0.0 10.905444 10.409742 10.409742
3603 1 2 0.0 11.070677 10.409742 10.409742
3604 1 2 0.0 11.235911 10.409742 10.409742
3605 1 2 0.0 11.401145 10.409742 10.409742
3606 1 2 0.0 11.566379 10.409742 10.409742
3607 1 2 0.0 11.731613 10.409742 10.409742
3608 1 2 0.0 11.896847 10.409742 10.409742
3609 1 2 0.0 12.062080 10.409742 10.409742
3610 1 2 0.0 12.227318 10.409742 10.409742
3611 1 2 0.0 12.392551 10.409742 10.409742
3612 1 2 0.0 12.557785 10.409742 10.409742
3613 1 2 0.0 12.723019 10.409742 10.409742
3614 1 2 0.0 12.888253 10.409742 10.409742
3615 1 2 0.0 13.053487 10.409742 10.409742
3616 1 2 0.0 13.218721 10.409742 10.409742
3617 1 2 0.0 13.383954 10.409742 10.409742
3618 1 2 0.0 13.549188 10.409742 10.409742
3619 1 2 0.0 13.714422 10.409742 10.409742
3620 1 2 0.0 10.409742 10.574976 10.409742
3621 1 2 0.0 10.409742 10.740210 10.409742
3622 1 2 0.0 10.409742 10.905444 10.409742
3623 1 2 0.0 10.409742 11.070677 10.409742
3624 1 2 0.0 10.409742 11.235911 10.409742
3625 1 2 0.0 10.409742 11.401145 10.409742
3626 1 2 0.0 10.409742 11.566379 10.409742
3627 1 2 0.0 10.409742 11.731613 10.409742
3628 1 2 0.0 10.409742 11.896847 10.409742
3629 1 2 0.0 10.409742 12.062080 10.409742
3630 1 2 0.0 10.409742 12.227318 10.409742
3631 1 2 0.0 10.409742 12.392551 10.409742
3632 1 2 0.0 10.409742 12.557785 10.409742
3633 1 2 0.0 10.409742 12.723019 10.409742
3634 1 2 0.0 10.409742 12.888253 10.409742
3635 1 2 0.0 10.409742 13.053487 10.409742
3636 1 2 0.0 10.409742 13.218721 10.409742
3637 1 2 0.0 10.409742 13.383954 10.409742
3638 1 2 0.0 10.409742 13.549188 10.409742
3639 1 2 0.0 10.409742 13.714422 10.409742
3640 1 2 0.0 10.409742 10.409742 10.574976
3641 1 2 0.0 10.409742 10.409742 10.740210
3642 1 2 0.0 10.409742 10.409742 10.905444
3643 1 2 0.0 10.409742 10.409742 11.070677
3644 1 2 0.0 10.409742 10.409742 11.235911
3645 1 2 0.0 10.409742 10.409742 11.401145
3646 1 2 0.0 10.409742 10.409742 11.566379
3647 1 2 0.0 10.409742 10.409742 11.731613
3648 1 2 0.0 10.409742 10.409742 11.896847
3649 1 2 0.0 10.409742 10.409742 12.062080
3650 1 2 0.0 10.409742 10.409742 12.227318
3651 1 2 0.0 10.409742 10.409742 12.392551
3652 1 2 0.0 10.409742 10.409742 12.557785
3653 1 2 0.0 10.409742 10.409742 12.723019
3654 1 2 0.0 10.409742 10.409742 12.888253
3655 1 2 0.0 10.409742 10.409742 13.053487
3656 1 2 0.0 10.409742 10.409742 13.218721
3657 1 2 0.0 10.409742 10.409742 13.383954
3658 1 2 0.0 10.409742 10.409742 13.549188
3659 1 2 0.0 10.409742 10.409742 13.714422
3660 1 2 0.0 10.409742 10.409742 10.574976
3661 1 2 0.0 10.409742 10.409742 10.740210
3662 1 2 0.0 10.409742 10.409742 10.905444
3663 1 2 0.0 10.409742 10.409742 11.070677
3664 1 2 0.0 10.409742 10.409742 11.235911
3665 1 2 0.0 10.409742 10.409742 11.401145
3666 1 2 0.0 10.409742 10.409742 11.566379
3667 1 2 0.0 10.409742 10.409742 11.731613
3668 1 2 0.0 10.409742 10.409742 11.896847
3669 1 2 0.0 10.409742 10.409742 12.062080
3670 1 2 0.0 10.409742 10.409742 12.227318
3671 1 2 0.0 10.409742 10.409742 12.392551
3672 1 2 0.0 10.409742 10.409742 12.557785
3673 1 2 0.0 10.409742 10.409742 12.723019
3674 1 2 0.0 10.409742 10.409742 12.888253
3675 1 2 0.0 10.409742 10.409742 13.053487
3676 1 2 0.0 10.409742 10.409742 13.218721
3677 1 2 0.0 10.409742 10.409742 13.383954
3678 1 2 0.0 10.409742 10.409742 13.549188
3679 1 2 0.0 10.409742 10.409742 13.714422
3680 1 2 0.0 13.879656 10.409742 10.574976
3681 1 2 0.0 13.879656 10.409742 10.740210
3682 1 2 0.0 13.879656 10.409742 10.905444
3683 1 2 0.0 13.879656 10.409742 11.070677
3684 1 2 0.0 13.879656 10.409742 11.235911
3685 1 2 0.0 13.879656 10.409742 11.401145
3686 1 2 0.0 13.879656 10.409742 11.566379
3687 1 2 0.0 13.879656 10.409742 11.731613
3688 1 2 0.0 13.879656 10.409742 11.896847
3689 1 2 0.0 13.879656 10.409742 12.062080
3690 1 2 0.0 13.879656 10.409742 12.227318
3691 1 2 0.0 13.879656 10.409742 12.392551
3692 1 2 0.0 13.879656 10.409742 12.557785
3693 1 2 0.0 13.879656 10.409742 12.723019
3694 1 2 0.0 13.879656 10.409742 12.888253
3695 1 2 0.0 13.879656 10.409742 13.053487
3696 1 2 0.0 13.879656 10.409742 13.218721
3697 1 2 0.0 13.879656 10.409742 13.383954
3698 1 2 0.0 13.879656 10.409742 13.549188
3699 1 2 0.0 13.879656 10.409742 13.714422
3700 1 2 0.0 0.165234 13.879656 10.409742
3701 1 2 0.0 0.330468 13.879656 10.409742
3702 1 2 0.0 0.495702 13.879656 10.409742
3703 1 2 0.0 0.660935 13.879656 10.409742
3704 1 2 0.0 0.826169 13.879656 10.409742
3705 1 2 0.0 0.991403 13.879656 10.409742
3706 1 2 0.0 1.156637 13.879656 10.409742
3707 1 2 0.0 1.321871 13.879656 10.409742
3708 1 2 0.0 1.487105 13.879656 10.409742
3709 1 2 0.0 1.652338 13.879656 10.409742
3710 1 2 0.0 1.817576 13.879656 10.409742
3711 1 2 0.0 1.982809 13.879656 10.409742
3712 1 2 0.0 2.148043 13.879656 10.409742
3713 1 2 0.0 2.313277 13.879656 10.409742
3714 1 2 0.0 2.478511 13.879656 10.409742
3715 1 2 0.0 2.643745 13.879656 10.409742
3716 1 2 0.0 2.808979 13.879656 10.409742
3717 1 2 0.0 2.974212 13.879656 10.409742
3718 1 2 0.0 3.139446 13.879656 10.409742
3719 1 2 0.0 3.304680 13.879656 10.409742
3720 1 2 0.0 0.000000 13.879656 10.574976
3721 1 2 0.0 0.000000 13.879656 10.740210
3722 1 2 0.0 0.000000 13.879656 10.905444
3723 1 2 0.0 0.000000 13.879656 11.070677
3724 1 2 0.0 0.000000 13.879656 11.235911
3725 1 2 0.0 0.000000 13.879656 11.401145
3726 1 2 0.0 0.000000 13.879656 11.566379
3727 1 2 0.0 0.000000 13.879656 11.731613
3728 1 2 0.0 0.000000 13.879656 11.896847
3729 1 2 0.0 0.000000 13.879656 12.062080
3730 1 2 0.0 0.000000 13.879656 12.227318
3731 1 2 0.0 0.000000 13.879656 12.392551
3732 1 2 0.0 0.000000 13.879656 12.557785
3733 1 2 0.0 0.000000 13.879656 12.723019
3734 1 2 0.0 0.000000 13.879656 12.888253
3735 1 2 0.0 0.000000 13.879656 13.053487
3736 1 2 0.0 0.000000 13.879656 13.218721
3737 1 2 0.0 0.000000 13.879656 13.383954
3738 1 2 0.0 0.000000 13.879656 13.549188
3739 1 2 0.0 0.000000 13.879656 13.714422
3740 1 2 0.0 17.184336 13.879656 10.409742
3741 1 2 0.0 17.019102 13.879656 10.409742
3742 1 2 0.0 16.853868 13.879656 10.409742
3743 1 2 0.0 16.688635 13.879656 10.409742
3744 1 2 0.0 16.523401 13.879656 10.409742
3745 1 2 0.0 16.358167 13.879656 10.409742
3746 1 2 0.0 16.192933 13.879656 10.409742
3747 1 2 0.0 16.027699 13.879656 10.409742
3748 1 2 0.0 15.862465 13.879656 10.409742
3749 1 2 0.0 15.697232 13.879656 10.409742
3750 1 2 0.0 15.531994 13.879656 10.409742
3751 1 2 0.0 15.366761 13.879656 10.409742
3752 1 2 0.0 15.201527 13.879656 10.409742
3753 1 2 0.0 15.036293 13.879656 10.409742
3754 1 2 0.0 14.871059 13.879656 10.409742
3755 1 2 0.0 14.705825 13.879656 10.409742
3756 1 2 0.0 14.540591 13.879656 10.409742
3757 1 2 0.0 14.375358 13.879656 10.409742
3758 1 2 0.0 14.210124 13.879656 10.409742
3759 1 2 0.0 14.044890 13.879656 10.409742
3760 1 2 0.0 3.469914 13.879656 10.574976
3761 1 2 0.0 3.469914 13.879656 10.740210
3762 1 2 0.0 3.469914 13.879656 10.905444
3763 1 2 0.0 3.469914 13.879656 11.070677
3764 1 2 0.0 3.469914 13.879656 11.235911
3765 1 2 0.0 3.469914 13.879656 11.401145
3766 1 2 0.0 3.469914 13.879656 11.566379
3767 1 2 0.0 3.469914 13.879656 11.731613
3768 1 2 0.0 3.469914 13.879656 11.896847
3769 1 2 0.0 3.469914 13.879656 12.062080
3770 1 2 0.0 3.469914 13.879656 12.227318
3771 1 2 0.0 3.469914 13.879656 12.392551
3772 1 2 0.0 3.469914 13.879656 12.557785
3773 1 2 0.0 3.469914 13.879656 12.723019
3774 1 2 0.0 3.469914 13.879656 12.888253
3775 1 2 0.0 3.469914 13.879656 13.053487
3776 1 2 0.0 3.469914 13.879656 13.218721
3777 1 2 0.0 3.469914 13.879656 13.383954
3778 1 2 0.0 3.469914 13.879656 13.549188
3779 1 2 0.0 3.469914 13.879656 13.714422
3780 1 2 0.0 7.105062 13.879656 10.409742
3781 1 2 0.0 7.270296 13.879656 10.409742
3782 1 2 0.0 7.435530 13.879656 10.409742
3783 1 2 0.0 7.600763 13.879656 10.409742
3784 1 2 0.0 7.765997 13.879656 10.409742
3785 1 2 0.0 7.931231 13.879656 10.409742
3786 1 2 0.0 8.096465 13.879656 10.409742
3787 1 2 0.0 8.261699 13.879656 10.409742
3788 1 2 0.0 8.426933 13.879656 10.409742
3789 1 2 0.0 8.592166 13.879656 10.409742
3790 1 2 0.0 8.757404 13.879656 10.409742
3791 1 2 0.0 8.922637 13.879656 10.409742
3792 1 2 0.0 9.087871 13.879656 10.409742
3793 1 2 0.0 9.253105 13.879656 10.409742
3794 1 2 0.0 9.418339 13.879656 10.409742
3795 1 2 0.0 9.583573 13.879656 10.409742
3796 1 2 0.0 9.748807 13.879656 10.409742
3797 1 2 0.0 9.914040 13.879656 10.409742
3798 1 2 0.0 10.079274 13.879656 10.409742
3799 1 2 0.0 10.244508 13.879656 10.409742
3800 1 2 0.0 6.939828 13.879656 10.574976
3801 1 2 0.0 6.939828 13.879656 10.740210
3802 1 2 0.0 6.939828 13.879656 10.905444
3803 1 2 0.0 6.939828 13.879656 11.070677
3804 1 2 0.0 6.939828 13.879656 11.235911
3805 1 2 0.0 6.939828 13.879656 11.401145
3806 1 2 0.0 6.939828 13.879656 11.566379
3807 1 2 0.0 6.939828 13.879656 11.731613
3808 1 2 0.0 6.939828 13.879656 11.896847
3809 1 2 0.0 6.939828 13.879656 12.062080
3810 1 2 0.0 6.939828 13.879656 12.227318
3811 1 2 0.0 6.939828 13.879656 12.392551
3812 1 2 0.0 6.939828 13.879656 12.557785
3813 1 2 0.0 6.939828 13.879656 12.723019
3814 1 2 0.0 6.939828 13.879656 12.888253
3815 1 2 0.0 6.939828 13.879656 13.053487
3816 1 2 0.0 6.939828 13.879656 13.218721
3817 1 2 0.0 6.939828 13.879656 13.383954
3818 1 2 0.0 6.939828 13.879656 13.549188
3819 1 2 0.0 6.939828 13.879656 13.714422
3820 1 2 0.0 10.409742 13.879656 10.574976
3821 1 2 0.0 10.409742 13.879656 10.740210
3822 1 2 0.0 10.409742 13.879656 10.905444
3823 1 2 0.0 10.409742 13.879656 11.070677
3824 1 2 0.0 10.409742 13.879656 11.235911
3825 1 2 0.0 10.409742 13.879656 11.401145
3826 1 2 0.0 10.409742 13.879656 11.566379
3827 1 2 0.0 10.409742 13.879656 11.731613
3828 1 2 0.0 10.409742 13.879656 11.896847
3829 1 2 0.0 10.409742 13.879656 12.062080
3830 1 2 0.0 10.409742 13.879656 12.227318
3831 1 2 0.0 10.409742 13.879656 12.392551
3832 1 2 0.0 10.409742 13.879656 12.557785
3833 1 2 0.0 10.409742 13.879656 12.723019
3834 1 2 0.0 10.409742 13.879656 12.888253
3835 1 2 0.0 10.409742 13.879656 13.053487
3836 1 2 0.0 10.409742 13.879656 13.218721
3837 1 2 0.0 10.409742 13.879656 13.383954
3838 1 2 0.0 10.409742 13.879656 13.549188
3839 1 2 0.0 10.409742 13.879656 13.714422
3840 1 2 0.0 0.165234 0.000000 13.879656
3841 1 2 0.0 0.330468 0.000000 13.879656
3842 1 2 0.0 0.495702 0.000000 13.879656
3843 1 2 0.0 0.660935 0.000000 13.879656
3844 1 2 0.0 0.826169 0.000000 13.879656
3845 1 2 0.0 0.991403 0.000000 13.879656
3846 1 2 0.0 1.156637 0.000000 13.879656
3847 1 2 0.0 1.321871 0.000000 13.879656
3848 1 2 0.0 1.487105 0.000000 13.879656
3849 1 2 0.0 1.652338 0.000000 13.879656
3850 1 2 0.0 1.817576 0.000000 13.879656
3851 1 2 0.0 1.982809 0.000000 13.879656
3852 1 2 0.0 2.148043 0.000000 13.879656
3853 1 2 0.0 2.313277 0.000000 13.879656
3854 1 2 0.0 2.478511 0.000000 13.879656
3855 1 2 0.0 2.643745 0.000000 13.879656
3856 1 2 0.0 2.808979 0.000000 13.879656
3857 1 2 0.0 2.974212 0.000000 13.879656
3858 1 2 0.0 3.139446 0.000000 13.879656
3859 1 2 0.0 3.304680 0.000000 13.879656
3860 1 2 0.0 17.184336 0.000000 13.879656
3861 1 2 0.0 17.019102 0.000000 13.879656
3862 1 2 0.0 16.853868 0.000000 13.879656
3863 1 2 0.0 16.688635 0.000000 13.879656
3864 1 2 0.0 16.523401 0.000000 13.879656
3865 1 2 0.0 16.358167 0.000000 13.879656
3866 1 2 0.0 16.192933 0.000000 13.879656
3867 1 2 0.0 16.027699 0.000000 13.879656
3868 1 2 0.0 15.862465 0.000000 13.879656
3869 1 2 0.0 15.697232 0.000000 13.879656
3870 1 2 0.0 15.531994 0.000000 13.879656
3871 1 2 0.0 15.366761 0.000000 13.879656
3872 1 2 0.0 15.201527 0.000000 13.879656
3873 1 2 0.0 15.036293 0.000000 13.879656
3874 1 2 0.0 14.871059 0.000000 13.879656
3875 1 2 0.0 14.705825 0.000000 13.879656
3876 1 2 0.0 14.540591 0.000000 13.879656
3877 1 2 0.0 14.375358 0.000000 13.879656
3878 1 2 0.0 14.210124 0.000000 13.879656
3879 1 2 0.0 14.044890 0.000000 13.879656
3880 1 2 0.0 0.000000 17.184336 13.879656
3881 1 2 0.0 0.000000 17.019102 13.879656
3882 1 2 0.0 0.000000 16.853868 13.879656
3883 1 2 0.0 0.000000 16.688635 13.879656
3884 1 2 0.0 0.000000 16.523401 13.879656
3885 1 2 0.0 0.000000 16.358167 13.879656
3886 1 2 0.0 0.000000 16.192933 13.879656
3887 1 2 0.0 0.000000 16.027699 13.879656
3888 1 2 0.0 0.000000 15.862465 13.879656
3889 1 2 0.0 0.000000 15.697232 13.879656
3890 1 2 0.0 0.000000 15.531994 13.879656
3891 1 2 0.0 0.000000 15.366761 13.879656
3892 1 2 0.0 0.000000 15.201527 13.879656
3893 1 2 0.0 0.000000 15.036293 13.879656
3894 1 2 0.0 0.000000 14.871059 13.879656
3895 1 2 0.0 0.000000 14.705825 13.879656
3896 1 2 0.0 0.000000 14.540591 13.879656
3897 1 2 0.0 0.000000 14.375358 13.879656
3898 1 2 0.0 0.000000 14.210124 13.879656
3899 1 2 0.0 0.000000 14.044890 13.879656
3900 1 2 0.0 3.469914 0.165234 13.879656
3901 1 2 0.0 3.469914 0.330468 13.879656
3902 1 2 0.0 3.469914 0.495702 13.879656
3903 1 2 0.0 3.469914 0.660935 13.879656
3904 1 2 0.0 3.469914 0.826169 13.879656
3905 1 2 0.0 3.469914 0.991403 13.879656
3906 1 2 0.0 3.469914 1.156637 13.879656
3907 1 2 0.0 3.469914 1.321871 13.879656
3908 1 2 0.0 3.469914 1.487105 13.879656
3909 1 2 0.0 3.469914 1.652338 13.879656
3910 1 2 0.0 3.469914 1.817576 13.879656
3911 1 2 0.0 3.469914 1.982809 13.879656
3912 1 2 0.0 3.469914 2.148043 13.879656
3913 1 2 0.0 3.469914 2.313277 13.879656
3914 1 2 0.0 3.469914 2.478511 13.879656
3915 1 2 0.0 3.469914 2.643745 13.879656
3916 1 2 0.0 3.469914 2.808979 13.879656
3917 1 2 0.0 3.469914 2.974212 13.879656
3918 1 2 0.0 3.469914 3.139446 13.879656
3919 1 2 0.0 3.469914 3.304680 13.879656
3920 1 2 0.0 3.469914 17.184336 13.879656
3921 1 2 0.0 3.469914 17.019102 13.879656
3922 1 2 0.0 3.469914 16.853868 13.879656
3923 1 2 0.0 3.469914 16.688635 13.879656
3924 1 2 0.0 3.469914 16.523401 13.879656
3925 1 2 0.0 3.469914 16.358167 13.879656
3926 1 2 0.0 3.469914 16.192933 13.879656
3927 1 2 0.0 3.469914 16.027699 13.879656
3928 1 2 0.0 3.469914 15.862465 13.879656
3929 1 2 0.0 3.469914 15.697232 13.879656
3930 1 2 0.0 3.469914 15.531994 13.879656
3931 1 2 0.0 3.469914 15.366761 13.879656
3932 1 2 0.0 3.469914 15.201527 13.879656
3933 1 2 0.0 3.469914 15.036293 13.879656
3934 1 2 0.0 3.469914 14.871059 13.879656
3935 1 2 0.0 3.469914 14.705825 13.879656
3936 1 2 0.0 3.469914 14.540591 13.879656
3937 1 2 0.0 3.469914 14.375358 13.879656
3938 1 2 0.0 3.469914 14.210124 13.879656
3939 1 2 0.0 3.469914 14.044890 13.879656
3940 1 2 0.0 7.105062 0.000000 13.879656
3941 1 2 0.0 7.270296 0.000000 13.879656
3942 1 2 0.0 7.435530 0.000000 13.879656
3943 1 2 0.0 7.600763 0.000000 13.879656
3944 1 2 0.0 7.765997 0.000000 13.879656
3945 1 2 0.0 7.931231 0.000000 13.879656
3946 1 2 0.0 8.096465 0.000000 13.879656
3947 1 2 0.0 8.261699 0.000000 13.879656
3948 1 2 0.0 8.426933 0.000000 13.879656
3949 1 2 0.0 8.592166 0.000000 13.879656
3950 1 2 0.0 8.757404 0.000000 13.879656
3951 1 2 0.0 8.922637 0.000000 13.879656
3952 1 2 0.0 9.087871 0.000000 13.879656
3953 1 2 0.0 9.253105 0.000000 13.879656
3954 1 2 0.0 9.418339 0.000000 13.879656
3955 1 2 0.0 9.583573 0.000000 13.879656
3956 1 2 0.0 9.748807 0.000000 13.879656
3957 1 2 0.0 9.914040 0.000000 13.879656
3958 1 2 0.0 10.079274 0.000000 13.879656
3959 1 2 0.0 10.244508 0.000000 13.879656
3960 1 2 0.0 6.939828 0.165234 13.879656
3961 1 2 0.0 6.939828 0.330468 13.879656
3962 1 2 0.0 6.939828 0.495702 13.879656
3963 1 2 0.0 6.939828 0.660935 13.879656
3964 1 2 0.0 6.939828 0.826169 13.879656
3965 1 2 0.0 6.939828 0.991403 13.879656
3966 1 2 0.0 6.939828 1.156637 13.879656
3967 1 2 0.0 6.939828 1.321871 13.879656
3968 1 2 0.0 6.939828 1.487105 13.879656
3969 1 2 0.0 6.939828 1.652338 13.879656
3970 1 2 0.0 6.939828 1.817576 13.879656
3971 1 2 0.0 6.939828 1.982809 13.879656
3972 1 2 0.0 6.939828 2.148043 13.879656
3973 1 2 0.0 6.939828 2.313277 13.879656
3974 1 2 0.0 6.939828 2.478511 13.879656
3975 1 2 0.0 6.939828 2.643745 13.879656
3976 1 2 0.0 6.939828 2.808979 13.879656
3977 1 2 0.0 6.939828 2.974212 13.879656
3978 1 2 0.0 6.939828 3.139446 13.879656
3979 1 2 0.0 6.939828 3.304680 13.879656
3980 1 2 0.0 10.574976 0.000000 13.879656
3981 1 2 0.0 10.740210 0.000000 13.879656
3982 1 2 0.0 10.905444 0.000000 13.879656
3983 1 2 0.0 11.070677 0.000000 13.879656
3984 1 2 0.0 11.235911 0.000000 13.879656
3985 1 2 0.0 11.401145 0.000000 13.879656
3986 1 2 0.0 11.566379 0.000000 13.879656
3987 1 2 0.0 11.731613 0.000000 13.879656
3988 1 2 0.0 11.896847 0.000000 13.879656
3989 1 2 0.0 12.062080 0.000000 13.879656
3990 1 2 0.0 12.227318 0.000000 13.879656
3991 1 2 0.0 12.392551 0.000000 13.879656
3992 1 2 0.0 12.557785 0.000000 13.879656
3993 1 2 0.0 12.723019 0.000000 13.879656
3994 1 2 0.0 12.888253 0.000000 13.879656
3995 1 2 0.0 13.053487 0.000000 13.879656
3996 1 2 0.0 13.218721 0.000000 13.879656
3997 1 2 0.0 13.383954 0.000000 13.879656
3998 1 2 0.0 13.549188 0.000000 13.879656
3999 1 2 0.0 13.714422 0.000000 13.879656
4000 1 2 0.0 10.409742 0.165234 13.879656
4001 1 2 0.0 10.409742 0.330468 13.879656
4002 1 2 0.0 10.409742 0.495702 13.879656
4003 1 2 0.0 10.409742 0.660935 13.879656
4004 1 2 0.0 10.409742 0.826169 13.879656
4005 1 2 0.0 10.409742 0.991403 13.879656
4006 1 2 0.0 10.409742 1.156637 13.879656
4007 1 2 0.0 10.409742 1.321871 13.879656
4008 1 2 0.0 10.409742 1.487105 13.879656
4009 1 2 0.0 10.409742 1.652338 13.879656
4010 1 2 0.0 10.409742 1.817576 13.879656
4011 1 2 0.0 10.409742 1.982809 13.879656
4012 1 2 0.0 10.409742 2.148043 13.879656
4013 1 2 0.0 10.409742 2.313277 13.879656
4014 1 2 0.0 10.409742 2.478511 13.879656
4015 1 2 0.0 10.409742 2.643745 13.879656
4016 1 2 0.0 10.409742 2.808979 13.879656
4017 1 2 0.0 10.409742 2.974212 13.879656
4018 1 2 0.0 10.409742 3.139446 13.879656
4019 1 2 0.0 10.409742 3.304680 13.879656
4020 1 2 0.0 13.879656 17.184336 13.879656
4021 1 2 0.0 13.879656 17.019102 13.879656
4022 1 2 0.0 13.879656 16.853868 13.879656
4023 1 2 0.0 13.879656 16.688635 13.879656
4024 1 2 0.0 13.879656 16.523401 13.879656
4025 1 2 0.0 13.879656 16.358167 13.879656
4026 1 2 0.0 13.879656 16.192933 13.879656
4027 1 2 0.0 13.879656 16.027699 13.879656
4028 1 2 0.0 13.879656 15.862465 13.879656
4029 1 2 0.0 13.879656 15.697232 13.879656
4030 1 2 0.0 13.879656 15.531994 13.879656
4031 1 2 0.0 13.879656 15.366761 13.879656
4032 1 2 0.0 13.879656 15.201527 13.879656
4033 1 2 0.0 13.879656 15.036293 13.879656
4034 1 2 0.0 13.879656 14.871059 13.879656
4035 1 2 0.0 13.879656 14.705825 13.879656
4036 1 2 0.0 13.879656 14.540591 13.879656
4037 1 2 0.0 13.879656 14.375358 13.879656
4038 1 2 0.0 13.879656 14.210124 13.879656
4039 1 2 0.0 13.879656 14.044890 13.879656
4040 1 2 0.0 0.000000 3.635148 13.879656
4041 1 2 0.0 0.000000 3.800382 13.879656
4042 1 2 0.0 0.000000 3.965616 13.879656
4043 1 2 0.0 0.000000 4.130849 13.879656
4044 1 2 0.0 0.000000 4.296083 13.879656
4045 1 2 0.0 0.000000 4.461317 13.879656
4046 1 2 0.0 0.000000 4.626551 13.879656
4047 1 2 0.0 0.000000 4.791785 13.879656
4048 1 2 0.0 0.000000 4.957019 13.879656
4049 1 2 0.0 0.000000 5.122252 13.879656
4050 1 2 0.0 0.000000 5.287490 13.879656
4051 1 2 0.0 0.000000 5.452723 13.879656
4052 1 2 0.0 0.000000 5.617957 13.879656
4053 1 2 0.0 0.000000 5.783191 13.879656
4054 1 2 0.0 0.000000 5.948425 13.879656
4055 1 2 0.0 0.000000 6.113659 13.879656
4056 1 2 0.0 0.000000 6.278893 13.879656
4057 1 2 0.0 0.000000 6.444126 13.879656
4058 1 2 0.0 0.000000 6.609360 13.879656
4059 1 2 0.0 0.000000 6.774594 13.879656
4060 1 2 0.0 17.184336 3.469914 13.879656
4061 1 2 0.0 17.019102 3.469914 13.879656
4062 1 2 0.0 16.853868 3.469914 13.879656
4063 1 2 0.0 16.688635 3.469914 13.879656
4064 1 2 0.0 16.523401 3.469914 13.879656
4065 1 2 0.0 16.358167 3.469914 13.879656
4066 1 2 0.0 16.192933 3.469914 13.879656
4067 1 2 0.0 16.027699 3.469914 13.879656
4068 1 2 0.0 15.862465 3.469914 13.879656
4069 1 2 0.0 15.697232 3.469914 13.879656
4070 1 2 0.0 15.531994 3.469914 13.879656
4071 1 2 0.0 15.366761 3.469914 13.879656
4072 1 2 0.0 15.201527 3.469914 13.879656
4073 1 2 0.0 15.036293 3.469914 13.879656
4074 1 2 0.0 14.871059 3.469914 13.879656
4075 1 2 0.0 14.705825 3.469914 13.879656
4076 1 2 0.0 14.540591 3.469914 13.879656
4077 1 2 0.0 14.375358 3.469914 13.879656
4078 1 2 0.0 14.210124 3.469914 13.879656
4079 1 2 0.0 14.044890 3.469914 13.879656
4080 1 2 0.0 3.469914 3.635148 13.879656
4081 1 2 0.0 3.469914 3.800382 13.879656
4082 1 2 0.0 3.469914 3.965616 13.879656
4083 1 2 0.0 3.469914 4.130849 13.879656
4084 1 2 0.0 3.469914 4.296083 13.879656
4085 1 2 0.0 3.469914 4.461317 13.879656
4086 1 2 0.0 3.469914 4.626551 13.879656
4087 1 2 0.0 3.469914 4.791785 13.879656
4088 1 2 0.0 3.469914 4.957019 13.879656
4089 1 2 0.0 3.469914 5.122252 13.879656
4090 1 2 0.0 3.469914 5.287490 13.879656
4091 1 2 0.0 3.469914 5.452723 13.879656
4092 1 2 0.0 3.469914 5.617957 13.879656
4093 1 2 0.0 3.469914 5.783191 13.879656
4094 1 2 0.0 3.469914 5.948425 13.879656
4095 1 2 0.0 3.469914 6.113659 13.879656
4096 1 2 0.0 3.469914 6.278893 13.879656
4097 1 2 0.0 3.469914 6.444126 13.879656
4098 1 2 0.0 3.469914 6.609360 13.879656
4099 1 2 0.0 3.469914 6.774594 13.879656
4100 1 2 0.0 6.939828 3.635148 13.879656
4101 1 2 0.0 6.939828 3.800382 13.879656
4102 1 2 0.0 6.939828 3.965616 13.879656
4103 1 2 0.0 6.939828 4.130849 13.879656
4104 1 2 0.0 6.939828 4.296083 13.879656
4105 1 2 0.0 6.939828 4.461317 13.879656
4106 1 2 0.0 6.939828 4.626551 13.879656
4107 1 2 0.0 6.939828 4.791785 13.879656
4108 1 2 0.0 6.939828 4.957019 13.879656
4109 1 2 0.0 6.939828 5.122252 13.879656
4110 1 2 0.0 6.939828 5.287490 13.879656
4111 1 2 0.0 6.939828 5.452723 13.879656
4112 1 2 0.0 6.939828 5.617957 13.879656
4113 1 2 0.0 6.939828 5.783191 13.879656
4114 1 2 0.0 6.939828 5.948425 13.879656
4115 1 2 0.0 6.939828 6.113659 13.879656
4116 1 2 0.0 6.939828 6.278893 13.879656
4117 1 2 0.0 6.939828 6.444126 13.879656
4118 1 2 0.0 6.939828 6.609360 13.879656
4119 1 2 0.0 6.939828 6.774594 13.879656
4120 1 2 0.0 10.409742 3.635148 13.879656
4121 1 2 0.0 10.409742 3.800382 13.879656
4122 1 2 0.0 10.409742 3.965616 13.879656
4123 1 2 0.0 10.409742 4.130849 13.879656
4124 1 2 0.0 10.409742 4.296083 13.879656
4125 1 2 0.0 10.409742 4.461317 13.879656
4126 1 2 0.0 10.409742 4.626551 13.879656
4127 1 2 0.0 10.409742 4.791785 13.879656
4128 1 2 0.0 10.409742 4.957019 13.879656
4129 1 2 0.0 10.409742 5.122252 13.879656
4130 1 2 0.0 10.409742 5.287490 13.879656
4131 1 2 0.0 10.409742 5.452723 13.879656
4132 1 2 0.0 10.409742 5.617957 13.879656
4133 1 2 0.0 10.409742 5.783191 13.879656
4134 1 2 0.0 10.409742 5.948425 13.879656
4135 1 2 0.0 10.409742 6.113659 13.879656
4136 1 2 0.0 10.409742 6.278893 13.879656
4137 1 2 0.0 10.409742 6.444126 13.879656
4138 1 2 0.0 10.409742 6.609360 13.879656
4139 1 2 0.0 10.409742 6.774594 13.879656
4140 1 2 0.0 13.879656 3.635148 13.879656
4141 1 2 0.0 13.879656 3.800382 13.879656
4142 1 2 0.0 13.879656 3.965616 13.879656
4143 1 2 0.0 13.879656 4.130849 13.879656
4144 1 2 0.0 13.879656 4.296083 13.879656
4145 1 2 0.0 13.879656 4.461317 13.879656
4146 1 2 0.0 13.879656 4.626551 13.879656
4147 1 2 0.0 13.879656 4.791785 13.879656
4148 1 2 0.0 13.879656 4.957019 13.879656
4149 1 2 0.0 13.879656 5.122252 13.879656
4150 1 2 0.0 13.879656 5.287490 13.879656
4151 1 2 0.0 13.879656 5.452723 13.879656
4152 1 2 0.0 13.879656 5.617957 13.879656
4153 1 2 0.0 13.879656 5.783191 13.879656
4154 1 2 0.0 13.879656 5.948425 13.879656
4155 1 2 0.0 13.879656 6.113659 13.879656
4156 1 2 0.0 13.879656 6.278893 13.879656
4157 1 2 0.0 13.879656 6.444126 13.879656
4158 1 2 0.0 13.879656 6.609360 13.879656
4159 1 2 0.0 13.879656 6.774594 13.879656
4160 1 2 0.0 0.165234 6.939828 13.879656
4161 1 2 0.0 0.330468 6.939828 13.879656
4162 1 2 0.0 0.495702 6.939828 13.879656
4163 1 2 0.0 0.660935 6.939828 13.879656
4164 1 2 0.0 0.826169 6.939828 13.879656
4165 1 2 0.0 0.991403 6.939828 13.879656
4166 1 2 0.0 1.156637 6.939828 13.879656
4167 1 2 0.0 1.321871 6.939828 13.879656
4168 1 2 0.0 1.487105 6.939828 13.879656
4169 1 2 0.0 1.652338 6.939828 13.879656
4170 1 2 0.0 1.817576 6.939828 13.879656
4171 1 2 0.0 1.982809 6.939828 13.879656
4172 1 2 0.0 2.148043 6.939828 13.879656
4173 1 2 0.0 2.313277 6.939828 13.879656
4174 1 2 0.0 2.478511 6.939828 13.879656
4175 1 2 0.0 2.643745 6.939828 13.879656
4176 1 2 0.0 2.808979 6.939828 13.879656
4177 1 2 0.0 2.974212 6.939828 13.879656
4178 1 2 0.0 3.139446 6.939828 13.879656
4179 1 2 0.0 3.304680 6.939828 13.879656
4180 1 2 0.0 0.000000 7.105062 13.879656
4181 1 2 0.0 0.000000 7.270296 13.879656
4182 1 2 0.0 0.000000 7.435530 13.879656
4183 1 2 0.0 0.000000 7.600763 13.879656
4184 1 2 0.0 0.000000 7.765997 13.879656
4185 1 2 0.0 0.000000 7.931231 13.879656
4186 1 2 0.0 0.000000 8.096465 13.879656
4187 1 2 0.0 0.000000 8.261699 13.879656
4188 1 2 0.0 0.000000 8.426933 13.879656
4189 1 2 0.0 0.000000 8.592166 13.879656
4190 1 2 0.0 0.000000 8.757404 13.879656
4191 1 2 0.0 0.000000 8.922637 13.879656
4192 1 2 0.0 0.000000 9.087871 13.879656
4193 1 2 0.0 0.000000 9.253105 13.879656
4194 1 2 0.0 0.000000 9.418339 13.879656
4195 1 2 0.0 0.000000 9.583573 13.879656
4196 1 2 0.0 0.000000 9.748807 13.879656
4197 1 2 0.0 0.000000 9.914040 13.879656
4198 1 2 0.0 0.000000 10.079274 13.879656
4199 1 2 0.0 0.000000 10.244508 13.879656
4200 1 2 0.0 3.635148 6.939828 13.879656
4201 1 2 0.0 3.800382 6.939828 13.879656
4202 1 2 0.0 3.965616 6.939828 13.879656
4203 1 2 0.0 4.130849 6.939828 13.879656
4204 1 2 0.0 4.296083 6.939828 13.879656
4205 1 2 0.0 4.461317 6.939828 13.879656
4206 1 2 0.0 4.626551 6.939828 13.879656
4207 1 2 0.0 4.791785 6.939828 13.879656
4208 1 2 0.0 4.957019 6.939828 13.879656
4209 1 2 0.0 5.122252 6.939828 13.879656
4210 1 2 0.0 5.287490 6.939828 13.879656
4211 1 2 0.0 5.452723 6.939828 13.879656
4212 1 2 0.0 5.617957 6.939828 13.879656
4213 1 2 0.0 5.783191 6.939828 13.879656
4214 1 2 0.0 5.948425 6.939828 13.879656
4215 1 2 0.0 6.113659 6.939828 13.879656
4216 1 2 0.0 6.278893 6.939828 13.879656
4217 1 2 0.0 6.444126 6.939828 13.879656
4218 1 2 0.0 6.609360 6.939828 13.879656
4219 1 2 0.0 6.774594 6.939828 13.879656
4220 1 2 0.0 6.939828 7.105062 13.879656
4221 1 2 0.0 6.939828 7.270296 13.879656
4222 1 2 0.0 6.939828 7.435530 13.879656
4223 1 2 0.0 6.939828 7.600763 13.879656
4224 1 2 0.0 6.939828 7.765997 13.879656
4225 1 2 0.0 6.939828 7.931231 13.879656
4226 1 2 0.0 6.939828 8.096465 13.879656
4227 1 2 0.0 6.939828 8.261699 13.879656
4228 1 2 0.0 6.939828 8.426933 13.879656
4229 1 2 0.0 6.939828 8.592166 13.879656
4230 1 2 0.0 6.939828 8.757404 13.879656
4231 1 2 0.0 6.939828 8.922637 13.879656
4232 1 2 0.0 6.939828 9.087871 13.879656
4233 1 2 0.0 6.939828 9.253105 13.879656
4234 1 2 0.0 6.939828 9.418339 13.879656
4235 1 2 0.0 6.939828 9.583573 13.879656
4236 1 2 0.0 6.939828 9.748807 13.879656
4237 1 2 0.0 6.939828 9.914040 13.879656
4238 1 2 0.0 6.939828 10.079274 13.879656
4239 1 2 0.0 6.939828 10.244508 13.879656
4240 1 2 0.0 10.574976 6.939828 13.879656
4241 1 2 0.0 10.740210 6.939828 13.879656
4242 1 2 0.0 10.905444 6.939828 13.879656
4243 1 2 0.0 11.070677 6.939828 13.879656
4244 1 2 0.0 11.235911 6.939828 13.879656
4245 1 2 0.0 11.401145 6.939828 13.879656
4246 1 2 0.0 11.566379 6.939828 13.879656
4247 1 2 0.0 11.731613 6.939828 13.879656
4248 1 2 0.0 11.896847 6.939828 13.879656
4249 1 2 0.0 12.062080 6.939828 13.879656
4250 1 2 0.0 12.227318 6.939828 13.879656
4251 1 2 0.0 12.392551 6.939828 13.879656
4252 1 2 0.0 12.557785 6.939828 13.879656
4253 1 2 0.0 12.723019 6.939828 13.879656
4254 1 2 0.0 12.888253 6.939828 13.879656
4255 1 2 0.0 13.053487 6.939828 13.879656
4256 1 2 0.0 13.218721 6.939828 13.879656
4257 1 2 0.0 13.383954 6.939828 13.879656
4258 1 2 0.0 13.549188 6.939828 13.879656
4259 1 2 0.0 13.714422 6.939828 13.879656
4260 1 2 0.0 10.409742 7.105062 13.879656
4261 1 2 0.0 10.409742 7.270296 13.879656
4262 1 2 0.0 10.409742 7.435530 13.879656
4263 1 2 0.0 10.409742 7.600763 13.879656
4264 1 2 0.0 10.409742 7.765997 13.879656
4265 1 2 0.0 10.409742 7.931231 13.879656
4266 1 2 0.0 10.409742 8.096465 13.879656
4267 1 2 0.0 10.409742 8.261699 13.879656
4268 1 2 0.0 10.409742 8.426933 13.879656
4269 1 2 0.0 10.409742 8.592166 13.879656
4270 1 2 0.0 10.409742 8.757404 13.879656
4271 1 2 0.0 10.409742 8.922637 13.879656
4272 1 2 0.0 10.409742 9.087871 13.879656
4273 1 2 0.0 10.409742 9.253105 13.879656
4274 1 2 0.0 10.409742 9.418339 13.879656
4275 1 2 0.0 10.409742 9.583573 13.879656
4276 1 2 0.0 10.409742 9.748807 13.879656
4277 1 2 0.0 10.409742 9.914040 13.879656
4278 1 2 0.0 10.409742 10.079274 13.879656
4279 1 2 0.0 10.409742 10.244508 13.879656
4280 1 2 0.0 13.879656 7.105062 13.879656
4281 1 2 0.0 13.879656 7.270296 13.879656
4282 1 2 0.0 13.879656 7.435530 13.879656
4283 1 2 0.0 13.879656 7.600763 13.879656
4284 1 2 0.0 13.879656 7.765997 13.879656
4285 1 2 0.0 13.879656 7.931231 13.879656
4286 1 2 0.0 13.879656 8.096465 13.879656
4287 1 2 0.0 13.879656 8.261699 13.879656
4288 1 2 0.0 13.879656 8.426933 13.879656
4289 1 2 0.0 13.879656 8.592166 13.879656
4290 1 2 0.0 13.879656 8.757404 13.879656
4291 1 2 0.0 13.879656 8.922637 13.879656
4292 1 2 0.0 13.879656 9.087871 13.879656
4293 1 2 0.0 13.879656 9.253105 13.879656
4294 1 2 0.0 13.879656 9.418339 13.879656
4295 1 2 0.0 13.879656 9.583573 13.879656
4296 1 2 0.0 13.879656 9.748807 13.879656
4297 1 2 0.0 13.879656 9.914040 13.879656
4298 1 2 0.0 13.879656 10.079274 13.879656
4299 1 2 0.0 13.879656 10.244508 13.879656
4300 1 2 0.0 3.635148 10.409742 13.879656
4301 1 2 0.0 3.800382 10.409742 13.879656
4302 1 2 0.0 3.965616 10.409742 13.879656
4303 1 2 0.0 4.130849 10.409742 13.879656
4304 1 2 0.0 4.296083 10.409742 13.879656
4305 1 2 0.0 4.461317 10.409742 13.879656
4306 1 2 0.0 4.626551 10.409742 13.879656
4307 1 2 0.0 4.791785 10.409742 13.879656
4308 1 2 0.0 4.957019 10.409742 13.879656
4309 1 2 0.0 5.122252 10.409742 13.879656
4310 1 2 0.0 5.287490 10.409742 13.879656
4311 1 2 0.0 5.452723 10.409742 13.879656
4312 1 2 0.0 5.617957 10.409742 13.879656
4313 1 2 0.0 5.783191 10.409742 13.879656
4314 1 2 0.0 5.948425 10.409742 13.879656
4315 1 2 0.0 6.113659 10.409742 13.879656
4316 1 2 0.0 6.278893 10.409742 13.879656
4317 1 2 0.0 6.444126 10.409742 13.879656
4318 1 2 0.0 6.609360 10.409742 13.879656
4319 1 2 0.0 6.774594 10.409742 13.879656
4320 1 2 0.0 3.469914 10.574976 13.879656
4321 1 2 0.0 3.469914 10.740210 13.879656
4322 1 2 0.0 3.469914 10.905444 13.879656
4323 1 2 0.0 3.469914 11.070677 13.879656
4324 1 2 0.0 3.469914 11.235911 13.879656
4325 1 2 0.0 3.469914 11.401145 13.879656
4326 1 2 0.0 3.469914 11.566379 13.879656
4327 1 2 0.0 3.469914 11.731613 13.879656
4328 1 2 0.0 3.469914 11.896847 13.879656
4329 1 2 0.0 3.469914 12.062080 13.879656
4330 1 2 0.0 3.469914 12.227318 13.879656
4331 1 2 0.0 3.469914 12.392551 13.879656
4332 1 2 0.0 3.469914 12.557785 13.879656
4333 1 2 0.0 3.469914 12.723019 13.879656
4334 1 2 0.0 3.469914 12.888253 13.879656
4335 1 2 0.0 3.469914 13.053487 13.879656
4336 1 2 0.0 3.469914 13.218721 13.879656
4337 1 2 0.0 3.469914 13.383954 13.879656
4338 1 2 0.0 3.469914 13.549188 13.879656
4339 1 2 0.0 3.469914 13.714422 13.879656
4340 1 2 0.0 6.939828 10.574976 13.879656
4341 1 2 0.0 6.939828 10.740210 13.879656
4342 1 2 0.0 6.939828 10.905444 13.879656
4343 1 2 0.0 6.939828 11.070677 13.879656
4344 1 2 0.0 6.939828 11.235911 13.879656
4345 1 2 0.0 6.939828 11.401145 13.879656
4346 1 2 0.0 6.939828 11.566379 13.879656
4347 1 2 0.0 6.939828 11.731613 13.879656
4348 1 2 0.0 6.939828 11.896847 13.879656
4349 1 2 0.0 6.939828 12.062080 13.879656
4350 1 2 0.0 6.939828 12.227318 13.879656
4351 1 2 0.0 6.939828 12.392551 13.879656
4352 1 2 0.0 6.939828 12.557785 13.879656
4353 1 2 0.0 6.939828 12.723019 13.879656
4354 1 2 0.0 6.939828 12.888253 13.879656
4355 1 2 0.0 6.939828 13.053487 13.879656
4356 1 2 0.0 6.939828 13.218721 13.879656
4357 1 2 0.0 6.939828 13.383954 13.879656
4358 1 2 0.0 6.939828 13.549188 13.879656
4359 1 2 0.0 6.939828 13.714422 13.879656
4360 1 2 0.0 10.409742 10.574976 13.879656
4361 1 2 0.0 10.409742 10.740210 13.879656
4362 1 2 0.0 10.409742 10.905444 13.879656
4363 1 2 0.0 10.409742 11.070677 13.879656
4364 1 2 0.0 10.409742 11.235911 13.879656
4365 1 2 0.0 10.409742 11.401145 13.879656
4366 1 2 0.0 10.409742 11.566379 13.879656
4367 1 2 0.0 10.409742 11.731613 13.879656
4368 1 2 0.0 10.409742 11.896847 13.879656
4369 1 2 0.0 10.409742 12.062080 13.879656
4370 1 2 0.0 10.409742 12.227318 13.879656
4371 1 2 0.0 10.409742 12.392551 13.879656
4372 1 2 0.0 10.409742 12.557785 13.879656
4373 1 2 0.0 10.409742 12.723019 13.879656
4374 1 2 0.0 10.409742 12.888253 13.879656
4375 1 2 0.0 10.409742 13.053487 13.879656
4376 1 2 0.0 10.409742 13.218721 13.879656
4377 1 2 0.0 10.409742 13.383954 13.879656
4378 1 2 0.0 10.409742 13.549188 13.879656
4379 1 2 0.0 10.409742 13.714422 13.879656
4380 1 2 0.0 0.165234 13.879656 13.879656
4381 1 2 0.0 0.330468 13.879656 13.879656
4382 1 2 0.0 0.495702 13.879656 13.879656
4383 1 2 0.0 0.660935 13.879656 13.879656
4384 1 2 0.0 0.826169 13.879656 13.879656
4385 1 2 0.0 0.991403 13.879656 13.879656
4386 1 2 0.0 1.156637 13.879656 13.879656
4387 1 2 0.0 1.321871 13.879656 13.879656
4388 1 2 0.0 1.487105 13.879656 13.879656
4389 1 2 0.0 1.652338 13.879656 13.879656
4390 1 2 0.0 1.817576 13.879656 13.879656
4391 1 2 0.0 1.982809 13.879656 13.879656
4392 1 2 0.0 2.148043 13.879656 13.879656
4393 1 2 0.0 2.313277 13.879656 13.879656
4394 1 2 0.0 2.478511 13.879656 13.879656
4395 1 2 0.0 2.643745 13.879656 13.879656
4396 1 2 0.0 2.808979 13.879656 13.879656
4397 1 2 0.0 2.974212 13.879656 13.879656
4398 1 2 0.0 3.139446 13.879656 13.879656
4399 1 2 0.0 3.304680 13.879656 13.879656
4400 1 2 0.0 7.105062 13.879656 13.879656
4401 1 2 0.0 7.270296 13.879656 13.879656
4402 1 2 0.0 7.435530 13.879656 13.879656
4403 1 2 0.0 7.600763 13.879656 13.879656
4404 1 2 0.0 7.765997 13.879656 13.879656
4405 1 2 0.0 7.931231 13.879656 13.879656
4406 1 2 0.0 8.096465 13.879656 13.879656
4407 1 2 0.0 8.261699 13.879656 13.879656
4408 1 2 0.0 8.426933 13.879656 13.879656
4409 1 2 0.0 8.592166 13.879656 13.879656
4410 1 2 0.0 8.757404 13.879656 13.879656
4411 1 2 0.0 8.922637 13.879656 13.879656
4412 1 2 0.0 9.087871 13.879656 13.879656
4413 1 2 0.0 9.253105 13.879656 13.879656
4414 1 2 0.0 9.418339 13.879656 13.879656
4415 1 2 0.0 9.583573 13.879656 13.879656
4416 1 2 0.0 9.748807 13.879656 13.879656
4417 1 2 0.0 9.914040 13.879656 13.879656
4418 1 2 0.0 10.079274 13.879656 13.879656
4419 1 2 0.0 10.244508 13.879656 13.879656
4420 1 2 0.0 10.574976 13.879656 13.879656
4421 1 2 0.0 10.740210 13.879656 13.879656
4422 1 2 0.0 10.905444 13.879656 13.879656
4423 1 2 0.0 11.070677 13.879656 13.879656
4424 1 2 0.0 11.235911 13.879656 13.879656
4425 1 2 0.0 11.401145 13.879656 13.879656
4426 1 2 0.0 11.566379 13.879656 13.879656
4427 1 2 0.0 11.731613 13.879656 13.879656
4428 1 2 0.0 11.896847 13.879656 13.879656
4429 1 2 0.0 12.062080 13.879656 13.879656
4430 1 2 0.0 12.227318 13.879656 13.879656
4431 1 2 0.0 12.392551 13.879656 13.879656
4432 1 2 0.0 12.557785 13.879656 13.879656
4433 1 2 0.0 12.723019 13.879656 13.879656
4434 1 2 0.0 12.888253 13.879656 13.879656
4435 1 2 0.0 13.053487 13.879656 13.879656
4436 1 2 0.0 13.218721 13.879656 13.879656
4437 1 2 0.0 13.383954 13.879656 13.879656
4438 1 2 0.0 13.549188 13.879656 13.879656
4439 1 2 0.0 13.714422 13.879656 13.879656

Bonds

1 1 17 18
2 1 17 19
3 1 17 20
4 1 49 50
5 1 49 51
6 1 49 52
7 1 55 56
8 1 55 57
9 1 55 58
10 1 78 79
11 1 78 80
12 1 78 81
13 1 84 85
14 1 84 86
15 1 84 87
16 1 127 128
17 1 127 129
18 1 127 130
19 1 140 141
20 1 141 142
21 1 142 143
22 1 143 144
23 1 144 145
24 1 145 146
25 1 146 147
26 1 147 148
27 1 148 149
28 1 149 150
29 1 150 151
30 1 151 152
31 1 152 153
32 1 153 154
33 1 154 155
34 1 155 156
35 1 156 157
36 1 157 158
37 1 158 159
38 1 1 140
39 1 159 6
40 1 160 161
41 1 161 162
42 1 162 163
43 1 163 164
44 1 164 165
45 1 165 166
46 1 166 167
47 1 167 168
48 1 168 169
49 1 169 170
50 1 170 171
51 1 171 172
52 1 172 173
53 1 173 174
54 1 174 175
55 1 175 176
56 1 176 177
57 1 177 178
58 1 178 179
59 1 1 160
60 1 179 5
61 1 180 181
62 1 181 182
63 1 182 183
64 1 183 184
65 1 184 185
66 1 185 186
67 1 186 187
68 1 187 188
69 1 188 189
70 1 189 190
71 1 190 191
72 1 191 192
73 1 192 193
74 1 193 194
75 1 194 195
76 1 195 196
77 1 196 197
78 1 197 198
79 1 198 199
80 1 1 180
81 1 199 23
82 1 200 201
83 1 201 202
84 1 202 203
85 1 203 204
86 1 204 205
87 1 205 206
88 1 206 207
89 1 207 208
90 1 208 209
91 1 209 210
92 1 210 211
93 1 211 212
94 1 212 213
95 1 213 214
96 1 214 215
97 1 215 216
98 1 216 217
99 1 217 218
100 1 218 219
101 1 2 200
102 1 219 3
103 1 220 221
104 1 221 222
105 1 222 223
106 1 223 224
107 1 224 225
108 1 225 226
109 1 226 227
110 1 227 228
111 1 228 229
112 1 229 230
113 1 230 231
114 1 231 232
115 1 232 233
116 1 233 234
117 1 234 235
118 1 235 236
119 1 236 237
120 1 237 238
121 1 238 239
122 1 2 220
123 1 239 29
124 1 240 241
125 1 241 242
126 1 242 243
127 1 243 244
128 1 244 245
129 1 245 246
130 1 246 247
131 1 247 248
132 1 248 249
133 1 249 250
134 1 250 251
135 1 251 252
136 1 252 253
137 1 253 254
138 1 254 255
139 1 255 256
140 1 256 257
141 1 257 258
142 1 258 259
143 1 2 240
144 1 259 24
145 1 260 261
146 1 261 262
147 1 262 263
148 1 263 264
149 1 264 265
150 1 265 266
151 1 266 267
152 1 267 268
153 1 268 269
154 1 269 270
155 1 270 271
156 1 271 272
157 1 272 273
158 1 273 274
159 1 274 275
160 1 275 276
161 1 276 277
162 1 277 278
163 1 278 279
164 1 3 260
165 1 279 4
166 1 280 281
167 1 281 282
168 1 282 283
169 1 283 284
170 1 284 285
171 1 285 286
172 1 286 287
173 1 287 288
174 1 288 289
175 1 289 290
176 1 290 291
177 1 291 292
178 1 292 293
179 1 293 294
180 1 294 295
181 1 295 296
182 1 296 297
183 1 297 298
184 1 298 299
185 1 3 280
186 1 299 30
187 1 300 301
188 1 301 302
189 1 302 303
190 1 303 304
191 1 304 305
192 1 305 306
193 1 306 307
194 1 307 308
195 1 308 309
196 1 309 310
197 1 310 311
198 1 311 312
199 1 312 313
200 1 313 314
201 1 314 315
202 1 315 316
203 1 316 317
204 1 317 318
205 1 318 319
206 1 3 300
207 1 319 25
208 1 320 321
209 1 321 322
210 1 322 323
211 1 323 324
212 1 324 325
213 1 325 326
214 1 326 327
215 1 327 328
216 1 328 329
217 1 329 330
218 1 330 331
219 1 331 332
220 1 332 333
221 1 333 334
222 1 334 335
223 1 335 336
224 1 336 337
225 1 337 338
226 1 338 339
227 1 4 320
228 1 339 5
229 1 340 341
230 1 341 342
231 1 342 343
232 1 343 344
233 1 344 345
234 1 345 346
235 1 346 347
236 1 347 348
237 1 348 349
238 1 349 350
239 1 350 351
240 1 351 352
241 1 352 353
242 1 353 354
243 1 354 355
244 1 355 356
245 1 356 357
246 1 357 358
247 1 358 359
248 1 4 340
249 1 359 8
250 1 360 361
251 1 361 362
252 1 362 363
253 1 363 364
254 1 364 365
255 1 365 366
256 1 366 367
257 1 367 368
258 1 368 369
259 1 369 370
260 1 370 371
261 1 371 372
262 1 372 373
263 1 373 374
264 1 374 375
265 1 375 376
266 1 376 377
267 1 377 378
268 1 378 379
269 1 4 360
270 1 379 31
271 1 380 381
272 1 381 382
273 1 382 383
274 1 383 384
275 1 384 385
276 1 385 386
277 1 386 387
278 1 387 388
279 1 388 389
280 1 389 390
281 1 390 391
282 1 391 392
283 1 392 393
284 1 393 394
285 1 394 395
286 1 395 396
287 1 396 397
288 1 397 398
289 1 398 399
290 1 5 380
291 1 399 9
292 1 400 401
293 1 401 402
294 1 402 403
295 1 403 404
296 1 404 405
297 1 405 406
298 1 406 407
299 1 407 408
300 1 408 409
301 1 409 410
302 1 410 411
303 1 411 412
304 1 412 413
305 1 413 414
306 1 414 415
307 1 415 416
308 1 416 417
309 1 417 418
310 1 418 419
311 1 5 400
312 1 419 32
313 1 420 421
314 1 421 422
315 1 422 423
316 1 423 424
317 1 424 425
318 1 425 426
319 1 426 427
320 1 427 428
321 1 428 429
322 1 429 430
323 1 430 431
324 1 431 432
325 1 432 433
326 1 433 434
327 1 434 435
328 1 435 436
329 1 436 437
330 1 437 438
331 1 438 439
332 1 6 420
333 1 439 33
334 1 440 441
335 1 441 442
336 1 442 443
337 1 443 444
338 1 444 445
339 1 445 446
340 1 446 447
341 1 447 448
342 1 448 449
343 1 449 450
344 1 450 451
345 1 451 452
346 1 452 453
347 1 453 454
348 1 454 455
349 1 455 456
350 1 456 457
351 1 457 458
352 1 458 459
353 1 6 440
354 1 459 9
355 1 460 461
356 1 461 462
357 1 462 463
358 1 463 464
359 1 464 465
360 1 465 466
361 1 466 467
362 1 467 468
363 1 468 469
364 1 469 470
365 1 470 471
366 1 471 472
367 1 472 473
368 1 473 474
369 1 474 475
370 1 475 476
371 1 476 477
372 1 477 478
373 1 478 479
374 1 6 460
375 1 479 117
376 1 480 481
377 1 481 482
378 1 482 483
379 1 483 484
380 1 484 485
381 1 485 486
382 1 486 487
383 1 487 488
384 1 488 489
385 1 489 490
386 1 490 491
387 1 491 492
388 1 492 493
389 1 493 494
390 1 494 495
391 1 495 496
392 1 496 497
393 1 497 498
394 1 498 499
395 1 7 480
396 1 499 8
397 1 500 501
398 1 501 502
399 1 502 503
400 1 503 504
401 1 504 505
402 1 505 506
403 1 506 507
404 1 507 508
405 1 508 509
406 1 509 510
407 1 510 511
408 1 511 512
409 1 512 513
410 1 513 514
411 1 514 515
412 1 515 516
413 1 516 517
414 1 517 518
415 1 518 519
416 1 7 500
417 1 519 12
418 1 520 521
419 1 521 522
420 1 522 523
421 1 523 524
422 1 524 525
423 1 525 526
424 1 526 527
425 1 527 528
426 1 528 529
427 1 529 530
428 1 530 531
429 1 531 532
430 1 532 533
431 1 533 534
432 1 534 535
433 1 535 536
434 1 536 537
435 1 537 538
436 1 538 539
437 1 7 520
438 1 539 35
439 1 540 541
440 1 541 542
441 1 542 543
442 1 543 544
443 1 544 545
444 1 545 546
445 1 546 547
446 1 547 548
447 1 548 549
448 1 549 550
449 1 550 551
450 1 551 552
451 1 552 553
452 1 553 554
453 1 554 555
454 1 555 556
455 1 556 557
456 1 557 558
457 1 558 559
458 1 7 540
459 1 559 119
460 1 560 561
461 1 561 562
462 1 562 563
463 1 563 564
464 1 564 565
465 1 565 566
466 1 566 567
467 1 567 568
468 1 568 569
469 1 569 570
470 1 570 571
471 1 571 572
472 1 572 573
473 1 573 574
474 1 574 575
475 1 575 576
476 1 576 577
477 1 577 578
478 1 578 579
479 1 8 560
480 1 579 9
481 1 580 581
482 1 581 582
483 1 582 583
484 1 583 584
485 1 584 585
486 1 585 586
487 1 586 587
488 1 587 588
489 1 588 589
490 1 589 590
491 1 590 591
492 1 591 592
493 1 592 593
494 1 593 594
495 1 594 595
496 1 595 596
497 1 596 597
498 1 597 598
499 1 598 599
500 1 8 580
501 1 599 120
502 1 600 601
503 1 601 602
504 1 602 603
505 1 603 604
506 1 604 605
507 1 605 606
508 1 606 607
509 1 607 608
510 1 608 609
511 1 609 610
512 1 610 611
513 1 611 612
514 1 612 613
515 1 613 614
516 1 614 615
517 1 615 616
518 1 616 617
519 1 617 618
520 1 618 619
521 1 9 600
522 1 619 37
523 1 620 621
524 1 621 622
525 1 622 623
526 1 623 624
527 1 624 625
528 1 625 626
529 1 626 627
530 1 627 628
531 1 628 629
532 1 629 630
533 1 630 631
534 1 631 632
535 1 632 633
536 1 633 634
537 1 634 635
538 1 635 636
539 1 636 637
540 1 637 638
541 1 638 639
542 1 10 620
543 1 639 15
544 1 640 641
545 1 641 642
546 1 642 643
547 1 643 644
548 1 644 645
549 1 645 646
550 1 646 647
551 1 647 648
552 1 648 649
553 1 649 650
554 1 650 651
555 1 651 652
556 1 652 653
557 1 653 654
558 1 654 655
559 1 655 656
560 1 656 657
561 1 657 658
562 1 658 659
563 1 10 640
564 1 659 38
565 1 660 661
566 1 661 662
567 1 662 663
568 1 663 664
569 1 664 665
570 1 665 666
571 1 666 667
572 1 667 668
573 1 668 669
574 1 669 670
575 1 670 671
576 1 671 672
577 1 672 673
578 1 673 674
579 1 674 675
580 1 675 676
581 1 676 677
582 1 677 678
583 1 678 679
584 1 10 660
585 1 679 14
586 1 680 681
587 1 681 682
588 1 682 683
589 1 683 684
590 1 684 685
591 1 685 686
592 1 686 687
593 1 687 688
594 1 688 689
595 1 689 690
596 1 690 691
597 1 691 692
598 1 692 693
599 1 693 694
600 1 694 695
601 1 695 696
602 1 696 697
603 1 697 698
604 1 698 699
605 1 11 680
606 1 699 12
607 1 700 701
608 1 701 702
609 1 702 703
610 1 703 704
611 1 704 705
612 1 705 706
613 1 706 707
614 1 707 708
615 1 708 709
616 1 709 710
617 1 710 711
618 1 711 712
619 1 712 713
620 1 713 714
621 1 714 715
622 1 715 716
623 1 716 717
624 1 717 718
625 1 718 719
626 1 11 700
627 1 719 16
628 1 720 721
629 1 721 722
630 1 722 723
631 1 723 724
632 1 724 725
633 1 725 726
634 1 726 727
635 1 727 728
636 1 728 729
637 1 729 730
638 1 730 731
639 1 731 732
640 1 732 733
641 1 733 734
642 1 734 735
643 1 735 736
644 1 736 737
645 1 737 738
646 1 738 739
647 1 11 720
648 1 739 39
649 1 740 741
650 1 741 742
651 1 742 743
652 1 743 744
653 1 744 745
654 1 745 746
655 1 746 747
656 1 747 748
657 1 748 749
658 1 749 750
659 1 750 751
660 1 751 752
661 1 752 753
662 1 753 754
663 1 754 755
664 1 755 756
665 1 756 757
666 1 757 758
667 1 758 759
668 1 12 740
669 1 759 40
670 1 760 761
671 1 761 762
672 1 762 763
673 1 763 764
674 1 764 765
675 1 765 766
676 1 766 767
677 1 767 768
678 1 768 769
679 1 769 770
680 1 770 771
681 1 771 772
682 1 772 773
683 1 773 774
684 1 774 775
685 1 775 776
686 1 776 777
687 1 777 778
688 1 778 779
689 1 12 760
690 1 779 124
691 1 780 781
692 1 781 782
693 1 782 783
694 1 783 784
695 1 784 785
696 1 785 786
697 1 786 787
698 1 787 788
699 1 788 789
700 1 789 790
701 1 790 791
702 1 791 792
703 1 792 793
704 1 793 794
705 1 794 795
706 1 795 796
707 1 796 797
708 1 797 798
709 1 798 799
710 1 13 780
711 1 799 14
712 1 800 801
713 1 801 802
714 1 802 803
715 1 803 804
716 1 804 805
717 1 805 806
718 1 806 807
719 1 807 808
720 1 808 809
721 1 809 810
722 1 810 811
723 1 811 812
724 1 812 813
725 1 813 814
726 1 814 815
727 1 815 816
728 1 816 817
729 1 817 818
730 1 818 819
731 1 13 800
732 1 819 21
733 1 820 821
734 1 821 822
735 1 822 823
736 1 823 824
737 1 824 825
738 1 825 826
739 1 826 827
740 1 827 828
741 1 828 829
742 1 829 830
743 1 830 831
744 1 831 832
745 1 832 833
746 1 833 834
747 1 834 835
748 1 835 836
749 1 836 837
750 1 837 838
751 1 838 839
752 1 13 820
753 1 839 125
754 1 840 841
755 1 841 842
756 1 842 843
757 1 843 844
758 1 844 845
759 1 845 846
760 1 846 847
761 1 847 848
762 1 848 849
763 1 849 850
764 1 850 851
765 1 851 852
766 1 852 853
767 1 853 854
768 1 854 855
769 1 855 856
770 1 856 857
771 1 857 858
772 1 858 859
773 1 14 840
774 1 859 22
775 1 860 861
776 1 861 862
777 1 862 863
778 1 863 864
779 1 864 865
780 1 865 866
781 1 866 867
782 1 867 868
783 1 868 869
784 1 869 870
785 1 870 871
786 1 871 872
787 1 872 873
788 1 873 874
789 1 874 875
790 1 875 876
791 1 876 877
792 1 877 878
793 1 878 879
794 1 15 860
795 1 879 23
796 1 880 881
797 1 881 882
798 1 882 883
799 1 883 884
800 1 884 885
801 1 885 886
802 1 886 887
803 1 887 888
804 1 888 889
805 1 889 890
806 1 890 891
807 1 891 892
808 1 892 893
809 1 893 894
810 1 894 895
811 1 895 896
812 1 896 897
813 1 897 898
814 1 898 899
815 1 15 880
816 1 899 43
817 1 900 901
818 1 901 902
819 1 902 903
820 1 903 904
821 1 904 905
822 1 905 906
823 1 906 907
824 1 907 908
825 1 908 909
826 1 909 910
827 1 910 911
828 1 911 912
829 1 912 913
830 1 913 914
831 1 914 915
832 1 915 916
833 1 916 917
834 1 917 918
835 1 918 919
836 1 15 900
837 1 919 22
838 1 920 921
839 1 921 922
840 1 922 923
841 1 923 924
842 1 924 925
843 1 925 926
844 1 926 927
845 1 927 928
846 1 928 929
847 1 929 930
848 1 930 931
849 1 931 932
850 1 932 933
851 1 933 934
852 1 934 935
853 1 935 936
854 1 936 937
855 1 937 938
856 1 938 939
857 1 16 920
858 1 939 24
859 1 940 941
860 1 941 942
861 1 942 943
862 1 943 944
863 1 944 945
864 1 945 946
865 1 946 947
866 1 947 948
867 1 948 949
868 1 949 950
869 1 950 951
870 1 951 952
871 1 952 953
872 1 953 954
873 1 954 955
874 1 955 956
875 1 956 957
876 1 957 958
877 1 958 959
878 1 16 940
879 1 959 131
880 1 960 961
881 1 961 962
882 1 962 963
883 1 963 964
884 1 964 965
885 1 965 966
886 1 966 967
887 1 967 968
888 1 968 969
889 1 969 970
890 1 970 971
891 1 971 972
892 1 972 973
893 1 973 974
894 1 974 975
895 1 975 976
896 1 976 977
897 1 977 978
898 1 978 979
899 1 17 960
900 1 979 44
901 1 980 981
902 1 981 982
903 1 982 983
904 1 983 984
905 1 984 985
906 1 985 986
907 1 986 987
908 1 987 988
909 1 988 989
910 1 989 990
911 1 990 991
912 1 991 992
913 1 992 993
914 1 993 994
915 1 994 995
916 1 995 996
917 1 996 997
918 1 997 998
919 1 998 999
920 1 21 980
921 1 999 26
922 1 1000 1001
923 1 1001 1002
924 1 1002 1003
925 1 1003 1004
926 1 1004 1005
927 1 1005 1006
928 1 1006 1007
929 1 1007 1008
930 1 1008 1009
931 1 1009 1010
932 1 1010 1011
933 1 1011 1012
934 1 1012 1013
935 1 1013 1014
936 1 1014 1015
937 1 1015 1016
938 1 1016 1017
939 1 1017 1018
940 1 1018 1019
941 1 21 1000
942 1 1019 133
943 1 1020 1021
944 1 1021 1022
945 1 1022 1023
946 1 1023 1024
947 1 1024 1025
948 1 1025 1026
949 1 1026 1027
950 1 1027 1028
951 1 1028 1029
952 1 1029 1030
953 1 1030 1031
954 1 1031 1032
955 1 1032 1033
956 1 1033 1034
957 1 1034 1035
958 1 1035 1036
959 1 1036 1037
960 1 1037 1038
961 1 1038 1039
962 1 22 1020
963 1 1039 27
964 1 1040 1041
965 1 1041 1042
966 1 1042 1043
967 1 1043 1044
968 1 1044 1045
969 1 1045 1046
970 1 1046 1047
971 1 1047 1048
972 1 1048 1049
973 1 1049 1050
974 1 1050 1051
975 1 1051 1052
976 1 1052 1053
977 1 1053 1054
978 1 1054 1055
979 1 1055 1056
980 1 1056 1057
981 1 1057 1058
982 1 1058 1059
983 1 22 1040
984 1 1059 134
985 1 1060 1061
986 1 1061 1062
987 1 1062 1063
988 1 1063 1064
989 1 1064 1065
990 1 1065 1066
991 1 1066 1067
992 1 1067 1068
993 1 1068 1069
994 1 1069 1070
995 1 1070 1071
996 1 1071 1072
997 1 1072 1073
998 1 1073 1074
999 1 1074 1075
1000 1 1075 1076
1001 1 1076 1077
1002 1 1077 1078
1003 1 1078 1079
1004 1 23 1060
1005 1 1079 24
1006 1 1080 1081
1007 1 1081 1082
1008 1 1082 1083
1009 1 1083 1084
1010 1 1084 1085
1011 1 1085 1086
1012 1 1086 1087
1013 1 1087 1088
1014 1 1088 1089
1015 1 1089 1090
1016 1 1090 1091
1017 1 1091 1092
1018 1 1092 1093
1019 1 1093 1094
1020 1 1094 1095
1021 1 1095 1096
1022 1 1096 1097
1023 1 1097 1098
1024 1 1098 1099
1025 1 23 1080
1026 1 1099 27
1027 1 1100 1101
1028 1 1101 1102
1029 1 1102 1103
1030 1 1103 1104
1031 1 1104 1105
1032 1 1105 1106
1033 1 1106 1107
1034 1 1107 1108
1035 1 1108 1109
1036 1 1109 1110
1037 1 1110 1111
1038 1 1111 1112
1039 1 1112 1113
1040 1 1113 1114
1041 1 1114 1115
1042 1 1115 1116
1043 1 1116 1117
1044 1 1117 1118
1045 1 1118 1119
1046 1 24 1100
1047 1 1119 48
1048 1 1120 1121
1049 1 1121 1122
1050 1 1122 1123
1051 1 1123 1124
1052 1 1124 1125
1053 1 1125 1126
1054 1 1126 1127
1055 1 1127 1128
1056 1 1128 1129
1057 1 1129 1130
1058 1 1130 1131
1059 1 1131 1132
1060 1 1132 1133
1061 1 1133 1134
1062 1 1134 1135
1063 1 1135 1136
1064 1 1136 1137
1065 1 1137 1138
1066 1 1138 1139
1067 1 25 1120
1068 1 1139 26
1069 1 1140 1141
1070 1 1141 1142
1071 1 1142 1143
1072 1 1143 1144
1073 1 1144 1145
1074 1 1145 1146
1075 1 1146 1147
1076 1 1147 1148
1077 1 1148 1149
1078 1 1149 1150
1079 1 1150 1151
1080 1 1151 1152
1081 1 1152 1153
1082 1 1153 1154
1083 1 1154 1155
1084 1 1155 1156
1085 1 1156 1157
1086 1 1157 1158
1087 1 1158 1159
1088 1 25 1140
1089 1 1159 49
1090 1 1160 1161
1091 1 1161 1162
1092 1 1162 1163
1093 1 1163 1164
1094 1 1164 1165
1095 1 1165 1166
1096 1 1166 1167
1097 1 1167 1168
1098 1 1168 1169
1099 1 1169 1170
1100 1 1170 1171
1101 1 1171 1172
1102 1 1172 1173
1103 1 1173 1174
1104 1 1174 1175
1105 1 1175 1176
1106 1 1176 1177
1107 1 1177 1178
1108 1 1178 1179
1109 1 26 1160
1110 1 1179 27
1111 1 1180 1181
1112 1 1181 1182
1113 1 1182 1183
1114 1 1183 1184
1115 1 1184 1185
1116 1 1185 1186
1117 1 1186 1187
1118 1 1187 1188
1119 1 1188 1189
1120 1 1189 1190
1121 1 1190 1191
1122 1 1191 1192
1123 1 1192 1193
1124 1 1193 1194
1125 1 1194 1195
1126 1 1195 1196
1127 1 1196 1197
1128 1 1197 1198
1129 1 1198 1199
1130 1 26 1180
1131 1 1199 53
1132 1 1200 1201
1133 1 1201 1202
1134 1 1202 1203
1135 1 1203 1204
1136 1 1204 1205
1137 1 1205 1206
1138 1 1206 1207
1139 1 1207 1208
1140 1 1208 1209
1141 1 1209 1210
1142 1 1210 1211
1143 1 1211 1212
1144 1 1212 1213
1145 1 1213 1214
1146 1 1214 1215
1147 1 1215 1216
1148 1 1216 1217
1149 1 1217 1218
1150 1 1218 1219
1151 1 27 1200
1152 1 1219 139
1153 1 1220 1221
1154 1 1221 1222
1155 1 1222 1223
1156 1 1223 1224
1157 1 1224 1225
1158 1 1225 1226
1159 1 1226 1227
1160 1 1227 1228
1161 1 1228 1229
1162 1 1229 1230
1163 1 1230 1231
1164 1 1231 1232
1165 1 1232 1233
1166 1 1233 1234
1167 1 1234 1235
1168 1 1235 1236
1169 1 1236 1237
1170 1 1237 1238
1171 1 1238 1239
1172 1 28 1220
1173 1 1239 55
1174 1 1240 1241
1175 1 1241 1242
1176 1 1242 1243
1177 1 1243 1244
1178 1 1244 1245
1179 1 1245 1246
1180 1 1246 1247
1181 1 1247 1248
1182 1 1248 1249
1183 1 1249 1250
1184 1 1250 1251
1185 1 1251 1252
1186 1 1252 1253
1187 1 1253 1254
1188 1 1254 1255
1189 1 1255 1256
1190 1 1256 1257
1191 1 1257 1258
1192 1 1258 1259
1193 1 28 1240
1194 1 1259 32
1195 1 1260 1261
1196 1 1261 1262
1197 1 1262 1263
1198 1 1263 1264
1199 1 1264 1265
1200 1 1265 1266
1201 1 1266 1267
1202 1 1267 1268
1203 1 1268 1269
1204 1 1269 1270
1205 1 1270 1271
1206 1 1271 1272
1207 1 1272 1273
1208 1 1273 1274
1209 1 1274 1275
1210 1 1275 1276
1211 1 1276 1277
1212 1 1277 1278
1213 1 1278 1279
1214 1 28 1260
1215 1 1279 47
1216 1 1280 1281
1217 1 1281 1282
1218 1 1282 1283
1219 1 1283 1284
1220 1 1284 1285
1221 1 1285 1286
1222 1 1286 1287
1223 1 1287 1288
1224 1 1288 1289
1225 1 1289 1290
1226 1 1290 1291
1227 1 1291 1292
1228 1 1292 1293
1229 1 1293 1294
1230 1 1294 1295
1231 1 1295 1296
1232 1 1296 1297
1233 1 1297 1298
1234 1 1298 1299
1235 1 29 1280
1236 1 1299 30
1237 1 1300 1301
1238 1 1301 1302
1239 1 1302 1303
1240 1 1303 1304
1241 1 1304 1305
1242 1 1305 1306
1243 1 1306 1307
1244 1 1307 1308
1245 1 1308 1309
1246 1 1309 1310
1247 1 1310 1311
1248 1 1311 1312
1249 1 1312 1313
1250 1 1313 1314
1251 1 1314 1315
1252 1 1315 1316
1253 1 1316 1317
1254 1 1317 1318
1255 1 1318 1319
1256 1 29 1300
1257 1 1319 34
1258 1 1320 1321
1259 1 1321 1322
1260 1 1322 1323
1261 1 1323 1324
1262 1 1324 1325
1263 1 1325 1326
1264 1 1326 1327
1265 1 1327 1328
1266 1 1328 1329
1267 1 1329 1330
1268 1 1330 1331
1269 1 1331 1332
1270 1 1332 1333
1271 1 1333 1334
1272 1 1334 1335
1273 1 1335 1336
1274 1 1336 1337
1275 1 1337 1338
1276 1 1338 1339
1277 1 29 1320
1278 1 1339 48
1279 1 1340 1341
1280 1 1341 1342
1281 1 1342 1343
1282 1 1343 1344
1283 1 1344 1345
1284 1 1345 1346
1285 1 1346 1347
1286 1 1347 1348
1287 1 1348 1349
1288 1 1349 1350
1289 1 1350 1351
1290 1 1351 1352
1291 1 1352 1353
1292 1 1353 1354
1293 1 1354 1355
1294 1 1355 1356
1295 1 1356 1357
1296 1 1357 1358
1297 1 1358 1359
1298 1 30 1340
1299 1 1359 35
1300 1 1360 1361
1301 1 1361 1362
1302 1 1362 1363
1303 1 1363 1364
1304 1 1364 1365
1305 1 1365 1366
1306 1 1366 1367
1307 1 1367 1368
1308 1 1368 1369
1309 1 1369 1370
1310 1 1370 1371
1311 1 1371 1372
1312 1 1372 1373
1313 1 1373 1374
1314 1 1374 1375
1315 1 1375 1376
1316 1 1376 1377
1317 1 1377 1378
1318 1 1378 1379
1319 1 30 1360
1320 1 1379 59
1321 1 1380 1381
1322 1 1381 1382
1323 1 1382 1383
1324 1 1383 1384
1325 1 1384 1385
1326 1 1385 1386
1327 1 1386 1387
1328 1 1387 1388
1329 1 1388 1389
1330 1 1389 1390
1331 1 1390 1391
1332 1 1391 1392
1333 1 1392 1393
1334 1 1393 1394
1335 1 1394 1395
1336 1 1395 1396
1337 1 1396 1397
1338 1 1397 1398
1339 1 1398 1399
1340 1 31 1380
1341 1 1399 32
1342 1 1400 1401
1343 1 1401 1402
1344 1 1402 1403
1345 1 1403 1404
1346 1 1404 1405
1347 1 1405 1406
1348 1 1406 1407
1349 1 1407 1408
1350 1 1408 1409
1351 1 1409 1410
1352 1 1410 1411
1353 1 1411 1412
1354 1 1412 1413
1355 1 1413 1414
1356 1 1414 1415
1357 1 1415 1416
1358 1 1416 1417
1359 1 1417 1418
1360 1 1418 1419
1361 1 31 1400
1362 1 1419 36
1363 1 1420 1421
1364 1 1421 1422
1365 1 1422 1423
1366 1 1423 1424
1367 1 1424 1425
1368 1 1425 1426
1369 1 1426 1427
1370 1 1427 1428
1371 1 1428 1429
1372 1 1429 1430
1373 1 1430 1431
1374 1 1431 1432
1375 1 1432 1433
1376 1 1433 1434
1377 1 1434 1435
1378 1 1435 1436
1379 1 1436 1437
1380 1 1437 1438
1381 1 1438 1439
1382 1 31 1420
1383 1 1439 53
1384 1 1440 1441
1385 1 1441 1442
1386 1 1442 1443
1387 1 1443 1444
1388 1 1444 1445
1389 1 1445 1446
1390 1 1446 1447
1391 1 1447 1448
1392 1 1448 1449
1393 1 1449 1450
1394 1 1450 1451
1395 1 1451 1452
1396 1 1452 1453
1397 1 1453 1454
1398 1 1454 1455
1399 1 1455 1456
1400 1 1456 1457
1401 1 1457 1458
1402 1 1458 1459
1403 1 32 1440
1404 1 1459 61
1405 1 1460 1461
1406 1 1461 1462
1407 1 1462 1463
1408 1 1463 1464
1409 1 1464 1465
1410 1 1465 1466
1411 1 1466 1467
1412 1 1467 1468
1413 1 1468 1469
1414 1 1469 1470
1415 1 1470 1471
1416 1 1471 1472
1417 1 1472 1473
1418 1 1473 1474
1419 1 1474 1475
1420 1 1475 1476
1421 1 1476 1477
1422 1 1477 1478
1423 1 1478 1479
1424 1 33 1460
1425 1 1479 34
1426 1 1480 1481
1427 1 1481 1482
1428 1 1482 1483
1429 1 1483 1484
1430 1 1484 1485
1431 1 1485 1486
1432 1 1486 1487
1433 1 1487 1488
1434 1 1488 1489
1435 1 1489 1490
1436 1 1490 1491
1437 1 1491 1492
1438 1 1492 1493
1439 1 1493 1494
1440 1 1494 1495
1441 1 1495 1496
1442 1 1496 1497
1443 1 1497 1498
1444 1 1498 1499
1445 1 33 1480
1446 1 1499 38
1447 1 1500 1501
1448 1 1501 1502
1449 1 1502 1503
1450 1 1503 1504
1451 1 1504 1505
1452 1 1505 1506
1453 1 1506 1507
1454 1 1507 1508
1455 1 1508 1509
1456 1 1509 1510
1457 1 1510 1511
1458 1 1511 1512
1459 1 1512 1513
1460 1 1513 1514
1461 1 1514 1515
1462 1 1515 1516
1463 1 1516 1517
1464 1 1517 1518
1465 1 1518 1519
1466 1 34 1500
1467 1 1519 39
1468 1 1520 1521
1469 1 1521 1522
1470 1 1522 1523
1471 1 1523 1524
1472 1 1524 1525
1473 1 1525 1526
1474 1 1526 1527
1475 1 1527 1528
1476 1 1528 1529
1477 1 1529 1530
1478 1 1530 1531
1479 1 1531 1532
1480 1 1532 1533
1481 1 1533 1534
1482 1 1534 1535
1483 1 1535 1536
1484 1 1536 1537
1485 1 1537 1538
1486 1 1538 1539
1487 1 34 1520
1488 1 1539 63
1489 1 1540 1541
1490 1 1541 1542
1491 1 1542 1543
1492 1 1543 1544
1493 1 1544 1545
1494 1 1545 1546
1495 1 1546 1547
1496 1 1547 1548
1497 1 1548 1549
1498 1 1549 1550
1499 1 1550 1551
1500 1 1551 1552
1501 1 1552 1553
1502 1 1553 1554
1503 1 1554 1555
1504 1 1555 1556
1505 1 1556 1557
1506 1 1557 1558
1507 1 1558 1559
1508 1 35 1540
1509 1 1559 40
1510 1 1560 1561
1511 1 1561 1562
1512 1 1562 1563
1513 1 1563 1564
1514 1 1564 1565
1515 1 1565 1566
1516 1 1566 1567
1517 1 1567 1568
1518 1 1568 1569
1519 1 1569 1570
1520 1 1570 1571
1521 1 1571 1572
1522 1 1572 1573
1523 1 1573 1574
1524 1 1574 1575
1525 1 1575 1576
1526 1 1576 1577
1527 1 1577 1578
1528 1 1578 1579
1529 1 35 1560
1530 1 1579 64
1531 1 1580 1581
1532 1 1581 1582
1533 1 1582 1583
1534 1 1583 1584
1535 1 1584 1585
1536 1 1585 1586
1537 1 1586 1587
1538 1 1587 1588
1539 1 1588 1589
1540 1 1589 1590
1541 1 1590 1591
1542 1 1591 1592
1543 1 1592 1593
1544 1 1593 1594
1545 1 1594 1595
1546 1 1595 1596
1547 1 1596 1597
1548 1 1597 1598
1549 1 1598 1599
1550 1 36 1580
1551 1 1599 37
1552 1 1600 1601
1553 1 1601 1602
1554 1 1602 1603
1555 1 1603 1604
1556 1 1604 1605
1557 1 1605 1606
1558 1 1606 1607
1559 1 1607 1608
1560 1 1608 1609
1561 1 1609 1610
1562 1 1610 1611
1563 1 1611 1612
1564 1 1612 1613
1565 1 1613 1614
1566 1 1614 1615
1567 1 1615 1616
1568 1 1616 1617
1569 1 1617 1618
1570 1 1618 1619
1571 1 36 1600
1572 1 1619 65
1573 1 1620 1621
1574 1 1621 1622
1575 1 1622 1623
1576 1 1623 1624
1577 1 1624 1625
1578 1 1625 1626
1579 1 1626 1627
1580 1 1627 1628
1581 1 1628 1629
1582 1 1629 1630
1583 1 1630 1631
1584 1 1631 1632
1585 1 1632 1633
1586 1 1633 1634
1587 1 1634 1635
1588 1 1635 1636
1589 1 1636 1637
1590 1 1637 1638
1591 1 1638 1639
1592 1 37 1620
1593 1 1639 42
1594 1 1640 1641
1595 1 1641 1642
1596 1 1642 1643
1597 1 1643 1644
1598 1 1644 1645
1599 1 1645 1646
1600 1 1646 1647
1601 1 1647 1648
1602 1 1648 1649
1603 1 1649 1650
1604 1 1650 1651
1605 1 1651 1652
1606 1 1652 1653
1607 1 1653 1654
1608 1 1654 1655
1609 1 1655 1656
1610 1 1656 1657
1611 1 1657 1658
1612 1 1658 1659
1613 1 38 1640
1614 1 1659 43
1615 1 1660 1661
1616 1 1661 1662
1617 1 1662 1663
1618 1 1663 1664
1619 1 1664 1665
1620 1 1665 1666
1621 1 1666 1667
1622 1 1667 1668
1623 1 1668 1669
1624 1 1669 1670
1625 1 1670 1671
1626 1 1671 1672
1627 1 1672 1673
1628 1 1673 1674
1629 1 1674 1675
1630 1 1675 1676
1631 1 1676 1677
1632 1 1677 1678
1633 1 1678 1679
1634 1 39 1660
1635 1 1679 68
1636 1 1680 1681
1637 1 1681 1682
1638 1 1682 1683
1639 1 1683 1684
1640 1 1684 1685
1641 1 1685 1686
1642 1 1686 1687
1643 1 1687 1688
1644 1 1688 1689
1645 1 1689 1690
1646 1 1690 1691
1647 1 1691 1692
1648 1 1692 1693
1649 1 1693 1694
1650 1 1694 1695
1651 1 1695 1696
1652 1 1696 1697
1653 1 1697 1698
1654 1 1698 1699
1655 1 40 1680
1656 1 1699 41
1657 1 1700 1701
1658 1 1701 1702
1659 1 1702 1703
1660 1 1703 1704
1661 1 1704 1705
1662 1 1705 1706
1663 1 1706 1707
1664 1 1707 1708
1665 1 1708 1709
1666 1 1709 1710
1667 1 1710 1711
1668 1 1711 1712
1669 1 1712 1713
1670 1 1713 1714
1671 1 1714 1715
1672 1 1715 1716
1673 1 1716 1717
1674 1 1717 1718
1675 1 1718 1719
1676 1 40 1700
1677 1 1719 69
1678 1 1720 1721
1679 1 1721 1722
1680 1 1722 1723
1681 1 1723 1724
1682 1 1724 1725
1683 1 1725 1726
1684 1 1726 1727
1685 1 1727 1728
1686 1 1728 1729
1687 1 1729 1730
1688 1 1730 1731
1689 1 1731 1732
1690 1 1732 1733
1691 1 1733 1734
1692 1 1734 1735
1693 1 1735 1736
1694 1 1736 1737
1695 1 1737 1738
1696 1 1738 1739
1697 1 41 1720
1698 1 1739 42
1699 1 1740 1741
1700 1 1741 1742
1701 1 1742 1743
1702 1 1743 1744
1703 1 1744 1745
1704 1 1745 1746
1705 1 1746 1747
1706 1 1747 1748
1707 1 1748 1749
1708 1 1749 1750
1709 1 1750 1751
1710 1 1751 1752
1711 1 1752 1753
1712 1 1753 1754
1713 1 1754 1755
1714 1 1755 1756
1715 1 1756 1757
1716 1 1757 1758
1717 1 1758 1759
1718 1 41 1740
1719 1 1759 45
1720 1 1760 1761
1721 1 1761 1762
1722 1 1762 1763
1723 1 1763 1764
1724 1 1764 1765
1725 1 1765 1766
1726 1 1766 1767
1727 1 1767 1768
1728 1 1768 1769
1729 1 1769 1770
1730 1 1770 1771
1731 1 1771 1772
1732 1 1772 1773
1733 1 1773 1774
1734 1 1774 1775
1735 1 1775 1776
1736 1 1776 1777
1737 1 1777 1778
1738 1 1778 1779
1739 1 41 1760
1740 1 1779 70
1741 1 1780 1781
1742 1 1781 1782
1743 1 1782 1783
1744 1 1783 1784
1745 1 1784 1785
1746 1 1785 1786
1747 1 1786 1787
1748 1 1787 1788
1749 1 1788 1789
1750 1 1789 1790
1751 1 1790 1791
1752 1 1791 1792
1753 1 1792 1793
1754 1 1793 1794
1755 1 1794 1795
1756 1 1795 1796
1757 1 1796 1797
1758 1 1797 1798
1759 1 1798 1799
1760 1 42 1780
1761 1 1799 46
1762 1 1800 1801
1763 1 1801 1802
1764 1 1802 1803
1765 1 1803 1804
1766 1 1804 1805
1767 1 1805 1806
1768 1 1806 1807
1769 1 1807 1808
1770 1 1808 1809
1771 1 1809 1810
1772 1 1810 1811
1773 1 1811 1812
1774 1 1812 1813
1775 1 1813 1814
1776 1 1814 1815
1777 1 1815 1816
1778 1 1816 1817
1779 1 1817 1818
1780 1 1818 1819
1781 1 42 1800
1782 1 1819 71
1783 1 1820 1821
1784 1 1821 1822
1785 1 1822 1823
1786 1 1823 1824
1787 1 1824 1825
1788 1 1825 1826
1789 1 1826 1827
1790 1 1827 1828
1791 1 1828 1829
1792 1 1829 1830
1793 1 1830 1831
1794 1 1831 1832
1795 1 1832 1833
1796 1 1833 1834
1797 1 1834 1835
1798 1 1835 1836
1799 1 1836 1837
1800 1 1837 1838
1801 1 1838 1839
1802 1 43 1820
1803 1 1839 47
1804 1 1840 1841
1805 1 1841 1842
1806 1 1842 1843
1807 1 1843 1844
1808 1 1844 1845
1809 1 1845 1846
1810 1 1846 1847
1811 1 1847 1848
1812 1 1848 1849
1813 1 1849 1850
1814 1 1850 1851
1815 1 1851 1852
1816 1 1852 1853
1817 1 1853 1854
1818 1 1854 1855
1819 1 1855 1856
1820 1 1856 1857
1821 1 1857 1858
1822 1 1858 1859
1823 1 43 1840
1824 1 1859 46
1825 1 1860 1861
1826 1 1861 1862
1827 1 1862 1863
1828 1 1863 1864
1829 1 1864 1865
1830 1 1865 1866
1831 1 1866 1867
1832 1 1867 1868
1833 1 1868 1869
1834 1 1869 1870
1835 1 1870 1871
1836 1 1871 1872
1837 1 1872 1873
1838 1 1873 1874
1839 1 1874 1875
1840 1 1875 1876
1841 1 1876 1877
1842 1 1877 1878
1843 1 1878 1879
1844 1 44 1860
1845 1 1879 45
1846 1 1880 1881
1847 1 1881 1882
1848 1 1882 1883
1849 1 1883 1884
1850 1 1884 1885
1851 1 1885 1886
1852 1 1886 1887
1853 1 1887 1888
1854 1 1888 1889
1855 1 1889 1890
1856 1 1890 1891
1857 1 1891 1892
1858 1 1892 1893
1859 1 1893 1894
1860 1 1894 1895
1861 1 1895 1896
1862 1 1896 1897
1863 1 1897 1898
1864 1 1898 1899
1865 1 44 1880
1866 1 1899 73
1867 1 1900 1901
1868 1 1901 1902
1869 1 1902 1903
1870 1 1903 1904
1871 1 1904 1905
1872 1 1905 1906
1873 1 1906 1907
1874 1 1907 1908
1875 1 1908 1909
1876 1 1909 1910
1877 1 1910 1911
1878 1 1911 1912
1879 1 1912 1913
1880 1 1913 1914
1881 1 1914 1915
1882 1 1915 1916
1883 1 1916 1917
1884 1 1917 1918
1885 1 1918 1919
1886 1 45 1900
1887 1 1919 53
1888 1 1920 1921
1889 1 1921 1922
1890 1 1922 1923
1891 1 1923 1924
1892 1 1924 1925
1893 1 1925 1926
1894 1 1926 1927
1895 1 1927 1928
1896 1 1928 1929
1897 1 1929 1930
1898 1 1930 1931
1899 1 1931 1932
1900 1 1932 1933
1901 1 1933 1934
1902 1 1934 1935
1903 1 1935 1936
1904 1 1936 1937
1905 1 1937 1938
1906 1 1938 1939
1907 1 46 1920
1908 1 1939 54
1909 1 1940 1941
1910 1 1941 1942
1911 1 1942 1943
1912 1 1943 1944
1913 1 1944 1945
1914 1 1945 1946
1915 1 1946 1947
1916 1 1947 1948
1917 1 1948 1949
1918 1 1949 1950
1919 1 1950 1951
1920 1 1951 1952
1921 1 1952 1953
1922 1 1953 1954
1923 1 1954 1955
1924 1 1955 1956
1925 1 1956 1957
1926 1 1957 1958
1927 1 1958 1959
1928 1 47 1940
1929 1 1959 76
1930 1 1960 1961
1931 1 1961 1962
1932 1 1962 1963
1933 1 1963 1964
1934 1 1964 1965
1935 1 1965 1966
1936 1 1966 1967
1937 1 1967 1968
1938 1 1968 1969
1939 1 1969 1970
1940 1 1970 1971
1941 1 1971 1972
1942 1 1972 1973
1943 1 1973 1974
1944 1 1974 1975
1945 1 1975 1976
1946 1 1976 1977
1947 1 1977 1978
1948 1 1978 1979
1949 1 48 1960
1950 1 1979 77
1951 1 1980 1981
1952 1 1981 1982
1953 1 1982 1983
1954 1 1983 1984
1955 1 1984 1985
1956 1 1985 1986
1957 1 1986 1987
1958 1 1987 1988
1959 1 1988 1989
1960 1 1989 1990
1961 1 1990 1991
1962 1 1991 1992
1963 1 1992 1993
1964 1 1993 1994
1965 1 1994 1995
1966 1 1995 1996
1967 1 1996 1997
1968 1 1997 1998
1969 1 1998 1999
1970 1 53 1980
1971 1 1999 54
1972 1 2000 2001
1973 1 2001 2002
1974 1 2002 2003
1975 1 2003 2004
1976 1 2004 2005
1977 1 2005 2006
1978 1 2006 2007
1979 1 2007 2008
1980 1 2008 2009
1981 1 2009 2010
1982 1 2010 2011
1983 1 2011 2012
1984 1 2012 2013
1985 1 2013 2014
1986 1 2014 2015
1987 1 2015 2016
1988 1 2016 2017
1989 1 2017 2018
1990 1 2018 2019
1991 1 54 2000
1992 1 2019 83
1993 1 2020 2021
1994 1 2021 2022
1995 1 2022 2023
1996 1 2023 2024
1997 1 2024 2025
1998 1 2025 2026
1999 1 2026 2027
2000 1 2027 2028
2001 1 2028 2029
2002 1 2029 2030
2003 1 2030 2031
2004 1 2031 2032
2005 1 2032 2033
2006 1 2033 2034
2007 1 2034 2035
2008 1 2035 2036
2009 1 2036 2037
2010 1 2037 2038
2011 1 2038 2039
2012 1 59 2020
2013 1 2039 60
2014 1 2040 2041
2015 1 2041 2042
2016 1 2042 2043
2017 1 2043 2044
2018 1 2044 2045
2019 1 2045 2046
2020 1 2046 2047
2021 1 2047 2048
2022 1 2048 2049
2023 1 2049 2050
2024 1 2050 2051
2025 1 2051 2052
2026 1 2052 2053
2027 1 2053 2054
2028 1 2054 2055
2029 1 2055 2056
2030 1 2056 2057
2031 1 2057 2058
2032 1 2058 2059
2033 1 59 2040
2034 1 2059 64
2035 1 2060 2061
2036 1 2061 2062
2037 1 2062 2063
2038 1 2063 2064
2039 1 2064 2065
2040 1 2065 2066
2041 1 2066 2067
2042 1 2067 2068
2043 1 2068 2069
2044 1 2069 2070
2045 1 2070 2071
2046 1 2071 2072
2047 1 2072 2073
2048 1 2073 2074
2049 1 2074 2075
2050 1 2075 2076
2051 1 2076 2077
2052 1 2077 2078
2053 1 2078 2079
2054 1 59 2060
2055 1 2079 89
2056 1 2080 2081
2057 1 2081 2082
2058 1 2082 2083
2059 1 2083 2084
2060 1 2084 2085
2061 1 2085 2086
2062 1 2086 2087
2063 1 2087 2088
2064 1 2088 2089
2065 1 2089 2090
2066 1 2090 2091
2067 1 2091 2092
2068 1 2092 2093
2069 1 2093 2094
2070 1 2094 2095
2071 1 2095 2096
2072 1 2096 2097
2073 1 2097 2098
2074 1 2098 2099
2075 1 60 2080
2076 1 2099 65
2077 1 2100 2101
2078 1 2101 2102
2079 1 2102 2103
2080 1 2103 2104
2081 1 2104 2105
2082 1 2105 2106
2083 1 2106 2107
2084 1 2107 2108
2085 1 2108 2109
2086 1 2109 2110
2087 1 2110 2111
2088 1 2111 2112
2089 1 2112 2113
2090 1 2113 2114
2091 1 2114 2115
2092 1 2115 2116
2093 1 2116 2117
2094 1 2117 2118
2095 1 2118 2119
2096 1 60 2100
2097 1 2119 90
2098 1 2120 2121
2099 1 2121 2122
2100 1 2122 2123
2101 1 2123 2124
2102 1 2124 2125
2103 1 2125 2126
2104 1 2126 2127
2105 1 2127 2128
2106 1 2128 2129
2107 1 2129 2130
2108 1 2130 2131
2109 1 2131 2132
2110 1 2132 2133
2111 1 2133 2134
2112 1 2134 2135
2113 1 2135 2136
2114 1 2136 2137
2115 1 2137 2138
2116 1 2138 2139
2117 1 60 2120
2118 1 2139 82
2119 1 2140 2141
2120 1 2141 2142
2121 1 2142 2143
2122 1 2143 2144
2123 1 2144 2145
2124 1 2145 2146
2125 1 2146 2147
2126 1 2147 2148
2127 1 2148 2149
2128 1 2149 2150
2129 1 2150 2151
2130 1 2151 2152
2131 1 2152 2153
2132 1 2153 2154
2133 1 2154 2155
2134 1 2155 2156
2135 1 2156 2157
2136 1 2157 2158
2137 1 2158 2159
2138 1 61 2140
2139 1 2159 66
2140 1 2160 2161
2141 1 2161 2162
2142 1 2162 2163
2143 1 2163 2164
2144 1 2164 2165
2145 1 2165 2166
2146 1 2166 2167
2147 1 2167 2168
2148 1 2168 2169
2149 1 2169 2170
2150 1 2170 2171
2151 1 2171 2172
2152 1 2172 2173
2153 1 2173 2174
2154 1 2174 2175
2155 1 2175 2176
2156 1 2176 2177
2157 1 2177 2178
2158 1 2178 2179
2159 1 61 2160
2160 1 2179 91
2161 1 2180 2181
2162 1 2181 2182
2163 1 2182 2183
2164 1 2183 2184
2165 1 2184 2185
2166 1 2185 2186
2167 1 2186 2187
2168 1 2187 2188
2169 1 2188 2189
2170 1 2189 2190
2171 1 2190 2191
2172 1 2191 2192
2173 1 2192 2193
2174 1 2193 2194
2175 1 2194 2195
2176 1 2195 2196
2177 1 2196 2197
2178 1 2197 2198
2179 1 2198 2199
2180 1 61 2180
2181 1 2199 83
2182 1 2200 2201
2183 1 2201 2202
2184 1 2202 2203
2185 1 2203 2204
2186 1 2204 2205
2187 1 2205 2206
2188 1 2206 2207
2189 1 2207 2208
2190 1 2208 2209
2191 1 2209 2210
2192 1 2210 2211
2193 1 2211 2212
2194 1 2212 2213
2195 1 2213 2214
2196 1 2214 2215
2197 1 2215 2216
2198 1 2216 2217
2199 1 2217 2218
2200 1 2218 2219
2201 1 62 2200
2202 1 2219 63
2203 1 2220 2221
2204 1 2221 2222
2205 1 2222 2223
2206 1 2223 2224
2207 1 2224 2225
2208 1 2225 2226
2209 1 2226 2227
2210 1 2227 2228
2211 1 2228 2229
2212 1 2229 2230
2213 1 2230 2231
2214 1 2231 2232
2215 1 2232 2233
2216 1 2233 2234
2217 1 2234 2235
2218 1 2235 2236
2219 1 2236 2237
2220 1 2237 2238
2221 1 2238 2239
2222 1 62 2220
2223 1 2239 67
2224 1 2240 2241
2225 1 2241 2242
2226 1 2242 2243
2227 1 2243 2244
2228 1 2244 2245
2229 1 2245 2246
2230 1 2246 2247
2231 1 2247 2248
2232 1 2248 2249
2233 1 2249 2250
2234 1 2250 2251
2235 1 2251 2252
2236 1 2252 2253
2237 1 2253 2254
2238 1 2254 2255
2239 1 2255 2256
2240 1 2256 2257
2241 1 2257 2258
2242 1 2258 2259
2243 1 62 2240
2244 1 2259 92
2245 1 2260 2261
2246 1 2261 2262
2247 1 2262 2263
2248 1 2263 2264
2249 1 2264 2265
2250 1 2265 2266
2251 1 2266 2267
2252 1 2267 2268
2253 1 2268 2269
2254 1 2269 2270
2255 1 2270 2271
2256 1 2271 2272
2257 1 2272 2273
2258 1 2273 2274
2259 1 2274 2275
2260 1 2275 2276
2261 1 2276 2277
2262 1 2277 2278
2263 1 2278 2279
2264 1 62 2260
2265 1 2279 66
2266 1 2280 2281
2267 1 2281 2282
2268 1 2282 2283
2269 1 2283 2284
2270 1 2284 2285
2271 1 2285 2286
2272 1 2286 2287
2273 1 2287 2288
2274 1 2288 2289
2275 1 2289 2290
2276 1 2290 2291
2277 1 2291 2292
2278 1 2292 2293
2279 1 2293 2294
2280 1 2294 2295
2281 1 2295 2296
2282 1 2296 2297
2283 1 2297 2298
2284 1 2298 2299
2285 1 63 2280
2286 1 2299 68
2287 1 2300 2301
2288 1 2301 2302
2289 1 2302 2303
2290 1 2303 2304
2291 1 2304 2305
2292 1 2305 2306
2293 1 2306 2307
2294 1 2307 2308
2295 1 2308 2309
2296 1 2309 2310
2297 1 2310 2311
2298 1 2311 2312
2299 1 2312 2313
2300 1 2313 2314
2301 1 2314 2315
2302 1 2315 2316
2303 1 2316 2317
2304 1 2317 2318
2305 1 2318 2319
2306 1 63 2300
2307 1 2319 93
2308 1 2320 2321
2309 1 2321 2322
2310 1 2322 2323
2311 1 2323 2324
2312 1 2324 2325
2313 1 2325 2326
2314 1 2326 2327
2315 1 2327 2328
2316 1 2328 2329
2317 1 2329 2330
2318 1 2330 2331
2319 1 2331 2332
2320 1 2332 2333
2321 1 2333 2334
2322 1 2334 2335
2323 1 2335 2336
2324 1 2336 2337
2325 1 2337 2338
2326 1 2338 2339
2327 1 64 2320
2328 1 2339 65
2329 1 2340 2341
2330 1 2341 2342
2331 1 2342 2343
2332 1 2343 2344
2333 1 2344 2345
2334 1 2345 2346
2335 1 2346 2347
2336 1 2347 2348
2337 1 2348 2349
2338 1 2349 2350
2339 1 2350 2351
2340 1 2351 2352
2341 1 2352 2353
2342 1 2353 2354
2343 1 2354 2355
2344 1 2355 2356
2345 1 2356 2357
2346 1 2357 2358
2347 1 2358 2359
2348 1 66 2340
2349 1 2359 71
2350 1 2360 2361
2351 1 2361 2362
2352 1 2362 2363
2353 1 2363 2364
2354 1 2364 2365
2355 1 2365 2366
2356 1 2366 2367
2357 1 2367 2368
2358 1 2368 2369
2359 1 2369 2370
2360 1 2370 2371
2361 1 2371 2372
2362 1 2372 2373
2363 1 2373 2374
2364 1 2374 2375
2365 1 2375 2376
2366 1 2376 2377
2367 1 2377 2378
2368 1 2378 2379
2369 1 66 2360
2370 1 2379 96
2371 1 2380 2381
2372 1 2381 2382
2373 1 2382 2383
2374 1 2383 2384
2375 1 2384 2385
2376 1 2385 2386
2377 1 2386 2387
2378 1 2387 2388
2379 1 2388 2389
2380 1 2389 2390
2381 1 2390 2391
2382 1 2391 2392
2383 1 2392 2393
2384 1 2393 2394
2385 1 2394 2395
2386 1 2395 2396
2387 1 2396 2397
2388 1 2397 2398
2389 1 2398 2399
2390 1 67 2380
2391 1 2399 97
2392 1 2400 2401
2393 1 2401 2402
2394 1 2402 2403
2395 1 2403 2404
2396 1 2404 2405
2397 1 2405 2406
2398 1 2406 2407
2399 1 2407 2408
2400 1 2408 2409
2401 1 2409 2410
2402 1 2410 2411
2403 1 2411 2412
2404 1 2412 2413
2405 1 2413 2414
2406 1 2414 2415
2407 1 2415 2416
2408 1 2416 2417
2409 1 2417 2418
2410 1 2418 2419
2411 1 67 2400
2412 1 2419 71
2413 1 2420 2421
2414 1 2421 2422
2415 1 2422 2423
2416 1 2423 2424
2417 1 2424 2425
2418 1 2425 2426
2419 1 2426 2427
2420 1 2427 2428
2421 1 2428 2429
2422 1 2429 2430
2423 1 2430 2431
2424 1 2431 2432
2425 1 2432 2433
2426 1 2433 2434
2427 1 2434 2435
2428 1 2435 2436
2429 1 2436 2437
2430 1 2437 2438
2431 1 2438 2439
2432 1 68 2420
2433 1 2439 72
2434 1 2440 2441
2435 1 2441 2442
2436 1 2442 2443
2437 1 2443 2444
2438 1 2444 2445
2439 1 2445 2446
2440 1 2446 2447
2441 1 2447 2448
2442 1 2448 2449
2443 1 2449 2450
2444 1 2450 2451
2445 1 2451 2452
2446 1 2452 2453
2447 1 2453 2454
2448 1 2454 2455
2449 1 2455 2456
2450 1 2456 2457
2451 1 2457 2458
2452 1 2458 2459
2453 1 68 2440
2454 1 2459 98
2455 1 2460 2461
2456 1 2461 2462
2457 1 2462 2463
2458 1 2463 2464
2459 1 2464 2465
2460 1 2465 2466
2461 1 2466 2467
2462 1 2467 2468
2463 1 2468 2469
2464 1 2469 2470
2465 1 2470 2471
2466 1 2471 2472
2467 1 2472 2473
2468 1 2473 2474
2469 1 2474 2475
2470 1 2475 2476
2471 1 2476 2477
2472 1 2477 2478
2473 1 2478 2479
2474 1 69 2460
2475 1 2479 70
2476 1 2480 2481
2477 1 2481 2482
2478 1 2482 2483
2479 1 2483 2484
2480 1 2484 2485
2481 1 2485 2486
2482 1 2486 2487
2483 1 2487 2488
2484 1 2488 2489
2485 1 2489 2490
2486 1 2490 2491
2487 1 2491 2492
2488 1 2492 2493
2489 1 2493 2494
2490 1 2494 2495
2491 1 2495 2496
2492 1 2496 2497
2493 1 2497 2498
2494 1 2498 2499
2495 1 69 2480
2496 1 2499 73
2497 1 2500 2501
2498 1 2501 2502
2499 1 2502 2503
2500 1 2503 2504
2501 1 2504 2505
2502 1 2505 2506
2503 1 2506 2507
2504 1 2507 2508
2505 1 2508 2509
2506 1 2509 2510
2507 1 2510 2511
2508 1 2511 2512
2509 1 2512 2513
2510 1 2513 2514
2511 1 2514 2515
2512 1 2515 2516
2513 1 2516 2517
2514 1 2517 2518
2515 1 2518 2519
2516 1 69 2500
2517 1 2519 99
2518 1 2520 2521
2519 1 2521 2522
2520 1 2522 2523
2521 1 2523 2524
2522 1 2524 2525
2523 1 2525 2526
2524 1 2526 2527
2525 1 2527 2528
2526 1 2528 2529
2527 1 2529 2530
2528 1 2530 2531
2529 1 2531 2532
2530 1 2532 2533
2531 1 2533 2534
2532 1 2534 2535
2533 1 2535 2536
2534 1 2536 2537
2535 1 2537 2538
2536 1 2538 2539
2537 1 70 2520
2538 1 2539 74
2539 1 2540 2541
2540 1 2541 2542
2541 1 2542 2543
2542 1 2543 2544
2543 1 2544 2545
2544 1 2545 2546
2545 1 2546 2547
2546 1 2547 2548
2547 1 2548 2549
2548 1 2549 2550
2549 1 2550 2551
2550 1 2551 2552
2551 1 2552 2553
2552 1 2553 2554
2553 1 2554 2555
2554 1 2555 2556
2555 1 2556 2557
2556 1 2557 2558
2557 1 2558 2559
2558 1 70 2540
2559 1 2559 100
2560 1 2560 2561
2561 1 2561 2562
2562 1 2562 2563
2563 1 2563 2564
2564 1 2564 2565
2565 1 2565 2566
2566 1 2566 2567
2567 1 2567 2568
2568 1 2568 2569
2569 1 2569 2570
2570 1 2570 2571
2571 1 2571 2572
2572 1 2572 2573
2573 1 2573 2574
2574 1 2574 2575
2575 1 2575 2576
2576 1 2576 2577
2577 1 2577 2578
2578 1 2578 2579
2579 1 71 2560
2580 1 2579 75
2581 1 2580 2581
2582 1 2581 2582
2583 1 2582 2583
2584 1 2583 2584
2585 1 2584 2585
2586 1 2585 2586
2587 1 2586 2587
2588 1 2587 2588
2589 1 2588 2589
2590 1 2589 2590
2591 1 2590 2591
2592 1 2591 2592
2593 1 2592 2593
2594 1 2593 2594
2595 1 2594 2595
2596 1 2595 2596
2597 1 2596 2597
2598 1 2597 2598
2599 1 2598 2599
2600 1 72 2580
2601 1 2599 77
2602 1 2600 2601
2603 1 2601 2602
2604 1 2602 2603
2605 1 2603 2604
2606 1 2604 2605
2607 1 2605 2606
2608 1 2606 2607
2609 1 2607 2608
2610 1 2608 2609
2611 1 2609 2610
2612 1 2610 2611
2613 1 2611 2612
2614 1 2612 2613
2615 1 2613 2614
2616 1 2614 2615
2617 1 2615 2616
2618 1 2616 2617
2619 1 2617 2618
2620 1 2618 2619
2621 1 72 2600
2622 1 2619 103
2623 1 2620 2621
2624 1 2621 2622
2625 1 2622 2623
2626 1 2623 2624
2627 1 2624 2625
2628 1 2625 2626
2629 1 2626 2627
2630 1 2627 2628
2631 1 2628 2629
2632 1 2629 2630
2633 1 2630 2631
2634 1 2631 2632
2635 1 2632 2633
2636 1 2633 2634
2637 1 2634 2635
2638 1 2635 2636
2639 1 2636 2637
2640 1 2637 2638
2641 1 2638 2639
2642 1 73 2620
2643 1 2639 74
2644 1 2640 2641
2645 1 2641 2642
2646 1 2642 2643
2647 1 2643 2644
2648 1 2644 2645
2649 1 2645 2646
2650 1 2646 2647
2651 1 2647 2648
2652 1 2648 2649
2653 1 2649 2650
2654 1 2650 2651
2655 1 2651 2652
2656 1 2652 2653
2657 1 2653 2654
2658 1 2654 2655
2659 1 2655 2656
2660 1 2656 2657
2661 1 2657 2658
2662 1 2658 2659
2663 1 73 2640
2664 1 2659 104
2665 1 2660 2661
2666 1 2661 2662
2667 1 2662 2663
2668 1 2663 2664
2669 1 2664 2665
2670 1 2665 2666
2671 1 2666 2667
2672 1 2667 2668
2673 1 2668 2669
2674 1 2669 2670
2675 1 2670 2671
2676 1 2671 2672
2677 1 2672 2673
2678 1 2673 2674
2679 1 2674 2675
2680 1 2675 2676
2681 1 2676 2677
2682 1 2677 2678
2683 1 2678 2679
2684 1 74 2660
2685 1 2679 75
2686 1 2680 2681
2687 1 2681 2682
2688 1 2682 2683
2689 1 2683 2684
2690 1 2684 2685
2691 1 2685 2686
2692 1 2686 2687
2693 1 2687 2688
2694 1 2688 2689
2695 1 2689 2690
2696 1 2690 2691
2697 1 2691 2692
2698 1 2692 2693
2699 1 2693 2694
2700 1 2694 2695
2701 1 2695 2696
2702 1 2696 2697
2703 1 2697 2698
2704 1 2698 2699
2705 1 74 2680
2706 1 2699 82
2707 1 2700 2701
2708 1 2701 2702
2709 1 2702 2703
2710 1 2703 2704
2711 1 2704 2705
2712 1 2705 2706
2713 1 2706 2707
2714 1 2707 2708
2715 1 2708 2709
2716 1 2709 2710
2717 1 2710 2711
2718 1 2711 2712
2719 1 2712 2713
2720 1 2713 2714
2721 1 2714 2715
2722 1 2715 2716
2723 1 2716 2717
2724 1 2717 2718
2725 1 2718 2719
2726 1 75 2700
2727 1 2719 106
2728 1 2720 2721
2729 1 2721 2722
2730 1 2722 2723
2731 1 2723 2724
2732 1 2724 2725
2733 1 2725 2726
2734 1 2726 2727
2735 1 2727 2728
2736 1 2728 2729
2737 1 2729 2730
2738 1 2730 2731
2739 1 2731 2732
2740 1 2732 2733
2741 1 2733 2734
2742 1 2734 2735
2743 1 2735 2736
2744 1 2736 2737
2745 1 2737 2738
2746 1 2738 2739
2747 1 76 2720
2748 1 2739 77
2749 1 2740 2741
2750 1 2741 2742
2751 1 2742 2743
2752 1 2743 2744
2753 1 2744 2745
2754 1 2745 2746
2755 1 2746 2747
2756 1 2747 2748
2757 1 2748 2749
2758 1 2749 2750
2759 1 2750 2751
2760 1 2751 2752
2761 1 2752 2753
2762 1 2753 2754
2763 1 2754 2755
2764 1 2755 2756
2765 1 2756 2757
2766 1 2757 2758
2767 1 2758 2759
2768 1 76 2740
2769 1 2759 107
2770 1 2760 2761
2771 1 2761 2762
2772 1 2762 2763
2773 1 2763 2764
2774 1 2764 2765
2775 1 2765 2766
2776 1 2766 2767
2777 1 2767 2768
2778 1 2768 2769
2779 1 2769 2770
2780 1 2770 2771
2781 1 2771 2772
2782 1 2772 2773
2783 1 2773 2774
2784 1 2774 2775
2785 1 2775 2776
2786 1 2776 2777
2787 1 2777 2778
2788 1 2778 2779
2789 1 77 2760
2790 1 2779 78
2791 1 2780 2781
2792 1 2781 2782
2793 1 2782 2783
2794 1 2783 2784
2795 1 2784 2785
2796 1 2785 2786
2797 1 2786 2787
2798 1 2787 2788
2799 1 2788 2789
2800 1 2789 2790
2801 1 2790 2791
2802 1 2791 2792
2803 1 2792 2793
2804 1 2793 2794
2805 1 2794 2795
2806 1 2795 2796
2807 1 2796 2797
2808 1 2797 2798
2809 1 2798 2799
2810 1 82 2780
2811 1 2799 83
2812 1 2800 2801
2813 1 2801 2802
2814 1 2802 2803
2815 1 2803 2804
2816 1 2804 2805
2817 1 2805 2806
2818 1 2806 2807
2819 1 2807 2808
2820 1 2808 2809
2821 1 2809 2810
2822 1 2810 2811
2823 1 2811 2812
2824 1 2812 2813
2825 1 2813 2814
2826 1 2814 2815
2827 1 2815 2816
2828 1 2816 2817
2829 1 2817 2818
2830 1 2818 2819
2831 1 82 2800
2832 1 2819 83
2833 1 2820 2821
2834 1 2821 2822
2835 1 2822 2823
2836 1 2823 2824
2837 1 2824 2825
2838 1 2825 2826
2839 1 2826 2827
2840 1 2827 2828
2841 1 2828 2829
2842 1 2829 2830
2843 1 2830 2831
2844 1 2831 2832
2845 1 2832 2833
2846 1 2833 2834
2847 1 2834 2835
2848 1 2835 2836
2849 1 2836 2837
2850 1 2837 2838
2851 1 2838 2839
2852 1 82 2820
2853 1 2839 110
2854 1 2840 2841
2855 1 2841 2842
2856 1 2842 2843
2857 1 2843 2844
2858 1 2844 2845
2859 1 2845 2846
2860 1 2846 2847
2861 1 2847 2848
2862 1 2848 2849
2863 1 2849 2850
2864 1 2850 2851
2865 1 2851 2852
2866 1 2852 2853
2867 1 2853 2854
2868 1 2854 2855
2869 1 2855 2856
2870 1 2856 2857
2871 1 2857 2858
2872 1 2858 2859
2873 1 83 2840
2874 1 2859 111
2875 1 2860 2861
2876 1 2861 2862
2877 1 2862 2863
2878 1 2863 2864
2879 1 2864 2865
2880 1 2865 2866
2881 1 2866 2867
2882 1 2867 2868
2883 1 2868 2869
2884 1 2869 2870
2885 1 2870 2871
2886 1 2871 2872
2887 1 2872 2873
2888 1 2873 2874
2889 1 2874 2875
2890 1 2875 2876
2891 1 2876 2877
2892 1 2877 2878
2893 1 2878 2879
2894 1 84 2860
2895 1 2879 88
2896 1 2880 2881
2897 1 2881 2882
2898 1 2882 2883
2899 1 2883 2884
2900 1 2884 2885
2901 1 2885 2886
2902 1 2886 2887
2903 1 2887 2888
2904 1 2888 2889
2905 1 2889 2890
2906 1 2890 2891
2907 1 2891 2892
2908 1 2892 2893
2909 1 2893 2894
2910 1 2894 2895
2911 1 2895 2896
2912 1 2896 2897
2913 1 2897 2898
2914 1 2898 2899
2915 1 88 2880
2916 1 2899 113
2917 1 2900 2901
2918 1 2901 2902
2919 1 2902 2903
2920 1 2903 2904
2921 1 2904 2905
2922 1 2905 2906
2923 1 2906 2907
2924 1 2907 2908
2925 1 2908 2909
2926 1 2909 2910
2927 1 2910 2911
2928 1 2911 2912
2929 1 2912 2913
2930 1 2913 2914
2931 1 2914 2915
2932 1 2915 2916
2933 1 2916 2917
2934 1 2917 2918
2935 1 2918 2919
2936 1 88 2900
2937 1 2919 108
2938 1 2920 2921
2939 1 2921 2922
2940 1 2922 2923
2941 1 2923 2924
2942 1 2924 2925
2943 1 2925 2926
2944 1 2926 2927
2945 1 2927 2928
2946 1 2928 2929
2947 1 2929 2930
2948 1 2930 2931
2949 1 2931 2932
2950 1 2932 2933
2951 1 2933 2934
2952 1 2934 2935
2953 1 2935 2936
2954 1 2936 2937
2955 1 2937 2938
2956 1 2938 2939
2957 1 89 2920
2958 1 2939 90
2959 1 2940 2941
2960 1 2941 2942
2961 1 2942 2943
2962 1 2943 2944
2963 1 2944 2945
2964 1 2945 2946
2965 1 2946 2947
2966 1 2947 2948
2967 1 2948 2949
2968 1 2949 2950
2969 1 2950 2951
2970 1 2951 2952
2971 1 2952 2953
2972 1 2953 2954
2973 1 2954 2955
2974 1 2955 2956
2975 1 2956 2957
2976 1 2957 2958
2977 1 2958 2959
2978 1 89 2940
2979 1 2959 114
2980 1 2960 2961
2981 1 2961 2962
2982 1 2962 2963
2983 1 2963 2964
2984 1 2964 2965
2985 1 2965 2966
2986 1 2966 2967
2987 1 2967 2968
2988 1 2968 2969
2989 1 2969 2970
2990 1 2970 2971
2991 1 2971 2972
2992 1 2972 2973
2993 1 2973 2974
2994 1 2974 2975
2995 1 2975 2976
2996 1 2976 2977
2997 1 2977 2978
2998 1 2978 2979
2999 1 89 2960
3000 1 2979 109
3001 1 2980 2981
3002 1 2981 2982
3003 1 2982 2983
3004 1 2983 2984
3005 1 2984 2985
3006 1 2985 2986
3007 1 2986 2987
3008 1 2987 2988
3009 1 2988 2989
3010 1 2989 2990
3011 1 2990 2991
3012 1 2991 2992
3013 1 2992 2993
3014 1 2993 2994
3015 1 2994 2995
3016 1 2995 2996
3017 1 2996 2997
3018 1 2997 2998
3019 1 2998 2999
3020 1 90 2980
3021 1 2999 95
3022 1 3000 3001
3023 1 3001 3002
3024 1 3002 3003
3025 1 3003 3004
3026 1 3004 3005
3027 1 3005 3006
3028 1 3006 3007
3029 1 3007 3008
3030 1 3008 3009
3031 1 3009 3010
3032 1 3010 3011
3033 1 3011 3012
3034 1 3012 3013
3035 1 3013 3014
3036 1 3014 3015
3037 1 3015 3016
3038 1 3016 3017
3039 1 3017 3018
3040 1 3018 3019
3041 1 90 3000
3042 1 3019 115
3043 1 3020 3021
3044 1 3021 3022
3045 1 3022 3023
3046 1 3023 3024
3047 1 3024 3025
3048 1 3025 3026
3049 1 3026 3027
3050 1 3027 3028
3051 1 3028 3029
3052 1 3029 3030
3053 1 3030 3031
3054 1 3031 3032
3055 1 3032 3033
3056 1 3033 3034
3057 1 3034 3035
3058 1 3035 3036
3059 1 3036 3037
3060 1 3037 3038
3061 1 3038 3039
3062 1 91 3020
3063 1 3039 116
3064 1 3040 3041
3065 1 3041 3042
3066 1 3042 3043
3067 1 3043 3044
3068 1 3044 3045
3069 1 3045 3046
3070 1 3046 3047
3071 1 3047 3048
3072 1 3048 3049
3073 1 3049 3050
3074 1 3050 3051
3075 1 3051 3052
3076 1 3052 3053
3077 1 3053 3054
3078 1 3054 3055
3079 1 3055 3056
3080 1 3056 3057
3081 1 3057 3058
3082 1 3058 3059
3083 1 91 3040
3084 1 3059 111
3085 1 3060 3061
3086 1 3061 3062
3087 1 3062 3063
3088 1 3063 3064
3089 1 3064 3065
3090 1 3065 3066
3091 1 3066 3067
3092 1 3067 3068
3093 1 3068 3069
3094 1 3069 3070
3095 1 3070 3071
3096 1 3071 3072
3097 1 3072 3073
3098 1 3073 3074
3099 1 3074 3075
3100 1 3075 3076
3101 1 3076 3077
3102 1 3077 3078
3103 1 3078 3079
3104 1 91 3060
3105 1 3079 111
3106 1 3080 3081
3107 1 3081 3082
3108 1 3082 3083
3109 1 3083 3084
3110 1 3084 3085
3111 1 3085 3086
3112 1 3086 3087
3113 1 3087 3088
3114 1 3088 3089
3115 1 3089 3090
3116 1 3090 3091
3117 1 3091 3092
3118 1 3092 3093
3119 1 3093 3094
3120 1 3094 3095
3121 1 3095 3096
3122 1 3096 3097
3123 1 3097 3098
3124 1 3098 3099
3125 1 92 3080
3126 1 3099 93
3127 1 3100 3101
3128 1 3101 3102
3129 1 3102 3103
3130 1 3103 3104
3131 1 3104 3105
3132 1 3105 3106
3133 1 3106 3107
3134 1 3107 3108
3135 1 3108 3109
3136 1 3109 3110
3137 1 3110 3111
3138 1 3111 3112
3139 1 3112 3113
3140 1 3113 3114
3141 1 3114 3115
3142 1 3115 3116
3143 1 3116 3117
3144 1 3117 3118
3145 1 3118 3119
3146 1 92 3100
3147 1 3119 93
3148 1 3120 3121
3149 1 3121 3122
3150 1 3122 3123
3151 1 3123 3124
3152 1 3124 3125
3153 1 3125 3126
3154 1 3126 3127
3155 1 3127 3128
3156 1 3128 3129
3157 1 3129 3130
3158 1 3130 3131
3159 1 3131 3132
3160 1 3132 3133
3161 1 3133 3134
3162 1 3134 3135
3163 1 3135 3136
3164 1 3136 3137
3165 1 3137 3138
3166 1 3138 3139
3167 1 92 3120
3168 1 3139 117
3169 1 3140 3141
3170 1 3141 3142
3171 1 3142 3143
3172 1 3143 3144
3173 1 3144 3145
3174 1 3145 3146
3175 1 3146 3147
3176 1 3147 3148
3177 1 3148 3149
3178 1 3149 3150
3179 1 3150 3151
3180 1 3151 3152
3181 1 3152 3153
3182 1 3153 3154
3183 1 3154 3155
3184 1 3155 3156
3185 1 3156 3157
3186 1 3157 3158
3187 1 3158 3159
3188 1 93 3140
3189 1 3159 94
3190 1 3160 3161
3191 1 3161 3162
3192 1 3162 3163
3193 1 3163 3164
3194 1 3164 3165
3195 1 3165 3166
3196 1 3166 3167
3197 1 3167 3168
3198 1 3168 3169
3199 1 3169 3170
3200 1 3170 3171
3201 1 3171 3172
3202 1 3172 3173
3203 1 3173 3174
3204 1 3174 3175
3205 1 3175 3176
3206 1 3176 3177
3207 1 3177 3178
3208 1 3178 3179
3209 1 93 3160
3210 1 3179 118
3211 1 3180 3181
3212 1 3181 3182
3213 1 3182 3183
3214 1 3183 3184
3215 1 3184 3185
3216 1 3185 3186
3217 1 3186 3187
3218 1 3187 3188
3219 1 3188 3189
3220 1 3189 3190
3221 1 3190 3191
3222 1 3191 3192
3223 1 3192 3193
3224 1 3193 3194
3225 1 3194 3195
3226 1 3195 3196
3227 1 3196 3197
3228 1 3197 3198
3229 1 3198 3199
3230 1 94 3180
3231 1 3199 95
3232 1 3200 3201
3233 1 3201 3202
3234 1 3202 3203
3235 1 3203 3204
3236 1 3204 3205
3237 1 3205 3206
3238 1 3206 3207
3239 1 3207 3208
3240 1 3208 3209
3241 1 3209 3210
3242 1 3210 3211
3243 1 3211 3212
3244 1 3212 3213
3245 1 3213 3214
3246 1 3214 3215
3247 1 3215 3216
3248 1 3216 3217
3249 1 3217 3218
3250 1 3218 3219
3251 1 94 3200
3252 1 3219 99
3253 1 3220 3221
3254 1 3221 3222
3255 1 3222 3223
3256 1 3223 3224
3257 1 3224 3225
3258 1 3225 3226
3259 1 3226 3227
3260 1 3227 3228
3261 1 3228 3229
3262 1 3229 3230
3263 1 3230 3231
3264 1 3231 3232
3265 1 3232 3233
3266 1 3233 3234
3267 1 3234 3235
3268 1 3235 3236
3269 1 3236 3237
3270 1 3237 3238
3271 1 3238 3239
3272 1 94 3220
3273 1 3239 119
3274 1 3240 3241
3275 1 3241 3242
3276 1 3242 3243
3277 1 3243 3244
3278 1 3244 3245
3279 1 3245 3246
3280 1 3246 3247
3281 1 3247 3248
3282 1 3248 3249
3283 1 3249 3250
3284 1 3250 3251
3285 1 3251 3252
3286 1 3252 3253
3287 1 3253 3254
3288 1 3254 3255
3289 1 3255 3256
3290 1 3256 3257
3291 1 3257 3258
3292 1 3258 3259
3293 1 95 3240
3294 1 3259 100
3295 1 3260 3261
3296 1 3261 3262
3297 1 3262 3263
3298 1 3263 3264
3299 1 3264 3265
3300 1 3265 3266
3301 1 3266 3267
3302 1 3267 3268
3303 1 3268 3269
3304 1 3269 3270
3305 1 3270 3271
3306 1 3271 3272
3307 1 3272 3273
3308 1 3273 3274
3309 1 3274 3275
3310 1 3275 3276
3311 1 3276 3277
3312 1 3277 3278
3313 1 3278 3279
3314 1 96 3260
3315 1 3279 101
3316 1 3280 3281
3317 1 3281 3282
3318 1 3282 3283
3319 1 3283 3284
3320 1 3284 3285
3321 1 3285 3286
3322 1 3286 3287
3323 1 3287 3288
3324 1 3288 3289
3325 1 3289 3290
3326 1 3290 3291
3327 1 3291 3292
3328 1 3292 3293
3329 1 3293 3294
3330 1 3294 3295
3331 1 3295 3296
3332 1 3296 3297
3333 1 3297 3298
3334 1 3298 3299
3335 1 96 3280
3336 1 3299 121
3337 1 3300 3301
3338 1 3301 3302
3339 1 3302 3303
3340 1 3303 3304
3341 1 3304 3305
3342 1 3305 3306
3343 1 3306 3307
3344 1 3307 3308
3345 1 3308 3309
3346 1 3309 3310
3347 1 3310 3311
3348 1 3311 3312
3349 1 3312 3313
3350 1 3313 3314
3351 1 3314 3315
3352 1 3315 3316
3353 1 3316 3317
3354 1 3317 3318
3355 1 3318 3319
3356 1 97 3300
3357 1 3319 102
3358 1 3320 3321
3359 1 3321 3322
3360 1 3322 3323
3361 1 3323 3324
3362 1 3324 3325
3363 1 3325 3326
3364 1 3326 3327
3365 1 3327 3328
3366 1 3328 3329
3367 1 3329 3330
3368 1 3330 3331
3369 1 3331 3332
3370 1 3332 3333
3371 1 3333 3334
3372 1 3334 3335
3373 1 3335 3336
3374 1 3336 3337
3375 1 3337 3338
3376 1 3338 3339
3377 1 97 3320
3378 1 3339 122
3379 1 3340 3341
3380 1 3341 3342
3381 1 3342 3343
3382 1 3343 3344
3383 1 3344 3345
3384 1 3345 3346
3385 1 3346 3347
3386 1 3347 3348
3387 1 3348 3349
3388 1 3349 3350
3389 1 3350 3351
3390 1 3351 3352
3391 1 3352 3353
3392 1 3353 3354
3393 1 3354 3355
3394 1 3355 3356
3395 1 3356 3357
3396 1 3357 3358
3397 1 3358 3359
3398 1 97 3340
3399 1 3359 101
3400 1 3360 3361
3401 1 3361 3362
3402 1 3362 3363
3403 1 3363 3364
3404 1 3364 3365
3405 1 3365 3366
3406 1 3366 3367
3407 1 3367 3368
3408 1 3368 3369
3409 1 3369 3370
3410 1 3370 3371
3411 1 3371 3372
3412 1 3372 3373
3413 1 3373 3374
3414 1 3374 3375
3415 1 3375 3376
3416 1 3376 3377
3417 1 3377 3378
3418 1 3378 3379
3419 1 98 3360
3420 1 3379 99
3421 1 3380 3381
3422 1 3381 3382
3423 1 3382 3383
3424 1 3383 3384
3425 1 3384 3385
3426 1 3385 3386
3427 1 3386 3387
3428 1 3387 3388
3429 1 3388 3389
3430 1 3389 3390
3431 1 3390 3391
3432 1 3391 3392
3433 1 3392 3393
3434 1 3393 3394
3435 1 3394 3395
3436 1 3395 3396
3437 1 3396 3397
3438 1 3397 3398
3439 1 3398 3399
3440 1 98 3380
3441 1 3399 99
3442 1 3400 3401
3443 1 3401 3402
3444 1 3402 3403
3445 1 3403 3404
3446 1 3404 3405
3447 1 3405 3406
3448 1 3406 3407
3449 1 3407 3408
3450 1 3408 3409
3451 1 3409 3410
3452 1 3410 3411
3453 1 3411 3412
3454 1 3412 3413
3455 1 3413 3414
3456 1 3414 3415
3457 1 3415 3416
3458 1 3416 3417
3459 1 3417 3418
3460 1 3418 3419
3461 1 98 3400
3462 1 3419 123
3463 1 3420 3421
3464 1 3421 3422
3465 1 3422 3423
3466 1 3423 3424
3467 1 3424 3425
3468 1 3425 3426
3469 1 3426 3427
3470 1 3427 3428
3471 1 3428 3429
3472 1 3429 3430
3473 1 3430 3431
3474 1 3431 3432
3475 1 3432 3433
3476 1 3433 3434
3477 1 3434 3435
3478 1 3435 3436
3479 1 3436 3437
3480 1 3437 3438
3481 1 3438 3439
3482 1 99 3420
3483 1 3439 104
3484 1 3440 3441
3485 1 3441 3442
3486 1 3442 3443
3487 1 3443 3444
3488 1 3444 3445
3489 1 3445 3446
3490 1 3446 3447
3491 1 3447 3448
3492 1 3448 3449
3493 1 3449 3450
3494 1 3450 3451
3495 1 3451 3452
3496 1 3452 3453
3497 1 3453 3454
3498 1 3454 3455
3499 1 3455 3456
3500 1 3456 3457
3501 1 3457 3458
3502 1 3458 3459
3503 1 100 3440
3504 1 3459 101
3505 1 3460 3461
3506 1 3461 3462
3507 1 3462 3463
3508 1 3463 3464
3509 1 3464 3465
3510 1 3465 3466
3511 1 3466 3467
3512 1 3467 3468
3513 1 3468 3469
3514 1 3469 3470
3515 1 3470 3471
3516 1 3471 3472
3517 1 3472 3473
3518 1 3473 3474
3519 1 3474 3475
3520 1 3475 3476
3521 1 3476 3477
3522 1 3477 3478
3523 1 3478 3479
3524 1 100 3460
3525 1 3479 105
3526 1 3480 3481
3527 1 3481 3482
3528 1 3482 3483
3529 1 3483 3484
3530 1 3484 3485
3531 1 3485 3486
3532 1 3486 3487
3533 1 3487 3488
3534 1 3488 3489
3535 1 3489 3490
3536 1 3490 3491
3537 1 3491 3492
3538 1 3492 3493
3539 1 3493 3494
3540 1 3494 3495
3541 1 3495 3496
3542 1 3496 3497
3543 1 3497 3498
3544 1 3498 3499
3545 1 101 3480
3546 1 3499 126
3547 1 3500 3501
3548 1 3501 3502
3549 1 3502 3503
3550 1 3503 3504
3551 1 3504 3505
3552 1 3505 3506
3553 1 3506 3507
3554 1 3507 3508
3555 1 3508 3509
3556 1 3509 3510
3557 1 3510 3511
3558 1 3511 3512
3559 1 3512 3513
3560 1 3513 3514
3561 1 3514 3515
3562 1 3515 3516
3563 1 3516 3517
3564 1 3517 3518
3565 1 3518 3519
3566 1 102 3500
3567 1 3519 103
3568 1 3520 3521
3569 1 3521 3522
3570 1 3522 3523
3571 1 3523 3524
3572 1 3524 3525
3573 1 3525 3526
3574 1 3526 3527
3575 1 3527 3528
3576 1 3528 3529
3577 1 3529 3530
3578 1 3530 3531
3579 1 3531 3532
3580 1 3532 3533
3581 1 3533 3534
3582 1 3534 3535
3583 1 3535 3536
3584 1 3536 3537
3585 1 3537 3538
3586 1 3538 3539
3587 1 102 3520
3588 1 3539 106
3589 1 3540 3541
3590 1 3541 3542
3591 1 3542 3543
3592 1 3543 3544
3593 1 3544 3545
3594 1 3545 3546
3595 1 3546 3547
3596 1 3547 3548
3597 1 3548 3549
3598 1 3549 3550
3599 1 3550 3551
3600 1 3551 3552
3601 1 3552 3553
3602 1 3553 3554
3603 1 3554 3555
3604 1 3555 3556
3605 1 3556 3557
3606 1 3557 3558
3607 1 3558 3559
3608 1 103 3540
3609 1 3559 108
3610 1 3560 3561
3611 1 3561 3562
3612 1 3562 3563
3613 1 3563 3564
3614 1 3564 3565
3615 1 3565 3566
3616 1 3566 3567
3617 1 3567 3568
3618 1 3568 3569
3619 1 3569 3570
3620 1 3570 3571
3621 1 3571 3572
3622 1 3572 3573
3623 1 3573 3574
3624 1 3574 3575
3625 1 3575 3576
3626 1 3576 3577
3627 1 3577 3578
3628 1 3578 3579
3629 1 103 3560
3630 1 3579 131
3631 1 3580 3581
3632 1 3581 3582
3633 1 3582 3583
3634 1 3583 3584
3635 1 3584 3585
3636 1 3585 3586
3637 1 3586 3587
3638 1 3587 3588
3639 1 3588 3589
3640 1 3589 3590
3641 1 3590 3591
3642 1 3591 3592
3643 1 3592 3593
3644 1 3593 3594
3645 1 3594 3595
3646 1 3595 3596
3647 1 3596 3597
3648 1 3597 3598
3649 1 3598 3599
3650 1 104 3580
3651 1 3599 132
3652 1 3600 3601
3653 1 3601 3602
3654 1 3602 3603
3655 1 3603 3604
3656 1 3604 3605
3657 1 3605 3606
3658 1 3606 3607
3659 1 3607 3608
3660 1 3608 3609
3661 1 3609 3610
3662 1 3610 3611
3663 1 3611 3612
3664 1 3612 3613
3665 1 3613 3614
3666 1 3614 3615
3667 1 3615 3616
3668 1 3616 3617
3669 1 3617 3618
3670 1 3618 3619
3671 1 105 3600
3672 1 3619 106
3673 1 3620 3621
3674 1 3621 3622
3675 1 3622 3623
3676 1 3623 3624
3677 1 3624 3625
3678 1 3625 3626
3679 1 3626 3627
3680 1 3627 3628
3681 1 3628 3629
3682 1 3629 3630
3683 1 3630 3631
3684 1 3631 3632
3685 1 3632 3633
3686 1 3633 3634
3687 1 3634 3635
3688 1 3635 3636
3689 1 3636 3637
3690 1 3637 3638
3691 1 3638 3639
3692 1 105 3620
3693 1 3639 110
3694 1 3640 3641
3695 1 3641 3642
3696 1 3642 3643
3697 1 3643 3644
3698 1 3644 3645
3699 1 3645 3646
3700 1 3646 3647
3701 1 3647 3648
3702 1 3648 3649
3703 1 3649 3650
3704 1 3650 3651
3705 1 3651 3652
3706 1 3652 3653
3707 1 3653 3654
3708 1 3654 3655
3709 1 3655 3656
3710 1 3656 3657
3711 1 3657 3658
3712 1 3658 3659
3713 1 105 3640
3714 1 3659 133
3715 1 3660 3661
3716 1 3661 3662
3717 1 3662 3663
3718 1 3663 3664
3719 1 3664 3665
3720 1 3665 3666
3721 1 3666 3667
3722 1 3667 3668
3723 1 3668 3669
3724 1 3669 3670
3725 1 3670 3671
3726 1 3671 3672
3727 1 3672 3673
3728 1 3673 3674
3729 1 3674 3675
3730 1 3675 3676
3731 1 3676 3677
3732 1 3677 3678
3733 1 3678 3679
3734 1 105 3660
3735 1 3679 133
3736 1 3680 3681
3737 1 3681 3682
3738 1 3682 3683
3739 1 3683 3684
3740 1 3684 3685
3741 1 3685 3686
3742 1 3686 3687
3743 1 3687 3688
3744 1 3688 3689
3745 1 3689 3690
3746 1 3690 3691
3747 1 3691 3692
3748 1 3692 3693
3749 1 3693 3694
3750 1 3694 3695
3751 1 3695 3696
3752 1 3696 3697
3753 1 3697 3698
3754 1 3698 3699
3755 1 106 3680
3756 1 3699 134
3757 1 3700 3701
3758 1 3701 3702
3759 1 3702 3703
3760 1 3703 3704
3761 1 3704 3705
3762 1 3705 3706
3763 1 3706 3707
3764 1 3707 3708
3765 1 3708 3709
3766 1 3709 3710
3767 1 3710 3711
3768 1 3711 3712
3769 1 3712 3713
3770 1 3713 3714
3771 1 3714 3715
3772 1 3715 3716
3773 1 3716 3717
3774 1 3717 3718
3775 1 3718 3719
3776 1 107 3700
3777 1 3719 108
3778 1 3720 3721
3779 1 3721 3722
3780 1 3722 3723
3781 1 3723 3724
3782 1 3724 3725
3783 1 3725 3726
3784 1 3726 3727
3785 1 3727 3728
3786 1 3728 3729
3787 1 3729 3730
3788 1 3730 3731
3789 1 3731 3732
3790 1 3732 3733
3791 1 3733 3734
3792 1 3734 3735
3793 1 3735 3736
3794 1 3736 3737
3795 1 3737 3738
3796 1 3738 3739
3797 1 107 3720
3798 1 3739 135
3799 1 3740 3741
3800 1 3741 3742
3801 1 3742 3743
3802 1 3743 3744
3803 1 3744 3745
3804 1 3745 3746
3805 1 3746 3747
3806 1 3747 3748
3807 1 3748 3749
3808 1 3749 3750
3809 1 3750 3751
3810 1 3751 3752
3811 1 3752 3753
3812 1 3753 3754
3813 1 3754 3755
3814 1 3755 3756
3815 1 3756 3757
3816 1 3757 3758
3817 1 3758 3759
3818 1 107 3740
3819 1 3759 111
3820 1 3760 3761
3821 1 3761 3762
3822 1 3762 3763
3823 1 3763 3764
3824 1 3764 3765
3825 1 3765 3766
3826 1 3766 3767
3827 1 3767 3768
3828 1 3768 3769
3829 1 3769 3770
3830 1 3770 3771
3831 1 3771 3772
3832 1 3772 3773
3833 1 3773 3774
3834 1 3774 3775
3835 1 3775 3776
3836 1 3776 3777
3837 1 3777 3778
3838 1 3778 3779
3839 1 108 3760
3840 1 3779 136
3841 1 3780 3781
3842 1 3781 3782
3843 1 3782 3783
3844 1 3783 3784
3845 1 3784 3785
3846 1 3785 3786
3847 1 3786 3787
3848 1 3787 3788
3849 1 3788 3789
3850 1 3789 3790
3851 1 3790 3791
3852 1 3791 3792
3853 1 3792 3793
3854 1 3793 3794
3855 1 3794 3795
3856 1 3795 3796
3857 1 3796 3797
3858 1 3797 3798
3859 1 3798 3799
3860 1 109 3780
3861 1 3799 110
3862 1 3800 3801
3863 1 3801 3802
3864 1 3802 3803
3865 1 3803 3804
3866 1 3804 3805
3867 1 3805 3806
3868 1 3806 3807
3869 1 3807 3808
3870 1 3808 3809
3871 1 3809 3810
3872 1 3810 3811
3873 1 3811 3812
3874 1 3812 3813
3875 1 3813 3814
3876 1 3814 3815
3877 1 3815 3816
3878 1 3816 3817
3879 1 3817 3818
3880 1 3818 3819
3881 1 109 3800
3882 1 3819 137
3883 1 3820 3821
3884 1 3821 3822
3885 1 3822 3823
3886 1 3823 3824
3887 1 3824 3825
3888 1 3825 3826
3889 1 3826 3827
3890 1 3827 3828
3891 1 3828 3829
3892 1 3829 3830
3893 1 3830 3831
3894 1 3831 3832
3895 1 3832 3833
3896 1 3833 3834
3897 1 3834 3835
3898 1 3835 3836
3899 1 3836 3837
3900 1 3837 3838
3901 1 3838 3839
3902 1 110 3820
3903 1 3839 138
3904 1 3840 3841
3905 1 3841 3842
3906 1 3842 3843
3907 1 3843 3844
3908 1 3844 3845
3909 1 3845 3846
3910 1 3846 3847
3911 1 3847 3848
3912 1 3848 3849
3913 1 3849 3850
3914 1 3850 3851
3915 1 3851 3852
3916 1 3852 3853
3917 1 3853 3854
3918 1 3854 3855
3919 1 3855 3856
3920 1 3856 3857
3921 1 3857 3858
3922 1 3858 3859
3923 1 112 3840
3924 1 3859 113
3925 1 3860 3861
3926 1 3861 3862
3927 1 3862 3863
3928 1 3863 3864
3929 1 3864 3865
3930 1 3865 3866
3931 1 3866 3867
3932 1 3867 3868
3933 1 3868 3869
3934 1 3869 3870
3935 1 3870 3871
3936 1 3871 3872
3937 1 3872 3873
3938 1 3873 3874
3939 1 3874 3875
3940 1 3875 3876
3941 1 3876 3877
3942 1 3877 3878
3943 1 3878 3879
3944 1 112 3860
3945 1 3879 116
3946 1 3880 3881
3947 1 3881 3882
3948 1 3882 3883
3949 1 3883 3884
3950 1 3884 3885
3951 1 3885 3886
3952 1 3886 3887
3953 1 3887 3888
3954 1 3888 3889
3955 1 3889 3890
3956 1 3890 3891
3957 1 3891 3892
3958 1 3892 3893
3959 1 3893 3894
3960 1 3894 3895
3961 1 3895 3896
3962 1 3896 3897
3963 1 3897 3898
3964 1 3898 3899
3965 1 112 3880
3966 1 3899 135
3967 1 3900 3901
3968 1 3901 3902
3969 1 3902 3903
3970 1 3903 3904
3971 1 3904 3905
3972 1 3905 3906
3973 1 3906 3907
3974 1 3907 3908
3975 1 3908 3909
3976 1 3909 3910
3977 1 3910 3911
3978 1 3911 3912
3979 1 3912 3913
3980 1 3913 3914
3981 1 3914 3915
3982 1 3915 3916
3983 1 3916 3917
3984 1 3917 3918
3985 1 3918 3919
3986 1 113 3900
3987 1 3919 118
3988 1 3920 3921
3989 1 3921 3922
3990 1 3922 3923
3991 1 3923 3924
3992 1 3924 3925
3993 1 3925 3926
3994 1 3926 3927
3995 1 3927 3928
3996 1 3928 3929
3997 1 3929 3930
3998 1 3930 3931
3999 1 3931 3932
4000 1 3932 3933
4001 1 3933 3934
4002 1 3934 3935
4003 1 3935 3936
4004 1 3936 3937
4005 1 3937 3938
4006 1 3938 3939
4007 1 113 3920
4008 1 3939 136
4009 1 3940 3941
4010 1 3941 3942
4011 1 3942 3943
4012 1 3943 3944
4013 1 3944 3945
4014 1 3945 3946
4015 1 3946 3947
4016 1 3947 3948
4017 1 3948 3949
4018 1 3949 3950
4019 1 3950 3951
4020 1 3951 3952
4021 1 3952 3953
4022 1 3953 3954
4023 1 3954 3955
4024 1 3955 3956
4025 1 3956 3957
4026 1 3957 3958
4027 1 3958 3959
4028 1 114 3940
4029 1 3959 115
4030 1 3960 3961
4031 1 3961 3962
4032 1 3962 3963
4033 1 3963 3964
4034 1 3964 3965
4035 1 3965 3966
4036 1 3966 3967
4037 1 3967 3968
4038 1 3968 3969
4039 1 3969 3970
4040 1 3970 3971
4041 1 3971 3972
4042 1 3972 3973
4043 1 3973 3974
4044 1 3974 3975
4045 1 3975 3976
4046 1 3976 3977
4047 1 3977 3978
4048 1 3978 3979
4049 1 114 3960
4050 1 3979 119
4051 1 3980 3981
4052 1 3981 3982
4053 1 3982 3983
4054 1 3983 3984
4055 1 3984 3985
4056 1 3985 3986
4057 1 3986 3987
4058 1 3987 3988
4059 1 3988 3989
4060 1 3989 3990
4061 1 3990 3991
4062 1 3991 3992
4063 1 3992 3993
4064 1 3993 3994
4065 1 3994 3995
4066 1 3995 3996
4067 1 3996 3997
4068 1 3997 3998
4069 1 3998 3999
4070 1 115 3980
4071 1 3999 116
4072 1 4000 4001
4073 1 4001 4002
4074 1 4002 4003
4075 1 4003 4004
4076 1 4004 4005
4077 1 4005 4006
4078 1 4006 4007
4079 1 4007 4008
4080 1 4008 4009
4081 1 4009 4010
4082 1 4010 4011
4083 1 4011 4012
4084 1 4012 4013
4085 1 4013 4014
4086 1 4014 4015
4087 1 4015 4016
4088 1 4016 4017
4089 1 4017 4018
4090 1 4018 4019
4091 1 115 4000
4092 1 4019 120
4093 1 4020 4021
4094 1 4021 4022
4095 1 4022 4023
4096 1 4023 4024
4097 1 4024 4025
4098 1 4025 4026
4099 1 4026 4027
4100 1 4027 4028
4101 1 4028 4029
4102 1 4029 4030
4103 1 4030 4031
4104 1 4031 4032
4105 1 4032 4033
4106 1 4033 4034
4107 1 4034 4035
4108 1 4035 4036
4109 1 4036 4037
4110 1 4037 4038
4111 1 4038 4039
4112 1 116 4020
4113 1 4039 139
4114 1 4040 4041
4115 1 4041 4042
4116 1 4042 4043
4117 1 4043 4044
4118 1 4044 4045
4119 1 4045 4046
4120 1 4046 4047
4121 1 4047 4048
4122 1 4048 4049
4123 1 4049 4050
4124 1 4050 4051
4125 1 4051 4052
4126 1 4052 4053
4127 1 4053 4054
4128 1 4054 4055
4129 1 4055 4056
4130 1 4056 4057
4131 1 4057 4058
4132 1 4058 4059
4133 1 117 4040
4134 1 4059 122
4135 1 4060 4061
4136 1 4061 4062
4137 1 4062 4063
4138 1 4063 4064
4139 1 4064 4065
4140 1 4065 4066
4141 1 4066 4067
4142 1 4067 4068
4143 1 4068 4069
4144 1 4069 4070
4145 1 4070 4071
4146 1 4071 4072
4147 1 4072 4073
4148 1 4073 4074
4149 1 4074 4075
4150 1 4075 4076
4151 1 4076 4077
4152 1 4077 4078
4153 1 4078 4079
4154 1 117 4060
4155 1 4079 121
4156 1 4080 4081
4157 1 4081 4082
4158 1 4082 4083
4159 1 4083 4084
4160 1 4084 4085
4161 1 4085 4086
4162 1 4086 4087
4163 1 4087 4088
4164 1 4088 4089
4165 1 4089 4090
4166 1 4090 4091
4167 1 4091 4092
4168 1 4092 4093
4169 1 4093 4094
4170 1 4094 4095
4171 1 4095 4096
4172 1 4096 4097
4173 1 4097 4098
4174 1 4098 4099
4175 1 118 4080
4176 1 4099 123
4177 1 4100 4101
4178 1 4101 4102
4179 1 4102 4103
4180 1 4103 4104
4181 1 4104 4105
4182 1 4105 4106
4183 1 4106 4107
4184 1 4107 4108
4185 1 4108 4109
4186 1 4109 4110
4187 1 4110 4111
4188 1 4111 4112
4189 1 4112 4113
4190 1 4113 4114
4191 1 4114 4115
4192 1 4115 4116
4193 1 4116 4117
4194 1 4117 4118
4195 1 4118 4119
4196 1 119 4100
4197 1 4119 124
4198 1 4120 4121
4199 1 4121 4122
4200 1 4122 4123
4201 1 4123 4124
4202 1 4124 4125
4203 1 4125 4126
4204 1 4126 4127
4205 1 4127 4128
4206 1 4128 4129
4207 1 4129 4130
4208 1 4130 4131
4209 1 4131 4132
4210 1 4132 4133
4211 1 4133 4134
4212 1 4134 4135
4213 1 4135 4136
4214 1 4136 4137
4215 1 4137 4138
4216 1 4138 4139
4217 1 120 4120
4218 1 4139 125
4219 1 4140 4141
4220 1 4141 4142
4221 1 4142 4143
4222 1 4143 4144
4223 1 4144 4145
4224 1 4145 4146
4225 1 4146 4147
4226 1 4147 4148
4227 1 4148 4149
4228 1 4149 4150
4229 1 4150 4151
4230 1 4151 4152
4231 1 4152 4153
4232 1 4153 4154
4233 1 4154 4155
4234 1 4155 4156
4235 1 4156 4157
4236 1 4157 4158
4237 1 4158 4159
4238 1 121 4140
4239 1 4159 126
4240 1 4160 4161
4241 1 4161 4162
4242 1 4162 4163
4243 1 4163 4164
4244 1 4164 4165
4245 1 4165 4166
4246 1 4166 4167
4247 1 4167 4168
4248 1 4168 4169
4249 1 4169 4170
4250 1 4170 4171
4251 1 4171 4172
4252 1 4172 4173
4253 1 4173 4174
4254 1 4174 4175
4255 1 4175 4176
4256 1 4176 4177
4257 1 4177 4178
4258 1 4178 4179
4259 1 122 4160
4260 1 4179 123
4261 1 4180 4181
4262 1 4181 4182
4263 1 4182 4183
4264 1 4183 4184
4265 1 4184 4185
4266 1 4185 4186
4267 1 4186 4187
4268 1 4187 4188
4269 1 4188 4189
4270 1 4189 4190
4271 1 4190 4191
4272 1 4191 4192
4273 1 4192 4193
4274 1 4193 4194
4275 1 4194 4195
4276 1 4195 4196
4277 1 4196 4197
4278 1 4197 4198
4279 1 4198 4199
4280 1 122 4180
4281 1 4199 127
4282 1 4200 4201
4283 1 4201 4202
4284 1 4202 4203
4285 1 4203 4204
4286 1 4204 4205
4287 1 4205 4206
4288 1 4206 4207
4289 1 4207 4208
4290 1 4208 4209
4291 1 4209 4210
4292 1 4210 4211
4293 1 4211 4212
4294 1 4212 4213
4295 1 4213 4214
4296 1 4214 4215
4297 1 4215 4216
4298 1 4216 4217
4299 1 4217 4218
4300 1 4218 4219
4301 1 123 4200
4302 1 4219 124
4303 1 4220 4221
4304 1 4221 4222
4305 1 4222 4223
4306 1 4223 4224
4307 1 4224 4225
4308 1 4225 4226
4309 1 4226 4227
4310 1 4227 4228
4311 1 4228 4229
4312 1 4229 4230
4313 1 4230 4231
4314 1 4231 4232
4315 1 4232 4233
4316 1 4233 4234
4317 1 4234 4235
4318 1 4235 4236
4319 1 4236 4237
4320 1 4237 4238
4321 1 4238 4239
4322 1 124 4220
4323 1 4239 132
4324 1 4240 4241
4325 1 4241 4242
4326 1 4242 4243
4327 1 4243 4244
4328 1 4244 4245
4329 1 4245 4246
4330 1 4246 4247
4331 1 4247 4248
4332 1 4248 4249
4333 1 4249 4250
4334 1 4250 4251
4335 1 4251 4252
4336 1 4252 4253
4337 1 4253 4254
4338 1 4254 4255
4339 1 4255 4256
4340 1 4256 4257
4341 1 4257 4258
4342 1 4258 4259
4343 1 125 4240
4344 1 4259 126
4345 1 4260 4261
4346 1 4261 4262
4347 1 4262 4263
4348 1 4263 4264
4349 1 4264 4265
4350 1 4265 4266
4351 1 4266 4267
4352 1 4267 4268
4353 1 4268 4269
4354 1 4269 4270
4355 1 4270 4271
4356 1 4271 4272
4357 1 4272 4273
4358 1 4273 4274
4359 1 4274 4275
4360 1 4275 4276
4361 1 4276 4277
4362 1 4277 4278
4363 1 4278 4279
4364 1 125 4260
4365 1 4279 133
4366 1 4280 4281
4367 1 4281 4282
4368 1 4282 4283
4369 1 4283 4284
4370 1 4284 4285
4371 1 4285 4286
4372 1 4286 4287
4373 1 4287 4288
4374 1 4288 4289
4375 1 4289 4290
4376 1 4290 4291
4377 1 4291 4292
4378 1 4292 4293
4379 1 4293 4294
4380 1 4294 4295
4381 1 4295 4296
4382 1 4296 4297
4383 1 4297 4298
4384 1 4298 4299
4385 1 126 4280
4386 1 4299 134
4387 1 4300 4301
4388 1 4301 4302
4389 1 4302 4303
4390 1 4303 4304
4391 1 4304 4305
4392 1 4305 4306
4393 1 4306 4307
4394 1 4307 4308
4395 1 4308 4309
4396 1 4309 4310
4397 1 4310 4311
4398 1 4311 4312
4399 1 4312 4313
4400 1 4313 4314
4401 1 4314 4315
4402 1 4315 4316
4403 1 4316 4317
4404 1 4317 4318
4405 1 4318 4319
4406 1 131 4300
4407 1 4319 132
4408 1 4320 4321
4409 1 4321 4322
4410 1 4322 4323
4411 1 4323 4324
4412 1 4324 4325
4413 1 4325 4326
4414 1 4326 4327
4415 1 4327 4328
4416 1 4328 4329
4417 1 4329 4330
4418 1 4330 4331
4419 1 4331 4332
4420 1 4332 4333
4421 1 4333 4334
4422 1 4334 4335
4423 1 4335 4336
4424 1 4336 4337
4425 1 4337 4338
4426 1 4338 4339
4427 1 131 4320
4428 1 4339 136
4429 1 4340 4341
4430 1 4341 4342
4431 1 4342 4343
4432 1 4343 4344
4433 1 4344 4345
4434 1 4345 4346
4435 1 4346 4347
4436 1 4347 4348
4437 1 4348 4349
4438 1 4349 4350
4439 1 4350 4351
4440 1 4351 4352
4441 1 4352 4353
4442 1 4353 4354
4443 1 4354 4355
4444 1 4355 4356
4445 1 4356 4357
4446 1 4357 4358
4447 1 4358 4359
4448 1 132 4340
4449 1 4359 137
4450 1 4360 4361
4451 1 4361 4362
4452 1 4362 4363
4453 1 4363 4364
4454 1 4364 4365
4455 1 4365 4366
4456 1 4366 4367
4457 1 4367 4368
4458 1 4368 4369
4459 1 4369 4370
4460 1 4370 4371
4461 1 4371 4372
4462 1 4372 4373
4463 1 4373 4374
4464 1 4374 4375
4465 1 4375 4376
4466 1 4376 4377
4467 1 4377 4378
4468 1 4378 4379
4469 1 133 4360
4470 1 4379 138
4471 1 4380 4381
4472 1 4381 4382
4473 1 4382 4383
4474 1 4383 4384
4475 1 4384 4385
4476 1 4385 4386
4477 1 4386 4387
4478 1 4387 4388
4479 1 4388 4389
4480 1 4389 4390
4481 1 4390 4391
4482 1 4391 4392
4483 1 4392 4393
4484 1 4393 4394
4485 1 4394 4395
4486 1 4395 4396
4487 1 4396 4397
4488 1 4397 4398
4489 1 4398 4399
4490 1 135 4380
4491 1 4399 136
4492 1 4400 4401
4493 1 4401 4402
4494 1 4402 4403
4495 1 4403 4404
4496 1 4404 4405
4497 1 4405 4406
4498 1 4406 4407
4499 1 4407 4408
4500 1 4408 4409
4501 1 4409 4410
4502 1 4410 4411
4503 1 4411 4412
4504 1 4412 4413
4505 1 4413 4414
4506 1 4414 4415
4507 1 4415 4416
4508 1 4416 4417
4509 1 4417 4418
4510 1 4418 4419
4511 1 137 4400
4512 1 4419 138
4513 1 4420 4421
4514 1 4421 4422
4515 1 4422 4423
4516 1 4423 4424
4517 1 4424 4425
4518 1 4425 4426
4519 1 4426 4427
4520 1 4427 4428
4521 1 4428 4429
4522 1 4429 4430
4523 1 4430 4431
4524 1 4431 4432
4525 1 4432 4433
4526 1 4433 4434
4527 1 4434 4435
4528 1 4435 4436
4529 1 4436 4437
4530 1 4437 4438
4531 1 4438 4439
4532 1 138 4420
4533 1 4439 139

Angles

1 1 140 1 160
2 1 140 1 180
3 1 160 1 180
4 1 200 2 220
5 1 200 2 240
6 1 220 2 240
7 1 219 3 260
8 1 219 3 280
9 1 219 3 300
10 1 260 3 280
11 1 260 3 300
12 1 280 3 300
13 1 279 4 320
14 1 279 4 340
15 1 279 4 360
16 1 320 4 340
17 1 320 4 360
18 1 340 4 360
19 1 179 5 339
20 1 179 5 380
21 1 179 5 400
22 1 339 5 380
23 1 339 5 400
24 1 380 5 400
25 1 159 6 420
26 1 159 6 440
27 1 159 6 460
28 1 420 6 440
29 1 420 6 460
30 1 440 6 460
31 1 480 7 500
32 1 480 7 520
33 1 480 7 540
34 1 500 7 520
35 1 500 7 540
36 1 520 7 540
37 1 359 8 499
38 1 359 8 560
39 1 359 8 580
40 1 499 8 560
41 1 499 8 580
42 1 560 8 580
43 1 399 9 459
44 1 399 9 579
45 1 399 9 600
46 1 459 9 579
47 1 459 9 600
48 1 579 9 600
49 1 620 10 640
50 1 620 10 660
51 1 640 10 660
52 1 680 11 700
53 1 680 11 720
54 1 700 11 720
55 1 519 12 699
56 1 519 12 740
57 1 519 12 760
58 1 699 12 740
59 1 699 12 760
60 1 740 12 760
61 1 780 13 800
62 1 780 13 820
63 1 800 13 820
64 1 679 14 799
65 1 679 14 840
66 1 799 14 840
67 1 639 15 860
68 1 639 15 880
69 1 639 15 900
70 1 860 15 880
71 1 860 15 900
72 1 880 15 900
73 1 719 16 920
74 1 719 16 940
75 1 920 16 940
76 1 18 17 19
77 1 18 17 20
78 1 18 17 960
79 1 19 17 20
80 1 19 17 960
81 1 20 17 960
82 1 819 21 980
83 1 819 21 1000
84 1 980 21 1000
85 1 859 22 919
86 1 859 22 1020
87 1 859 22 1040
88 1 919 22 1020
89 1 919 22 1040
90 1 1020 22 1040
91 1 199 23 879
92 1 199 23 1060
93 1 199 23 1080
94 1 879 23 1060
95 1 879 23 1080
96 1 1060 23 1080
97 1 259 24 939
98 1 259 24 1079
99 1 259 24 1100
100 1 939 24 1079
101 1 939 24 1100
102 1 1079 24 1100
103 1 319 25 1120
104 1 319 25 1140
105 1 1120 25 1140
106 1 999 26 1139
107 1 999 26 1160
108 1 999 26 1180
109 1 1139 26 1160
110 1 1139 26 1180
111 1 1160 26 1180
112 1 1039 27 1099
113 1 1039 27 1179
114 1 1039 27 1200
115 1 1099 27 1179
116 1 1099 27 1200
117 1 1179 27 1200
118 1 1220 28 1240
119 1 1220 28 1260
120 1 1240 28 1260
121 1 239 29 1280
122 1 239 29 1300
123 1 239 29 1320
124 1 1280 29 1300
125 1 1280 29 1320
126 1 1300 29 1320
127 1 299 30 1299
128 1 299 30 1340
129 1 299 30 1360
130 1 1299 30 1340
131 1 1299 30 1360
132 1 1340 30 1360
133 1 379 31 1380
134 1 379 31 1400
135 1 379 31 1420
136 1 1380 31 1400
137 1 1380 31 1420
138 1 1400 31 1420
139 1 419 32 1259
140 1 419 32 1399
141 1 419 32 1440
142 1 1259 32 1399
143 1 1259 32 1440
144 1 1399 32 1440
145 1 439 33 1460
146 1 439 33 1480
147 1 1460 33 1480
148 1 1319 34 1479
149 1 1319 34 1500
150 1 1319 34 1520
151 1 1479 34 1500
152 1 1479 34 1520
153 1 1500 34 1520
154 1 539 35 1359
155 1 539 35 1540
156 1 539 35 1560
157 1 1359 35 1540
158 1 1359 35 1560
159 1 1540 35 1560
160 1 1419 36 1580
161 1 1419 36 1600
162 1 1580 36 1600
163 1 619 37 1599
164 1 619 37 1620
165 1 1599 37 1620
166 1 659 38 1499
167 1 659 38 1640
168 1 1499 38 1640
169 1 739 39 1519
170 1 739 39 1660
171 1 1519 39 1660
172 1 759 40 1559
173 1 759 40 1680
174 1 759 40 1700
175 1 1559 40 1680
176 1 1559 40 1700
177 1 1680 40 1700
178 1 1699 41 1720
179 1 1699 41 1740
180 1 1699 41 1760
181 1 1720 41 1740
182 1 1720 41 1760
183 1 1740 41 1760
184 1 1639 42 1739
185 1 1639 42 1780
186 1 1639 42 1800
187 1 1739 42 1780
188 1 1739 42 1800
189 1 1780 42 1800
190 1 899 43 1659
191 1 899 43 1820
192 1 899 43 1840
193 1 1659 43 1820
194 1 1659 43 1840
195 1 1820 43 1840
196 1 979 44 1860
197 1 979 44 1880
198 1 1860 44 1880
199 1 1759 45 1879
200 1 1759 45 1900
201 1 1879 45 1900
202 1 1799 46 1859
203 1 1799 46 1920
204 1 1859 46 1920
205 1 1279 47 1839
206 1 1279 47 1940
207 1 1839 47 1940
208 1 1119 48 1339
209 1 1119 48 1960
210 1 1339 48 1960
211 1 50 49 51
212 1 50 49 52
213 1 50 49 1159
214 1 51 49 52
215 1 51 49 1159
216 1 52 49 1159
217 1 1199 53 1439
218 1 1199 53 1919
219 1 1199 53 1980
220 1 1439 53 1919
221 1 1439 53 1980
222 1 1919 53 1980
223 1 1939 54 1999
224 1 1939 54 2000
225 1 1999 54 2000
226 1 56 55 57
227 1 56 55 58
228 1 56 55 1239
229 1 57 55 58
230 1 57 55 1239
231 1 58 55 1239
232 1 1379 59 2020
233 1 1379 59 2040
234 1 1379 59 2060
235 1 2020 59 2040
236 1 2020 59 2060
237 1 2040 59 2060
238 1 2039 60 2080
239 1 2039 60 2100
240 1 2039 60 2120
241 1 2080 60 2100
242 1 2080 60 2120
243 1 2100 60 2120
244 1 1459 61 2140
245 1 1459 61 2160
246 1 1459 61 2180
247 1 2140 61 2160
248 1 2140 61 2180
249 1 2160 61 2180
250 1 2200 62 2220
251 1 2200 62 2240
252 1 2200 62 2260
253 1 2220 62 2240
254 1 2220 62 2260
255 1 2240 62 2260
256 1 1539 63 2219
257 1 1539 63 2280
258 1 1539 63 2300
259 1 2219 63 2280
260 1 2219 63 2300
261 1 2280 63 2300
262 1 1579 64 2059
263 1 1579 64 2320
264 1 2059 64 2320
265 1 1619 65 2099
266 1 1619 65 2339
267 1 2099 65 2339
268 1 2159 66 2279
269 1 2159 66 2340
270 1 2159 66 2360
271 1 2279 66 2340
272 1 2279 66 2360
273 1 2340 66 2360
274 1 2239 67 2380
275 1 2239 67 2400
276 1 2380 67 2400
277 1 1679 68 2299
278 1 1679 68 2420
279 1 1679 68 2440
280 1 2299 68 2420
281 1 2299 68 2440
282 1 2420 68 2440
283 1 1719 69 2460
284 1 1719 69 2480
285 1 1719 69 2500
286 1 2460 69 2480
287 1 2460 69 2500
288 1 2480 69 2500
289 1 1779 70 2479
290 1 1779 70 2520
291 1 1779 70 2540
292 1 2479 70 2520
293 1 2479 70 2540
294 1 2520 70 2540
295 1 1819 71 2359
296 1 1819 71 2419
297 1 1819 71 2560
298 1 2359 71 2419
299 1 2359 71 2560
300 1 2419 71 2560
301 1 2439 72 2580
302 1 2439 72 2600
303 1 2580 72 2600
304 1 1899 73 2499
305 1 1899 73 2620
306 1 1899 73 2640
307 1 2499 73 2620
308 1 2499 73 2640
309 1 2620 73 2640
310 1 2539 74 2639
311 1 2539 74 2660
312 1 2539 74 2680
313 1 2639 74 2660
314 1 2639 74 2680
315 1 2660 74 2680
316 1 2579 75 2679
317 1 2579 75 2700
318 1 2679 75 2700
319 1 1959 76 2720
320 1 1959 76 2740
321 1 2720 76 2740
322 1 1979 77 2599
323 1 1979 77 2739
324 1 1979 77 2760
325 1 2599 77 2739
326 1 2599 77 2760
327 1 2739 77 2760
328 1 79 78 80
329 1 79 78 81
330 1 79 78 2779
331 1 80 78 81
332 1 80 78 2779
333 1 81 78 2779
334 1 2139 82 2699
335 1 2139 82 2780
336 1 2139 82 2800
337 1 2139 82 2820
338 1 2699 82 2780
339 1 2699 82 2800
340 1 2699 82 2820
341 1 2780 82 2800
342 1 2780 82 2820
343 1 2800 82 2820
344 1 2019 83 2199
345 1 2019 83 2799
346 1 2019 83 2819
347 1 2019 83 2840
348 1 2199 83 2799
349 1 2199 83 2819
350 1 2199 83 2840
351 1 2799 83 2819
352 1 2799 83 2840
353 1 2819 83 2840
354 1 85 84 86
355 1 85 84 87
356 1 85 84 2860
357 1 86 84 87
358 1 86 84 2860
359 1 87 84 2860
360 1 2879 88 2880
361 1 2879 88 2900
362 1 2880 88 2900
363 1 2079 89 2920
364 1 2079 89 2940
365 1 2079 89 2960
366 1 2920 89 2940
367 1 2920 89 2960
368 1 2940 89 2960
369 1 2119 90 2939
370 1 2119 90 2980
371 1 2119 90 3000
372 1 2939 90 2980
373 1 2939 90 3000
374 1 2980 90 3000
375 1 2179 91 3020
376 1 2179 91 3040
377 1 2179 91 3060
378 1 3020 91 3040
379 1 3020 91 3060
380 1 3040 91 3060
381 1 2259 92 3080
382 1 2259 92 3100
383 1 2259 92 3120
384 1 3080 92 3100
385 1 3080 92 3120
386 1 3100 92 3120
387 1 2319 93 3099
388 1 2319 93 3119
389 1 2319 93 3140
390 1 2319 93 3160
391 1 3099 93 3119
392 1 3099 93 3140
393 1 3099 93 3160
394 1 3119 93 3140
395 1 3119 93 3160
396 1 3140 93 3160
397 1 3159 94 3180
398 1 3159 94 3200
399 1 3159 94 3220
400 1 3180 94 3200
401 1 3180 94 3220
402 1 3200 94 3220
403 1 2999 95 3199
404 1 2999 95 3240
405 1 3199 95 3240
406 1 2379 96 3260
407 1 2379 96 3280
408 1 3260 96 3280
409 1 2399 97 3300
410 1 2399 97 3320
411 1 2399 97 3340
412 1 3300 97 3320
413 1 3300 97 3340
414 1 3320 97 3340
415 1 2459 98 3360
416 1 2459 98 3380
417 1 2459 98 3400
418 1 3360 98 3380
419 1 3360 98 3400
420 1 3380 98 3400
421 1 2519 99 3219
422 1 2519 99 3379
423 1 2519 99 3399
424 1 2519 99 3420
425 1 3219 99 3379
426 1 3219 99 3399
427 1 3219 99 3420
428 1 3379 99 3399
429 1 3379 99 3420
430 1 3399 99 3420
431 1 2559 100 3259
432 1 2559 100 3440
433 1 2559 100 3460
434 1 3259 100 3440
435 1 3259 100 3460
436 1 3440 100 3460
437 1 3279 101 3359
438 1 3279 101 3459
439 1 3279 101 3480
440 1 3359 101 3459
441 1 3359 101 3480
442 1 3459 101 3480
443 1 3319 102 3500
444 1 3319 102 3520
445 1 3500 102 3520
446 1 2619 103 3519
447 1 2619 103 3540
448 1 2619 103 3560
449 1 3519 103 3540
450 1 3519 103 3560
451 1 3540 103 3560
452 1 2659 104 3439
453 1 2659 104 3580
454 1 3439 104 3580
455 1 3479 105 3600
456 1 3479 105 3620
457 1 3479 105 3640
458 1 3479 105 3660
459 1 3600 105 3620
460 1 3600 105 3640
461 1 3600 105 3660
462 1 3620 105 3640
463 1 3620 105 3660
464 1 3640 105 3660
465 1 2719 106 3539
466 1 2719 106 3619
467 1 2719 106 3680
468 1 3539 106 3619
469 1 3539 106 3680
470 1 3619 106 3680
471 1 2759 107 3700
472 1 2759 107 3720
473 1 2759 107 3740
474 1 3700 107 3720
475 1 3700 107 3740
476 1 3720 107 3740
477 1 2919 108 3559
478 1 2919 108 3719
479 1 2919 108 3760
480 1 3559 108 3719
481 1 3559 108 3760
482 1 3719 108 3760
483 1 2979 109 3780
484 1 2979 109 3800
485 1 3780 109 3800
486 1 2839 110 3639
487 1 2839 110 3799
488 1 2839 110 3820
489 1 3639 110 3799
490 1 3639 110 3820
491 1 3799 110 3820
492 1 2859 111 3059
493 1 2859 111 3079
494 1 2859 111 3759
495 1 3059 111 3079
496 1 3059 111 3759
497 1 3079 111 3759
498 1 3840 112 3860
499 1 3840 112 3880
500 1 3860 112 3880
501 1 2899 113 3859
502 1 2899 113 3900
503 1 2899 113 3920
504 1 3859 113 3900
505 1 3859 113 3920
506 1 3900 113 3920
507 1 2959 114 3940
508 1 2959 114 3960
509 1 3940 114 3960
510 1 3019 115 3959
511 1 3019 115 3980
512 1 3019 115 4000
513 1 3959 115 3980
514 1 3959 115 4000
515 1 3980 115 4000
516 1 3039 116 3879
517 1 3039 116 3999
518 1 3039 116 4020
519 1 3879 116 3999
520 1 3879 116 4020
521 1 3999 116 4020
522 1 479 117 3139
523 1 479 117 4040
524 1 479 117 4060
525 1 3139 117 4040
526 1 3139 117 4060
527 1 4040 117 4060
528 1 3179 118 3919
529 1 3179 118 4080
530 1 3919 118 4080
531 1 559 119 3239
532 1 559 119 3979
533 1 559 119 4100
534 1 3239 119 3979
535 1 3239 119 4100
536 1 3979 119 4100
537 1 599 120 4019
538 1 599 120 4120
539 1 4019 120 4120
540 1 3299 121 4079
541 1 3299 121 4140
542 1 4079 121 4140
543 1 3339 122 4059
544 1 3339 122 4160
545 1 3339 122 4180
546 1 4059 122 4160
547 1 4059 122 4180
548 1 4160 122 4180
549 1 3419 123 4099
550 1 3419 123 4179
551 1 3419 123 4200
552 1 4099 123 4179
553 1 4099 123 4200
554 1 4179 123 4200
555 1 779 124 4119
556 1 779 124 4219
557 1 779 124 4220
558 1 4119 124 4219
559 1 4119 124 4220
560 1 4219 124 4220
561 1 839 125 4139
562 1 839 125 4240
563 1 839 125 4260
564 1 4139 125 4240
565 1 4139 125 4260
566 1 4240 125 4260
567 1 3499 126 4159
568 1 3499 126 4259
569 1 3499 126 4280
570 1 4159 126 4259
571 1 4159 126 4280
572 1 4259 126 4280
573 1 128 127 129
574 1 128 127 130
575 1 128 127 4199
576 1 129 127 130
577 1 129 127 4199
578 1 130 127 4199
579 1 959 131 3579
580 1 959 131 4300
581 1 959 131 4320
582 1 3579 131 4300
583 1 3579 131 4320
584 1 4300 131 4320
585 1 3599 132 4239
586 1 3599 132 4319
587 1 3599 132 4340
588 1 4239 132 4319
589 1 4239 132 4340
590 1 4319 132 4340
591 1 1019 133 3659
592 1 1019 133 3679
593 1 1019 133 4279
594 1 1019 133 4360
595 1 3659 133 3679
596 1 3659 133 4279
597 1 3659 133 4360
598 1 3679 133 4279
599 1 3679 133 4360
600 1 4279 133 4360
601 1 1059 134 3699
602 1 1059 134 4299
603 1 3699 134 4299
604 1 3739 135 3899
605 1 3739 135 4380
606 1 3899 135 4380
607 1 3779 136 3939
608 1 3779 136 4339
609 1 3779 136 4399
610 1 3939 136 4339
611 1 3939 136 4399
612 1 4339 136 4399
613 1 3819 137 4359
614 1 3819 137 4400
615 1 4359 137 4400
616 1 3839 138 4379
617 1 3839 138 4419
618 1 3839 138 4420
619 1 4379 138 4419
620 1 4379 138 4420
621 1 4419 138 4420
622 1 1219 139 4039
623 1 1219 139 4439
624 1 4039 139 4439
625 1 141 140 1
626 1 140 141 142
627 1 141 142 143
628 1 142 143 144
629 1 143 144 145
630 1 144 145 146
631 1 145 146 147
632 1 146 147 148
633 1 147 148 149
634 1 148 149 150
635 1 149 150 151
636 1 150 151 152
637 1 151 152 153
638 1 152 153 154
639 1 153 154 155
640 1 154 155 156
641 1 155 156 157
642 1 156 157 158
643 1 157 158 159
644 1 158 159 6
645 1 161 160 1
646 1 160 161 162
647 1 161 162 163
648 1 162 163 164
649 1 163 164 165
650 1 164 165 166
651 1 165 166 167
652 1 166 167 168
653 1 167 168 169
654 1 168 169 170
655 1 169 170 171
656 1 170 171 172
657 1 171 172 173
658 1 172 173 174
659 1 173 174 175
660 1 174 175 176
661 1 175 176 177
662 1 176 177 178
663 1 177 178 179
664 1 178 179 5
665 1 181 180 1
666 1 180 181 182
667 1 181 182 183
668 1 182 183 184
669 1 183 184 185
670 1 184 185 186
671 1 185 186 187
672 1 186 187 188
673 1 187 188 189
674 1 188 189 190
675 1 189 190 191
676 1 190 191 192
677 1 191 192 193
678 1 192 193 194
679 1 193 194 195
680 1 194 195 196
681 1 195 196 197
682 1 196 197 198
683 1 197 198 199
684 1 198 199 23
685 1 201 200 2
686 1 200 201 202
687 1 201 202 203
688 1 202 203 204
689 1 203 204 205
690 1 204 205 206
691 1 205 206 207
692 1 206 207 208
693 1 207 208 209
694 1 208 209 210
695 1 209 210 211
696 1 210 211 212
697 1 211 212 213
698 1 212 213 214
699 1 213 214 215
700 1 214 215 216
701 1 215 216 217
702 1 216 217 218
703 1 217 218 219
704 1 218 219 3
705 1 221 220 2
706 1 220 221 222
707 1 221 222 223
708 1 222 223 224
709 1 223 224 225
710 1 224 225 226
711 1 225 226 227
712 1 226 227 228
713 1 227 228 229
714 1 228 229 230
715 1 229 230 231
716 1 230 231 232
717 1 231 232 233
718 1 232 233 234
719 1 233 234 235
720 1 234 235 236
721 1 235 236 237
722 1 236 237 238
723 1 237 238 239
724 1 238 239 29
725 1 241 240 2
726 1 240 241 242
727 1 241 242 243
728 1 242 243 244
729 1 243 244 245
730 1 244 245 246
731 1 245 246 247
732 1 246 247 248
733 1 247 248 249
734 1 248 249 250
735 1 249 250 251
736 1 250 251 252
737 1 251 252 253
738 1 252 253 254
739 1 253 254 255
740 1 254 255 256
741 1 255 256 257
742 1 256 257 258
743 1 257 258 259
744 1 258 259 24
745 1 261 260 3
746 1 260 261 262
747 1 261 262 263
748 1 262 263 264
749 1 263 264 265
750 1 264 265 266
751 1 265 266 267
752 1 266 267 268
753 1 267 268 269
754 1 268 269 270
755 1 269 270 271
756 1 270 271 272
757 1 271 272 273
758 1 272 273 274
759 1 273 274 275
760 1 274 275 276
761 1 275 276 277
762 1 276 277 278
763 1 277 278 279
764 1 278 279 4
765 1 281 280 3
766 1 280 281 282
767 1 281 282 283
768 1 282 283 284
769 1 283 284 285
770 1 284 285 286
771 1 285 286 287
772 1 286 287 288
773 1 287 288 289
774 1 288 289 290
775 1 289 290 291
776 1 290 291 292
777 1 291 292 293
778 1 292 293 294
779 1 293 294 295
780 1 294 295 296
781 1 295 296 297
782 1 296 297 298
783 1 297 298 299
784 1 298 299 30
785 1 301 300 3
786 1 300 301 302
787 1 301 302 303
788 1 302 303 304
789 1 303 304 305
790 1 304 305 306
791 1 305 306 307
792 1 306 307 308
793 1 307 308 309
794 1 308 309 310
795 1 309 310 311
796 1 310 311 312
797 1 311 312 313
798 1 312 313 314
799 1 313 314 315
800 1 314 315 316
801 1 315 316 317
802 1 316 317 318
803 1 317 318 319
804 1 318 319 25
805 1 321 320 4
806 1 320 321 322
807 1 321 322 323
808 1 322 323 324
809 1 323 324 325
810 1 324 325 326
811 1 325 326 327
812 1 326 327 328
813 1 327 328 329
814 1 328 329 330
815 1 329 330 331
816 1 330 331 332
817 1 331 332 333
818 1 332 333 334
819 1 333 334 335
820 1 334 335 336
821 1 335 336 337
822 1 336 337 338
823 1 337 338 339
824 1 338 339 5
825 1 341 340 4
826 1 340 341 342
827 1 341 342 343
828 1 342 343 344
829 1 343 344 345
830 1 344 345 346
831 1 345 346 347
832 1 346 347 348
833 1 347 348 349
834 1 348 349 350
835 1 349 350 351
836 1 350 351 352
837 1 351 352 353
838 1 352 353 354
839 1 353 354 355
840 1 354 355 356
841 1 355 356 357
842 1 356 357 358
843 1 357 358 359
844 1 358 359 8
845 1 361 360 4
846 1 360 361 362
847 1 361 362 363
848 1 362 363 364
849 1 363 364 365
850 1 364 365 366
851 1 365 366 367
852 1 366 367 368
853 1 367 368 369
854 1 368 369 370
855 1 369 370 371
856 1 370 371 372
857 1 371 372 373
858 1 372 373 374
859 1 373 374 375
860 1 374 375 376
861 1 375 376 377
862 1 376 377 378
863 1 377 378 379
864 1 378 379 31
865 1 381 380 5
866 1 380 381 382
867 1 381 382 383
868 1 382 383 384
869 1 383 384 385
870 1 384 385 386
871 1 385 386 387
872 1 386 387 388
873 1 387 388 389
874 1 388 389 390
875 1 389 390 391
876 1 390 391 392
877 1 391 392 393
878 1 392 393 394
879 1 393 394 395
880 1 394 395 396
881 1 395 396 397
882 1 396 397 398
883 1 397 398 399
884 1 398 399 9
885 1 401 400 5
886 1 400 401 402
887 1 401 402 403
888 1 402 403 404
889 1 403 404 405
890 1 404 405 406
891 1 405 406 407
892 1 406 407 408
893 1 407 408 409
894 1 408 409 410
895 1 409 410 411
896 1 410 411 412
897 1 411 412 413
898 1 412 413 414
899 1 413 414 415
900 1 414 415 416
901 1 415 416 417
902 1 416 417 418
903 1 417 418 419
904 1 418 419 32
905 1 421 420 6
906 1 420 421 422
907 1 421 422 423
908 1 422 423 424
909 1 423 424 425
910 1 424 425 426
911 1 425 426 427
912 1 426 427 428
913 1 427 428 429
914 1 428 429 430
915 1 429 430 431
916 1 430 431 432
917 1 431 432 433
918 1 432 433 434
919 1 433 434 435
920 1 434 435 436
921 1 435 436 437
922 1 436 437 438
923 1 437 438 439
924 1 438 439 33
925 1 441 440 6
926 1 440 441 442
927 1 441 442 443
928 1 442 443 444
929 1 443 444 445
930 1 444 445 446
931 1 445 446 447
932 1 446 447 448
933 1 447 448 449
934 1 448 449 450
935 1 449 450 451
936 1 450 451 452
937 1 451 452 453
938 1 452 453 454
939 1 453 454 455
940 1 454 455 456
941 1 455 456 457
942 1 456 457 458
943 1 457 458 459
944 1 458 459 9
945 1 461 460 6
946 1 460 461 462
947 1 461 462 463
948 1 462 463 464
949 1 463 464 465
950 1 464 465 466
951 1 465 466 467
952 1 466 467 468
953 1 467 468 469
954 1 468 469 470
955 1 469 470 471
956 1 470 471 472
957 1 471 472 473
958 1 472 473 474
959 1 473 474 475
960 1 474 475 476
961 1 475 476 477
962 1 476 477 478
963 1 477 478 479
964 1 478 479 117
965 1 481 480 7
966 1 480 481 482
967 1 481 482 483
968 1 482 483 484
969 1 483 484 485
970 1 484 485 486
971 1 485 486 487
972 1 486 487 488
973 1 487 488 489
974 1 488 489 490
975 1 489 490 491
976 1 490 491 492
977 1 491 492 493
978 1 492 493 494
979 1 493 494 495
980 1 494 495 496
981 1 495 496 497
982 1 496 497 498
983 1 497 498 499
984 1 498 499 8
985 1 501 500 7
986 1 500 501 502
987 1 501 502 503
988 1 502 503 504
989 1 503 504 505
990 1 504 505 506
991 1 505 506 507
992 1 506 507 508
993 1 507 508 509
994 1 508 509 510
995 1 509 510 511
996 1 510 511 512
997 1 511 512 513
998 1 512 513 514
999 1 513 514 515
1000 1 514 515 516
1001 1 515 516 517
1002 1 516 517 518
1003 1 517 518 519
1004 1 518 519 12
1005 1 521 520 7
1006 1 520 521 522
1007 1 521 522 523
1008 1 522 523 524
1009 1 523 524 525
1010 1 524 525 526
1011 1 525 526 527
1012 1 526 527 528
1013 1 527 528 529
1014 1 528 529 530
1015 1 529 530 531
1016 1 530 531 532
1017 1 531 532 533
1018 1 532 533 534
1019 1 533 534 535
1020 1 534 535 536
1021 1 535 536 537
1022 1 536 537 538
1023 1 537 538 539
1024 1 538 539 35
1025 1 541 540 7
1026 1 540 541 542
1027 1 541 542 543
1028 1 542 543 544
1029 1 543 544 545
1030 1 544 545 546
1031 1 545 546 547
1032 1 546 547 548
1033 1 547 548 549
1034 1 548 549 550
1035 1 549 550 551
1036 1 550 551 552
1037 1 551 552 553
1038 1 552 553 554
1039 1 553 554 555
1040 1 554 555 556
1041 1 555 556 557
1042 1 556 557 558
1043 1 557 558 559
1044 1 558 559 119
1045 1 561 560 8
1046 1 560 561 562
1047 1 561 562 563
1048 1 562 563 564
1049 1 563 564 565
1050 1 564 565 566
1051 1 565 566 567
1052 1 566 567 568
1053 1 567 568 569
1054 1 568 569 570
1055 1 569 570 571
1056 1 570 571 572
1057 1 571 572 573
1058 1 572 573 574
1059 1 573 574 575
1060 1 574 575 576
1061 1 575 576 577
1062 1 576 577 578
1063 1 577 578 579
1064 1 578 579 9
1065 1 581 580 8
1066 1 580 581 582
1067 1 581 582 583
1068 1 582 583 584
1069 1 583 584 585
1070 1 584 585 586
1071 1 585 586 587
1072 1 586 587 588
1073 1 587 588 589
1074 1 588 589 590
1075 1 589 590 591
1076 1 590 591 592
1077 1 591 592 593
1078 1 592 593 594
1079 1 593 594 595
1080 1 594 595 596
1081 1 595 596 597
1082 1 596 597 598
1083 1 597 598 599
1084 1 598 599 120
1085 1 601 600 9
1086 1 600 601 602
1087 1 601 602 603
1088 1 602 603 604
1089 1 603 604 605
1090 1 604 605 606
1091 1 605 606 607
1092 1 606 607 608
1093 1 607 608 609
1094 1 608 609 610
1095 1 609 610 611
1096 1 610 611 612
1097 1 611 612 613
1098 1 612 613 614
1099 1 613 614 615
1100 1 614 615 616
1101 1 615 616 617
1102 1 616 617 618
1103 1 617 618 619
1104 1 618 619 37
1105 1 621 620 10
1106 1 620 621 622
1107 1 621 622 623
1108 1 622 623 624
1109 1 623 624 625
1110 1 624 625 626
1111 1 625 626 627
1112 1 626 627 628
1113 1 627 628 629
1114 1 628 629 630
1115 1 629 630 631
1116 1 630 631 632
1117 1 631 632 633
1118 1 632 633 634
1119 1 633 634 635
1120 1 634 635 636
1121 1 635 636 637
1122 1 636 637 638
1123 1 637 638 639
1124 1 638 639 15
1125 1 641 640 10
1126 1 640 641 642
1127 1 641 642 643
1128 1 642 643 644
1129 1 643 644 645
1130 1 644 645 646
1131 1 645 646 647
1132 1 646 647 648
1133 1 647 648 649
1134 1 648 649 650
1135 1 649 650 651
1136 1 650 651 652
1137 1 651 652 653
1138 1 652 653 654
1139 1 653 654 655
1140 1 654 655 656
1141 1 655 656 657
1142 1 656 657 658
1143 1 657 658 659
1144 1 658 659 38
1145 1 661 660 10
1146 1 660 661 662
1147 1 661 662 663
1148 1 662 663 664
1149 1 663 664 665
1150 1 664 665 666
1151 1 665 666 667
1152 1 666 667 668
1153 1 667 668 669
1154 1 668 669 670
1155 1 669 670 671
1156 1 670 671 672
1157 1 671 672 673
1158 1 672 673 674
1159 1 673 674 675
1160 1 674 675 676
1161 1 675 676 677
1162 1 676 677 678
1163 1 677 678 679
1164 1 678 679 14
1165 1 681 680 11
1166 1 680 681 682
1167 1 681 682 683
1168 1 682 683 684
1169 1 683 684 685
1170 1 684 685 686
1171 1 685 686 687
1172 1 686 687 688
1173 1 687 688 689
1174 1 688 689 690
1175 1 689 690 691
1176 1 690 691 692
1177 1 691 692 693
1178 1 692 693 694
1179 1 693 694 695
1180 1 694 695 696
1181 1 695 696 697
1182 1 696 697 698
1183 1 697 698 699
1184 1 698 699 12
1185 1 701 700 11
1186 1 700 701 702
1187 1 701 702 703
1188 1 702 703 704
1189 1 703 704 705
1190 1 704 705 706
1191 1 705 706 707
1192 1 706 707 708
1193 1 707 708 709
1194 1 708 709 710
1195 1 709 710 711
1196 1 710 711 712
1197 1 711 712 713
1198 1 712 713 714
1199 1 713 714 715
1200 1 714 715 716
1201 1 715 716 717
1202 1 716 717 718
1203 1 717 718 719
1204 1 718 719 16
1205 1 721 720 11
1206 1 720 721 722
1207 1 721 722 723
1208 1 722 723 724
1209 1 723 724 725
1210 1 724 725 726
1211 1 725 726 727
1212 1 726 727 728
1213 1 727 728 729
1214 1 728 729 730
1215 1 729 730 731
1216 1 730 731 732
1217 1 731 732 733
1218 1 732 733 734
1219 1 733 734 735
1220 1 734 735 736
1221 1 735 736 737
1222 1 736 737 738
1223 1 737 738 739
1224 1 738 739 39
1225 1 741 740 12
1226 1 740 741 742
1227 1 741 742 743
1228 1 742 743 744
1229 1 743 744 745
1230 1 744 745 746
1231 1 745 746 747
1232 1 746 747 748
1233 1 747 748 749
1234 1 748 749 750
1235 1 749 750 751
1236 1 750 751 752
1237 1 751 752 753
1238 1 752 753 754
1239 1 753 754 755
1240 1 754 755 756
1241 1 755 756 757
1242 1 756 757 758
1243 1 757 758 759
1244 1 758 759 40
1245 1 761 760 12
1246 1 760 761 762
1247 1 761 762 763
1248 1 762 763 764
1249 1 763 764 765
1250 1 764 765 766
1251 1 765 766 767
1252 1 766 767 768
1253 1 767 768 769
1254 1 768 769 770
1255 1 769 770 771
1256 1 770 771 772
1257 1 771 772 773
1258 1 772 773 774
1259 1 773 774 775
1260 1 774 775 776
1261 1 775 776 777
1262 1 776 777 778
1263 1 777 778 779
1264 1 778 779 124
1265 1 781 780 13
1266 1 780 781 782
1267 1 781 782 783
1268 1 782 783 784
1269 1 783 784 785
1270 1 784 785 786
1271 1 785 786 787
1272 1 786 787 788
1273 1 787 788 789
1274 1 788 789 790
1275 1 789 790 791
1276 1 790 791 792
1277 1 791 792 793
1278 1 792 793 794
1279 1 793 794 795
1280 1 794 795 796
1281 1 795 796 797
1282 1 796 797 798
1283 1 797 798 799
1284 1 798 799 14
1285 1 801 800 13
1286 1 800 801 802
1287 1 801 802 803
1288 1 802 803 804
1289 1 803 804 805
1290 1 804 805 806
1291 1 805 806 807
1292 1 806 807 808
1293 1 807 808 809
1294 1 808 809 810
1295 1 809 810 811
1296 1 810 811 812
1297 1 811 812 813
1298 1 812 813 814
1299 1 813 814 815
1300 1 814 815 816
1301 1 815 816 817
1302 1 816 817 818
1303 1 817 818 819
1304 1 818 819 21
1305 1 821 820 13
1306 1 820 821 822
1307 1 821 822 823
1308 1 822 823 824
1309 1 823 824 825
1310 1 824 825 826
1311 1 825 826 827
1312 1 826 827 828
1313 1 827 828 829
1314 1 828 829 830
1315 1 829 830 831
1316 1 830 831 832
1317 1 831 832 833
1318 1 832 833 834
1319 1 833 834 835
1320 1 834 835 836
1321 1 835 836 837
1322 1 836 837 838
1323 1 837 838 839
1324 1 838 839 125
1325 1 841 840 14
1326 1 840 841 842
1327 1 841 842 843
1328 1 842 843 844
1329 1 843 844 845
1330 1 844 845 846
1331 1 845 846 847
1332 1 846 847 848
1333 1 847 848 849
1334 1 848 849 850
1335 1 849 850 851
1336 1 850 851 852
1337 1 851 852 853
1338 1 852 853 854
1339 1 853 854 855
1340 1 854 855 856
1341 1 855 856 857
1342 1 856 857 858
1343 1 857 858 859
1344 1 858 859 22
1345 1 861 860 15
1346 1 860 861 862
1347 1 861 862 863
1348 1 862 863 864
1349 1 863 864 865
1350 1 864 865 866
1351 1 865 866 867
1352 1 866 867 868
1353 1 867 868 869
1354 1 868 869 870
1355 1 869 870 871
1356 1 870 871 872
1357 1 871 872 873
1358 1 872 873 874
1359 1 873 874 875
1360 1 874 875 876
1361 1 875 876 877
1362 1 876 877 878
1363 1 877 878 879
1364 1 878 879 23
1365 1 881 880 15
1366 1 880 881 882
1367 1 881 882 883
1368 1 882 883 884
1369 1 883 884 885
1370 1 884 885 886
1371 1 885 886 887
1372 1 886 887 888
1373 1 887 888 889
1374 1 888 889 890
1375 1 889 890 891
1376 1 890 891 892
1377 1 891 892 893
1378 1 892 893 894
1379 1 893 894 895
1380 1 894 895 896
1381 1 895 896 897
1382 1 896 897 898
1383 1 897 898 899
1384 1 898 899 43
1385 1 901 900 15
1386 1 900 901 902
1387 1 901 902 903
1388 1 902 903 904
1389 1 903 904 905
1390 1 904 905 906
1391 1 905 906 907
1392 1 906 907 908
1393 1 907 908 909
1394 1 908 909 910
1395 1 909 910 911
1396 1 910 911 912
1397 1 911 912 913
1398 1 912 913 914
1399 1 913 914 915
1400 1 914 915 916
1401 1 915 916 917
1402 1 916 917 918
1403 1 917 918 919
1404 1 918 919 22
1405 1 921 920 16
1406 1 920 921 922
1407 1 921 922 923
1408 1 922 923 924
1409 1 923 924 925
1410 1 924 925 926
1411 1 925 926 927
1412 1 926 927 928
1413 1 927 928 929
1414 1 928 929 930
1415 1 929 930 931
1416 1 930 931 932
1417 1 931 932 933
1418 1 932 933 934
1419 1 933 934 935
1420 1 934 935 936
1421 1 935 936 937
1422 1 936 937 938
1423 1 937 938 939
1424 1 938 939 24
1425 1 941 940 16
1426 1 940 941 942
1427 1 941 942 943
1428 1 942 943 944
1429 1 943 944 945
1430 1 944 945 946
1431 1 945 946 947
1432 1 946 947 948
1433 1 947 948 949
1434 1 948 949 950
1435 1 949 950 951
1436 1 950 951 952
1437 1 951 952 953
1438 1 952 953 954
1439 1 953 954 955
1440 1 954 955 956
1441 1 955 956 957
1442 1 956 957 958
1443 1 957 958 959
1444 1 958 959 131
1445 1 961 960 17
1446 1 960 961 962
1447 1 961 962 963
1448 1 962 963 964
1449 1 963 964 965
1450 1 964 965 966
1451 1 965 966 967
1452 1 966 967 968
1453 1 967 968 969
1454 1 968 969 970
1455 1 969 970 971
1456 1 970 971 972
1457 1 971 972 973
1458 1 972 973 974
1459 1 973 974 975
1460 1 974 975 976
1461 1 975 976 977
1462 1 976 977 978
1463 1 977 978 979
1464 1 978 979 44
1465 1 981 980 21
1466 1 980 981 982
1467 1 981 982 983
1468 1 982 983 984
1469 1 983 984 985
1470 1 984 985 986
1471 1 985 986 987
1472 1 986 987 988
1473 1 987 988 989
1474 1 988 989 990
1475 1 989 990 991
1476 1 990 991 992
1477 1 991 992 993
1478 1 992 993 994
1479 1 993 994 995
1480 1 994 995 996
1481 1 995 996 997
1482 1 996 997 998
1483 1 997 998 999
1484 1 998 999 26
1485 1 1001 1000 21
1486 1 1000 1001 1002
1487 1 1001 1002 1003
1488 1 1002 1003 1004
1489 1 1003 1004 1005
1490 1 1004 1005 1006
1491 1 1005 1006 1007
1492 1 1006 1007 1008
1493 1 1007 1008 1009
1494 1 1008 1009 1010
1495 1 1009 1010 1011
1496 1 1010 1011 1012
1497 1 1011 1012 1013
1498 1 1012 1013 1014
1499 1 1013 1014 1015
1500 1 1014 1015 1016
1501 1 1015 1016 1017
1502 1 1016 1017 1018
1503 1 1017 1018 1019
1504 1 1018 1019 133
1505 1 1021 1020 22
1506 1 1020 1021 1022
1507 1 1021 1022 1023
1508 1 1022 1023 1024
1509 1 1023 1024 1025
1510 1 1024 1025 1026
1511 1 1025 1026 1027
1512 1 1026 1027 1028
1513 1 1027 1028 1029
1514 1 1028 1029 1030
1515 1 1029 1030 1031
1516 1 1030 1031 1032
1517 1 1031 1032 1033
1518 1 1032 1033 1034
1519 1 1033 1034 1035
1520 1 1034 1035 1036
1521 1 1035 1036 1037
1522 1 1036 1037 1038
1523 1 1037 1038 1039
1524 1 1038 1039 27
1525 1 1041 1040 22
1526 1 1040 1041 1042
1527 1 1041 1042 1043
1528 1 1042 1043 1044
1529 1 1043 1044 1045
1530 1 1044 1045 1046
1531 1 1045 1046 1047
1532 1 1046 1047 1048
1533 1 1047 1048 1049
1534 1 1048 1049 1050
1535 1 1049 1050 1051
1536 1 1050 1051 1052
1537 1 1051 1052 1053
1538 1 1052 1053 1054
1539 1 1053 1054 1055
1540 1 1054 1055 1056
1541 1 1055 1056 1057
1542 1 1056 1057 1058
1543 1 1057 1058 1059
1544 1 1058 1059 134
1545 1 1061 1060 23
1546 1 1060 1061 1062
1547 1 1061 1062 1063
1548 1 1062 1063 1064
1549 1 1063 1064 1065
1550 1 1064 1065 1066
1551 1 1065 1066 1067
1552 1 1066 1067 1068
1553 1 1067 1068 1069
1554 1 1068 1069 1070
1555 1 1069 1070 1071
1556 1 1070 1071 1072
1557 1 1071 1072 1073
1558 1 1072 1073 1074
1559 1 1073 1074 1075
1560 1 1074 1075 1076
1561 1 1075 1076 1077
1562 1 1076 1077 1078
1563 1 1077 1078 1079
1564 1 1078 1079 24
1565 1 1081 1080 23
1566 1 1080 1081 1082
1567 1 1081 1082 1083
1568 1 1082 1083 1084
1569 1 1083 1084 1085
1570 1 1084 1085 1086
1571 1 1085 1086 1087
1572 1 1086 1087 1088
1573 1 1087 1088 1089
1574 1 1088 1089 1090
1575 1 1089 1090 1091
1576 1 1090 1091 1092
1577 1 1091 1092 1093
1578 1 1092 1093 1094
1579 1 1093 1094 1095
1580 1 1094 1095 1096
1581 1 1095 1096 1097
1582 1 1096 1097 1098
1583 1 1097 1098 1099
1584 1 1098 1099 27
1585 1 1101 1100 24
1586 1 1100 1101 1102
1587 1 1101 1102 1103
1588 1 1102 1103 1104
1589 1 1103 1104 1105
1590 1 1104 1105 1106
1591 1 1105 1106 1107
1592 1 1106 1107 1108
1593 1 1107 1108 1109
1594 1 1108 1109 1110
1595 1 1109 1110 1111
1596 1 1110 1111 1112
1597 1 1111 1112 1113
1598 1 1112 1113 1114
1599 1 1113 1114 1115
1600 1 1114 1115 1116
1601 1 1115 1116 1117
1602 1 1116 1117 1118
1603 1 1117 1118 1119
1604 1 1118 1119 48
1605 1 1121 1120 25
1606 1 1120 1121 1122
1607 1 1121 1122 1123
1608 1 1122 1123 1124
1609 1 1123 1124 1125
1610 1 1124 1125 1126
1611 1 1125 1126 1127
1612 1 1126 1127 1128
1613 1 1127 1128 1129
1614 1 1128 1129 1130
1615 1 1129 1130 1131
1616 1 1130 1131 1132
1617 1 1131 1132 1133
1618 1 1132 1133 1134
1619 1 1133 1134 1135
1620 1 1134 1135 1136
1621 1 1135 1136 1137
1622 1 1136 1137 1138
1623 1 1137 1138 1139
1624 1 1138 1139 26
1625 1 1141 1140 25
1626 1 1140 1141 1142
1627 1 1141 1142 1143
1628 1 1142 1143 1144
1629 1 1143 1144 1145
1630 1 1144 1145 1146
1631 1 1145 1146 1147
1632 1 1146 1147 1148
1633 1 1147 1148 1149
1634 1 1148 1149 1150
1635 1 1149 1150 1151
1636 1 1150 1151 1152
1637 1 1151 1152 1153
1638 1 1152 1153 1154
1639 1 1153 1154 1155
1640 1 1154 1155 1156
1641 1 1155 1156 1157
1642 1 1156 1157 1158
1643 1 1157 1158 1159
1644 1 1158 1159 49
1645 1 1161 1160 26
1646 1 1160 1161 1162
1647 1 1161 1162 1163
1648 1 1162 1163 1164
1649 1 1163 1164 1165
1650 1 1164 1165 1166
1651 1 1165 1166 1167
1652 1 1166 1167 1168
1653 1 1167 1168 1169
1654 1 1168 1169 1170
1655 1 1169 1170 1171
1656 1 1170 1171 1172
1657 1 1171 1172 1173
1658 1 1172 1173 1174
1659 1 1173 1174 1175
1660 1 1174 1175 1176
1661 1 1175 1176 1177
1662 1 1176 1177 1178
1663 1 1177 1178 1179
1664 1 1178 1179 27
1665 1 1181 1180 26
1666 1 1180 1181 1182
1667 1 1181 1182 1183
1668 1 1182 1183 1184
1669 1 1183 1184 1185
1670 1 1184 1185 1186
1671 1 1185 1186 1187
1672 1 1186 1187 1188
1673 1 1187 1188 1189
1674 1 1188 1189 1190
1675 1 1189 1190 1191
1676 1 1190 1191 1192
1677 1 1191 1192 1193
1678 1 1192 1193 1194
1679 1 1193 1194 1195
1680 1 1194 1195 1196
1681 1 1195 1196 1197
1682 1 1196 1197 1198
1683 1 1197 1198 1199
1684 1 1198 1199 53
1685 1 1201 1200 27
1686 1 1200 1201 1202
1687 1 1201 1202 1203
1688 1 1202 1203 1204
1689 1 1203 1204 1205
1690 1 1204 1205 1206
1691 1 1205 1206 1207
1692 1 1206 1207 1208
1693 1 1207 1208 1209
1694 1 1208 1209 1210
1695 1 1209 1210 1211
1696 1 1210 1211 1212
1697 1 1211 1212 1213
1698 1 1212 1213 1214
1699 1 1213 1214 1215
1700 1 1214 1215 1216
1701 1 1215 1216 1217
1702 1 1216 1217 1218
1703 1 1217 1218 1219
1704 1 1218 1219 139
1705 1 1221 1220 28
1706 1 1220 1221 1222
1707 1 1221 1222 1223
1708 1 1222 1223 1224
1709 1 1223 1224 1225
1710 1 1224 1225 1226
1711 1 1225 1226 1227
1712 1 1226 1227 1228
1713 1 1227 1228 1229
1714 1 1228 1229 1230
1715 1 1229 1230 1231
1716 1 1230 1231 1232
1717 1 1231 1232 1233
1718 1 1232 1233 1234
1719 1 1233 1234 1235
1720 1 1234 1235 1236
1721 1 1235 1236 1237
1722 1 1236 1237 1238
1723 1 1237 1238 1239
1724 1 1238 1239 55
1725 1 1241 1240 28
1726 1 1240 1241 1242
1727 1 1241 1242 1243
1728 1 1242 1243 1244
1729 1 1243 1244 1245
1730 1 1244 1245 1246
1731 1 1245 1246 1247
1732 1 1246 1247 1248
1733 1 1247 1248 1249
1734 1 1248 1249 1250
1735 1 1249 1250 1251
1736 1 1250 1251 1252
1737 1 1251 1252 1253
1738 1 1252 1253 1254
1739 1 1253 1254 1255
1740 1 1254 1255 1256
1741 1 1255 1256 1257
1742 1 1256 1257 1258
1743 1 1257 1258 1259
1744 1 1258 1259 32
1745 1 1261 1260 28
1746 1 1260 1261 1262
1747 1 1261 1262 1263
1748 1 1262 1263 1264
1749 1 1263 1264 1265
1750 1 1264 1265 1266
1751 1 1265 1266 1267
1752 1 1266 1267 1268
1753 1 1267 1268 1269
1754 1 1268 1269 1270
1755 1 1269 1270 1271
1756 1 1270 1271 1272
1757 1 1271 1272 1273
1758 1 1272 1273 1274
1759 1 1273 1274 1275
1760 1 1274 1275 1276
1761 1 1275 1276 1277
1762 1 1276 1277 1278
1763 1 1277 1278 1279
1764 1 1278 1279 47
1765 1 1281 1280 29
1766 1 1280 1281 1282
1767 1 1281 1282 1283
1768 1 1282 1283 1284
1769 1 1283 1284 1285
1770 1 1284 1285 1286
1771 1 1285 1286 1287
1772 1 1286 1287 1288
1773 1 1287 1288 1289
1774 1 1288 1289 1290
1775 1 1289 1290 1291
1776 1 1290 1291 1292
1777 1 1291 1292 1293
1778 1 1292 1293 1294
1779 1 1293 1294 1295
1780 1 1294 1295 1296
1781 1 1295 1296 1297
1782 1 1296 1297 1298
1783 1 1297 1298 1299
1784 1 1298 1299 30
1785 1 1301 1300 29
1786 1 1300 1301 1302
1787 1 1301 1302 1303
1788 1 1302 1303 1304
1789 1 1303 1304 1305
1790 1 1304 1305 1306
1791 1 1305 1306 1307
1792 1 1306 1307 1308
1793 1 1307 1308 1309
1794 1 1308 1309 1310
1795 1 1309 1310 1311
1796 1 1310 1311 1312
1797 1 1311 1312 1313
1798 1 1312 1313 1314
1799 1 1313 1314 1315
1800 1 1314 1315 1316
1801 1 1315 1316 1317
1802 1 1316 1317 1318
1803 1 1317 1318 1319
1804 1 1318 1319 34
1805 1 1321 1320 29
1806 1 1320 1321 1322
1807 1 1321 1322 1323
1808 1 1322 1323 1324
1809 1 1323 1324 1325
1810 1 1324 1325 1326
1811 1 1325 1326 1327
1812 1 1326 1327 1328
1813 1 1327 1328 1329
1814 1 1328 1329 1330
1815 1 1329 1330 1331
1816 1 1330 1331 1332
1817 1 1331 1332 1333
1818 1 1332 1333 1334
1819 1 1333 1334 1335
1820 1 1334 1335 1336
1821 1 1335 1336 1337
1822 1 1336 1337 1338
1823 1 1337 1338 1339
1824 1 1338 1339 48
1825 1 1341 1340 30
1826 1 1340 1341 1342
1827 1 1341 1342 1343
1828 1 1342 1343 1344
1829 1 1343 1344 1345
1830 1 1344 1345 1346
1831 1 1345 1346 1347
1832 1 1346 1347 1348
1833 1 1347 1348 1349
1834 1 1348 1349 1350
1835 1 1349 1350 1351
1836 1 1350 1351 1352
1837 1 1351 1352 1353
1838 1 1352 1353 1354
1839 1 1353 1354 1355
1840 1 1354 1355 1356
1841 1 1355 1356 1357
1842 1 1356 1357 1358
1843 1 1357 1358 1359
1844 1 1358 1359 35
1845 1 1361 1360 30
1846 1 1360 1361 1362
1847 1 1361 1362 1363
1848 1 1362 1363 1364
1849 1 1363 1364 1365
1850 1 1364 1365 1366
1851 1 1365 1366 1367
1852 1 1366 1367 1368
1853 1 1367 1368 1369
1854 1 1368 1369 1370
1855 1 1369 1370 1371
1856 1 1370 1371 1372
1857 1 1371 1372 1373
1858 1 1372 1373 1374
1859 1 1373 1374 1375
1860 1 1374 1375 1376
1861 1 1375 1376 1377
1862 1 1376 1377 1378
1863 1 1377 1378 1379
1864 1 1378 1379 59
1865 1 1381 1380 31
1866 1 1380 1381 1382
1867 1 1381 1382 1383
1868 1 1382 1383 1384
1869 1 1383 1384 1385
1870 1 1384 1385 1386
1871 1 1385 1386 1387
1872 1 1386 1387 1388
1873 1 1387 1388 1389
1874 1 1388 1389 1390
1875 1 1389 1390 1391
1876 1 1390 1391 1392
1877 1 1391 1392 1393
1878 1 1392 1393 1394
1879 1 1393 1394 1395
1880 1 1394 1395 1396
1881 1 1395 1396 1397
1882 1 1396 1397 1398
1883 1 1397 1398 1399
1884 1 1398 1399 32
1885 1 1401 1400 31
1886 1 1400 1401 1402
1887 1 1401 1402 1403
1888 1 1402 1403 1404
1889 1 1403 1404 1405
1890 1 1404 1405 1406
1891 1 1405 1406 1407
1892 1 1406 1407 1408
1893 1 1407 1408 1409
1894 1 1408 1409 1410
1895 1 1409 1410 1411
1896 1 1410 1411 1412
1897 1 1411 1412 1413
1898 1 1412 1413 1414
1899 1 1413 1414 1415
1900 1 1414 1415 1416
1901 1 1415 1416 1417
1902 1 1416 1417 1418
1903 1 1417 1418 1419
1904 1 1418 1419 36
1905 1 1421 1420 31
1906 1 1420 1421 1422
1907 1 1421 1422 1423
1908 1 1422 1423 1424
1909 1 1423 1424 1425
1910 1 1424 1425 1426
1911 1 1425 1426 1427
1912 1 1426 1427 1428
1913 1 1427 1428 1429
1914 1 1428 1429 1430
1915 1 1429 1430 1431
1916 1 1430 1431 1432
1917 1 1431 1432 1433
1918 1 1432 1433 1434
1919 1 1433 1434 1435
1920 1 1434 1435 1436
1921 1 1435 1436 1437
1922 1 1436 1437 1438
1923 1 1437 1438 1439
1924 1 1438 1439 53
1925 1 1441 1440 32
1926 1 1440 1441 1442
1927 1 1441 1442 1443
1928 1 1442 1443 1444
1929 1 1443 1444 1445
1930 1 1444 1445 1446
1931 1 1445 1446 1447
1932 1 1446 1447 1448
1933 1 1447 1448 1449
1934 1 1448 1449 1450
1935 1 1449 1450 1451
1936 1 1450 1451 1452
1937 1 1451 1452 1453
1938 1 1452 1453 1454
1939 1 1453 1454 1455
1940 1 1454 1455 1456
1941 1 1455 1456 1457
1942 1 1456 1457 1458
1943 1 1457 1458 1459
1944 1 1458 1459 61
1945 1 1461 1460 33
1946 1 1460 1461 1462
1947 1 1461 1462 1463
1948 1 1462 1463 1464
1949 1 1463 1464 1465
1950 1 1464 1465 1466
1951 1 1465 1466 1467
1952 1 1466 1467 1468
1953 1 1467 1468 1469
1954 1 1468 1469 1470
1955 1 1469 1470 1471
1956 1 1470 1471 1472
1957 1 1471 1472 1473
1958 1 1472 1473 1474
1959 1 1473 1474 1475
1960 1 1474 1475 1476
1961 1 1475 1476 1477
1962 1 1476 1477 1478
1963 1 1477 1478 1479
1964 1 1478 1479 34
1965 1 1481 1480 33
1966 1 1480 1481 1482
1967 1 1481 1482 1483
1968 1 1482 1483 1484
1969 1 1483 1484 1485
1970 1 1484 1485 1486
1971 1 1485 1486 1487
1972 1 1486 1487 1488
1973 1 1487 1488 1489
1974 1 1488 1489 1490
1975 1 1489 1490 1491
1976 1 1490 1491 1492
1977 1 1491 1492 1493
1978 1 1492 1493 1494
1979 1 1493 1494 1495
1980 1 1494 1495 1496
1981 1 1495 1496 1497
1982 1 1496 1497 1498
1983 1 1497 1498 1499
1984 1 1498 1499 38
1985 1 1501 1500 34
1986 1 1500 1501 1502
1987 1 1501 1502 1503
1988 1 1502 1503 1504
1989 1 1503 1504 1505
1990 1 1504 1505 1506
1991 1 1505 1506 1507
1992 1 1506 1507 1508
1993 1 1507 1508 1509
1994 1 1508 1509 1510
1995 1 1509 1510 1511
1996 1 1510 1511 1512
1997 1 1511 1512 1513
1998 1 1512 1513 1514
1999 1 1513 1514 1515
2000 1 1514 1515 1516
2001 1 1515 1516 1517
2002 1 1516 1517 1518
2003 1 1517 1518 1519
2004 1 1518 1519 39
2005 1 1521 1520 34
2006 1 1520 1521 1522
2007 1 1521 1522 1523
2008 1 1522 1523 1524
2009 1 1523 1524 1525
2010 1 1524 1525 1526
2011 1 1525 1526 1527
2012 1 1526 1527 1528
2013 1 1527 1528 1529
2014 1 1528 1529 1530
2015 1 1529 1530 1531
2016 1 1530 1531 1532
2017 1 1531 1532 1533
2018 1 1532 1533 1534
2019 1 1533 1534 1535
2020 1 1534 1535 1536
2021 1 1535 1536 1537
2022 1 1536 1537 1538
2023 1 1537 1538 1539
2024 1 1538 1539 63
2025 1 1541 1540 35
2026 1 1540 1541 1542
2027 1 1541 1542 1543
2028 1 1542 1543 1544
2029 1 1543 1544 1545
2030 1 1544 1545 1546
2031 1 1545 1546 1547
2032 1 1546 1547 1548
2033 1 1547 1548 1549
2034 1 1548 1549 1550
2035 1 1549 1550 1551
2036 1 1550 1551 1552
2037 1 1551 1552 1553
2038 1 1552 1553 1554
2039 1 1553 1554 1555
2040 1 1554 1555 1556
2041 1 1555 1556 1557
2042 1 1556 1557 1558
2043 1 1557 1558 1559
2044 1 1558 1559 40
2045 1 1561 1560 35
2046 1 1560 1561 1562
2047 1 1561 1562 1563
2048 1 1562 1563 1564
2049 1 1563 1564 1565
2050 1 1564 1565 1566
2051 1 1565 1566 1567
2052 1 1566 1567 1568
2053 1 1567 1568 1569
2054 1 1568 1569 1570
2055 1 1569 1570 1571
2056 1 1570 1571 1572
2057 1 1571 1572 1573
2058 1 1572 1573 1574
2059 1 1573 1574 1575
2060 1 1574 1575 1576
2061 1 1575 1576 1577
2062 1 1576 1577 1578
2063 1 1577 1578 1579
2064 1 1578 1579 64
2065 1 1581 1580 36
2066 1 1580 1581 1582
2067 1 1581 1582 1583
2068 1 1582 1583 1584
2069 1 1583 1584 1585
2070 1 1584 1585 1586
2071 1 1585 1586 1587
2072 1 1586 1587 1588
2073 1 1587 1588 1589
2074 1 1588 1589 1590
2075 1 1589 1590 1591
2076 1 1590 1591 1592
2077 1 1591 1592 1593
2078 1 1592 1593 1594
2079 1 1593 1594 1595
2080 1 1594 1595 1596
2081 1 1595 1596 1597
2082 1 1596 1597 1598
2083 1 1597 1598 1599
2084 1 1598 1599 37
2085 1 1601 1600 36
2086 1 1600 1601 1602
2087 1 1601 1602 1603
2088 1 1602 1603 1604
2089 1 1603 1604 1605
2090 1 1604 1605 1606
2091 1 1605 1606 1607
2092 1 1606 1607 1608
2093 1 1607 1608 1609
2094 1 1608 1609 1610
2095 1 1609 1610 1611
2096 1 1610 1611 1612
2097 1 1611 1612 1613
2098 1 1612 1613 1614
2099 1 1613 1614 1615
2100 1 1614 1615 1616
2101 1 1615 1616 1617
2102 1 1616 1617 1618
2103 1 1617 1618 1619
2104 1 1618 1619 65
2105 1 1621 1620 37
2106 1 1620 1621 1622
2107 1 1621 1622 1623
2108 1 1622 1623 1624
2109 1 1623 1624 1625
2110 1 1624 1625 1626
2111 1 1625 1626 1627
2112 1 1626 1627 1628
2113 1 1627 1628 1629
2114 1 1628 1629 1630
2115 1 1629 1630 1631
2116 1 1630 1631 1632
2117 1 1631 1632 1633
2118 1 1632 1633 1634
2119 1 1633 1634 1635
2120 1 1634 1635 1636
2121 1 1635 1636 1637
2122 1 1636 1637 1638
2123 1 1637 1638 1639
2124 1 1638 1639 42
2125 1 1641 1640 38
2126 1 1640 1641 1642
2127 1 1641 1642 1643
2128 1 1642 1643 1644
2129 1 1643 1644 1645
2130 1 1644 1645 1646
2131 1 1645 1646 1647
2132 1 1646 1647 1648
2133 1 1647 1648 1649
2134 1 1648 1649 1650
2135 1 1649 1650 1651
2136 1 1650 1651 1652
2137 1 1651 1652 1653
2138 1 1652 1653 1654
2139 1 1653 1654 1655
2140 1 1654 1655 1656
2141 1 1655 1656 1657
2142 1 1656 1657 1658
2143 1 1657 1658 1659
2144 1 1658 1659 43
2145 1 1661 1660 39
2146 1 1660 1661 1662
2147 1 1661 1662 1663
2148 1 1662 1663 1664
2149 1 1663 1664 1665
2150 1 1664 1665 1666
2151 1 1665 1666 1667
2152 1 1666 1667 1668
2153 1 1667 1668 1669
2154 1 1668 1669 1670
2155 1 1669 1670 1671
2156 1 1670 1671 1672
2157 1 1671 1672 1673
2158 1 1672 1673 1674
2159 1 1673 1674 1675
2160 1 1674 1675 1676
2161 1 1675 1676 1677
2162 1 1676 1677 1678
2163 1 1677 1678 1679
2164 1 1678 1679 68
2165 1 1681 1680 40
2166 1 1680 1681 1682
2167 1 1681 1682 1683
2168 1 1682 1683 1684
2169 1 1683 1684 1685
2170 1 1684 1685 1686
2171 1 1685 1686 1687
2172 1 1686 1687 1688
2173 1 1687 1688 1689
2174 1 1688 1689 1690
2175 1 1689 1690 1691
2176 1 1690 1691 1692
2177 1 1691 1692 1693
2178 1 1692 1693 1694
2179 1 1693 1694 1695
2180 1 1694 1695 1696
2181 1 1695 1696 1697
2182 1 1696 1697 1698
2183 1 1697 1698 1699
2184 1 1698 1699 41
2185 1 1701 1700 40
2186 1 1700 1701 1702
2187 1 1701 1702 1703
2188 1 1702 1703 1704
2189 1 1703 1704 1705
2190 1 1704 1705 1706
2191 1 1705 1706 1707
2192 1 1706 1707 1708
2193 1 1707 1708 1709
2194 1 1708 1709 1710
2195 1 1709 1710 1711
2196 1 1710 1711 1712
2197 1 1711 1712 1713
2198 1 1712 1713 1714
2199 1 1713 1714 1715
2200 1 1714 1715 1716
2201 1 1715 1716 1717
2202 1 1716 1717 1718
2203 1 1717 1718 1719
2204 1 1718 1719 69
2205 1 1721 1720 41
2206 1 1720 1721 1722
2207 1 1721 1722 1723
2208 1 1722 1723 1724
2209 1 1723 1724 1725
2210 1 1724 1725 1726
2211 1 1725 1726 1727
2212 1 1726 1727 1728
2213 1 1727 1728 1729
2214 1 1728 1729 1730
2215 1 1729 1730 1731
2216 1 1730 1731 1732
2217 1 1731 1732 1733
2218 1 1732 1733 1734
2219 1 1733 1734 1735
2220 1 1734 1735 1736
2221 1 1735 1736 1737
2222 1 1736 1737 1738
2223 1 1737 1738 1739
2224 1 1738 1739 42
2225 1 1741 1740 41
2226 1 1740 1741 1742
2227 1 1741 1742 1743
2228 1 1742 1743 1744
2229 1 1743 1744 1745
2230 1 1744 1745 1746
2231 1 1745 1746 1747
2232 1 1746 1747 1748
2233 1 1747 1748 1749
2234 1 1748 1749 1750
2235 1 1749 1750 1751
2236 1 1750 1751 1752
2237 1 1751 1752 1753
2238 1 1752 1753 1754
2239 1 1753 1754 1755
2240 1 1754 1755 1756
2241 1 1755 1756 1757
2242 1 1756 1757 1758
2243 1 1757 1758 1759
2244 1 1758 1759 45
2245 1 1761 1760 41
2246 1 1760 1761 1762
2247 1 1761 1762 1763
2248 1 1762 1763 1764
2249 1 1763 1764 1765
2250 1 1764 1765 1766
2251 1 1765 1766 1767
2252 1 1766 1767 1768
2253 1 1767 1768 1769
2254 1 1768 1769 1770
2255 1 1769 1770 1771
2256 1 1770 1771 1772
2257 1 1771 1772 1773
2258 1 1772 1773 1774
2259 1 1773 1774 1775
2260 1 1774 1775 1776
2261 1 1775 1776 1777
2262 1 1776 1777 1778
2263 1 1777 1778 1779
2264 1 1778 1779 70
2265 1 1781 1780 42
2266 1 1780 1781 1782
2267 1 1781 1782 1783
2268 1 1782 1783 1784
2269 1 1783 1784 1785
2270 1 1784 1785 1786
2271 1 1785 1786 1787
2272 1 1786 1787 1788
2273 1 1787 1788 1789
2274 1 1788 1789 1790
2275 1 1789 1790 1791
2276 1 1790 1791 1792
2277 1 1791 1792 1793
2278 1 1792 1793 1794
2279 1 1793 1794 1795
2280 1 1794 1795 1796
2281 1 1795 1796 1797
2282 1 1796 1797 1798
2283 1 1797 1798 1799
2284 1 1798 1799 46
2285 1 1801 1800 42
2286 1 1800 1801 1802
2287 1 1801 1802 1803
2288 1 1802 1803 1804
2289 1 1803 1804 1805
2290 1 1804 1805 1806
2291 1 1805 1806 1807
2292 1 1806 1807 1808
2293 1 1807 1808 1809
2294 1 1808 1809 1810
2295 1 1809 1810 1811
2296 1 1810 1811 1812
2297 1 1811 1812 1813
2298 1 1812 1813 1814
2299 1 1813 1814 1815
2300 1 1814 1815 1816
2301 1 1815 1816 1817
2302 1 1816 1817 1818
2303 1 1817 1818 1819
2304 1 1818 1819 71
2305 1 1821 1820 43
2306 1 1820 1821 1822
2307 1 1821 1822 1823
2308 1 1822 1823 1824
2309 1 1823 1824 1825
2310 1 1824 1825 1826
2311 1 1825 1826 1827
2312 1 1826 1827 1828
2313 1 1827 1828 1829
2314 1 1828 1829 1830
2315 1 1829 1830 1831
2316 1 1830 1831 1832
2317 1 1831 1832 1833
2318 1 1832 1833 1834
2319 1 1833 1834 1835
2320 1 1834 1835 1836
2321 1 1835 1836 1837
2322 1 1836 1837 1838
2323 1 1837 1838 1839
2324 1 1838 1839 47
2325 1 1841 1840 43
2326 1 1840 1841 1842
2327 1 1841 1842 1843
2328 1 1842 1843 1844
2329 1 1843 1844 1845
2330 1 1844 1845 1846
2331 1 1845 1846 1847
2332 1 1846 1847 1848
2333 1 1847 1848 1849
2334 1 1848 1849 1850
2335 1 1849 1850 1851
2336 1 1850 1851 1852
2337 1 1851 1852 1853
2338 1 1852 1853 1854
2339 1 1853 1854 1855
2340 1 1854 1855 1856
2341 1 1855 1856 1857
2342 1 1856 1857 1858
2343 1 1857 1858 1859
2344 1 1858 1859 46
2345 1 1861 1860 44
2346 1 1860 1861 1862
2347 1 1861 1862 1863
2348 1 1862 1863 1864
2349 1 1863 1864 1865
2350 1 1864 1865 1866
2351 1 1865 1866 1867
2352 1 1866 1867 1868
2353 1 1867 1868 1869
2354 1 1868 1869 1870
2355 1 1869 1870 1871
2356 1 1870 1871 1872
2357 1 1871 1872 1873
2358 1 1872 1873 1874
2359 1 1873 1874 1875
2360 1 1874 1875 1876
2361 1 1875 1876 1877
2362 1 1876 1877 1878
2363 1 1877 1878 1879
2364 1 1878 1879 45
2365 1 1881 1880 44
2366 1 1880 1881 1882
2367 1 1881 1882 1883
2368 1 1882 1883 1884
2369 1 1883 1884 1885
2370 1 1884 1885 1886
2371 1 1885 1886 1887
2372 1 1886 1887 1888
2373 1 1887 1888 1889
2374 1 1888 1889 1890
2375 1 1889 1890 1891
2376 1 1890 1891 1892
2377 1 1891 1892 1893
2378 1 1892 1893 1894
2379 1 1893 1894 1895
2380 1 1894 1895 1896
2381 1 1895 1896 1897
2382 1 1896 1897 1898
2383 1 1897 1898 1899
2384 1 1898 1899 73
2385 1 1901 1900 45
2386 1 1900 1901 1902
2387 1 1901 1902 1903
2388 1 1902 1903 1904
2389 1 1903 1904 1905
2390 1 1904 1905 1906
2391 1 1905 1906 1907
2392 1 1906 1907 1908
2393 1 1907 1908 1909
2394 1 1908 1909 1910
2395 1 1909 1910 1911
2396 1 1910 1911 1912
2397 1 1911 1912 1913
2398 1 1912 1913 1914
2399 1 1913 1914 1915
2400 1 1914 1915 1916
2401 1 1915 1916 1917
2402 1 1916 1917 1918
2403 1 1917 1918 1919
2404 1 1918 1919 53
2405 1 1921 1920 46
2406 1 1920 1921 1922
2407 1 1921 1922 1923
2408 1 1922 1923 1924
2409 1 1923 1924 1925
2410 1 1924 1925 1926
2411 1 1925 1926 1927
2412 1 1926 1927 1928
2413 1 1927 1928 1929
2414 1 1928 1929 1930
2415 1 1929 1930 1931
2416 1 1930 1931 1932
2417 1 1931 1932 1933
2418 1 1932 1933 1934
2419 1 1933 1934 1935
2420 1 1934 1935 1936
2421 1 1935 1936 1937
2422 1 1936 1937 1938
2423 1 1937 1938 1939
2424 1 1938 1939 54
2425 1 1941 1940 47
2426 1 1940 1941 1942
2427 1 1941 1942 1943
2428 1 1942 1943 1944
2429 1 1943 1944 1945
2430 1 1944 1945 1946
2431 1 1945 1946 1947
2432 1 1946 1947 1948
2433 1 1947 1948 1949
2434 1 1948 1949 1950
2435 1 1949 1950 1951
2436 1 1950 1951 1952
2437 1 1951 1952 1953
2438 1 1952 1953 1954
2439 1 1953 1954 1955
2440 1 1954 1955 1956
2441 1 1955 1956 1957
2442 1 1956 1957 1958
2443 1 1957 1958 1959
2444 1 1958 1959 76
2445 1 1961 1960 48
2446 1 1960 1961 1962
2447 1 1961 1962 1963
2448 1 1962 1963 1964
2449 1 1963 1964 1965
2450 1 1964 1965 1966
2451 1 1965 1966 1967
2452 1 1966 1967 1968
2453 1 1967 1968 1969
2454 1 1968 1969 1970
2455 1 1969 1970 1971
2456 1 1970 1971 1972
2457 1 1971 1972 1973
2458 1 1972 1973 1974
2459 1 1973 1974 1975
2460 1 1974 1975 1976
2461 1 1975 1976 1977
2462 1 1976 1977 1978
2463 1 1977 1978 1979
2464 1 1978 1979 77
2465 1 1981 1980 53
2466 1 1980 1981 1982
2467 1 1981 1982 1983
2468 1 1982 1983 1984
2469 1 1983 1984 1985
2470 1 1984 1985 1986
2471 1 1985 1986 1987
2472 1 1986 1987 1988
2473 1 1987 1988 1989
2474 1 1988 1989 1990
2475 1 1989 1990 1991
2476 1 1990 1991 1992
2477 1 1991 1992 1993
2478 1 1992 1993 1994
2479 1 1993 1994 1995
2480 1 1994 1995 1996
2481 1 1995 1996 1997
2482 1 1996 1997 1998
2483 1 1997 1998 1999
2484 1 1998 1999 54
2485 1 2001 2000 54
2486 1 2000 2001 2002
2487 1 2001 2002 2003
2488 1 2002 2003 2004
2489 1 2003 2004 2005
2490 1 2004 2005 2006
2491 1 2005 2006 2007
2492 1 2006 2007 2008
2493 1 2007 2008 2009
2494 1 2008 2009 2010
2495 1 2009 2010 2011
2496 1 2010 2011 2012
2497 1 2011 2012 2013
2498 1 2012 2013 2014
2499 1 2013 2014 2015
2500 1 2014 2015 2016
2501 1 2015 2016 2017
2502 1 2016 2017 2018
2503 1 2017 2018 2019
2504 1 2018 2019 83
2505 1 2021 2020 59
2506 1 2020 2021 2022
2507 1 2021 2022 2023
2508 1 2022 2023 2024
2509 1 2023 2024 2025
2510 1 2024 2025 2026
2511 1 2025 2026 2027
2512 1 2026 2027 2028
2513 1 2027 2028 2029
2514 1 2028 2029 2030
2515 1 2029 2030 2031
2516 1 2030 2031 2032
2517 1 2031 2032 2033
2518 1 2032 2033 2034
2519 1 2033 2034 2035
2520 1 2034 2035 2036
2521 1 2035 2036 2037
2522 1 2036 2037 2038
2523 1 2037 2038 2039
2524 1 2038 2039 60
2525 1 2041 2040 59
2526 1 2040 2041 2042
2527 1 2041 2042 2043
2528 1 2042 2043 2044
2529 1 2043 2044 2045
2530 1 2044 2045 2046
2531 1 2045 2046 2047
2532 1 2046 2047 2048
2533 1 2047 2048 2049
2534 1 2048 2049 2050
2535 1 2049 2050 2051
2536 1 2050 2051 2052
2537 1 2051 2052 2053
2538 1 2052 2053 2054
2539 1 2053 2054 2055
2540 1 2054 2055 2056
2541 1 2055 2056 2057
2542 1 2056 2057 2058
2543 1 2057 2058 2059
2544 1 2058 2059 64
2545 1 2061 2060 59
2546 1 2060 2061 2062
2547 1 2061 2062 2063
2548 1 2062 2063 2064
2549 1 2063 2064 2065
2550 1 2064 2065 2066
2551 1 2065 2066 2067
2552 1 2066 2067 2068
2553 1 2067 2068 2069
2554 1 2068 2069 2070
2555 1 2069 2070 2071
2556 1 2070 2071 2072
2557 1 2071 2072 2073
2558 1 2072 2073 2074
2559 1 2073 2074 2075
2560 1 2074 2075 2076
2561 1 2075 2076 2077
2562 1 2076 2077 2078
2563 1 2077 2078 2079
2564 1 2078 2079 89
2565 1 2081 2080 60
2566 1 2080 2081 2082
2567 1 2081 2082 2083
2568 1 2082 2083 2084
2569 1 2083 2084 2085
2570 1 2084 2085 2086
2571 1 2085 2086 2087
2572 1 2086 2087 2088
2573 1 2087 2088 2089
2574 1 2088 2089 2090
2575 1 2089 2090 2091
2576 1 2090 2091 2092
2577 1 2091 2092 2093
2578 1 2092 2093 2094
2579 1 2093 2094 2095
2580 1 2094 2095 2096
2581 1 2095 2096 2097
2582 1 2096 2097 2098
2583 1 2097 2098 2099
2584 1 2098 2099 65
2585 1 2101 2100 60
2586 1 2100 2101 2102
2587 1 2101 2102 2103
2588 1 2102 2103 2104
2589 1 2103 2104 2105
2590 1 2104 2105 2106
2591 1 2105 2106 2107
2592 1 2106 2107 2108
2593 1 2107 2108 2109
2594 1 2108 2109 2110
2595 1 2109 2110 2111
2596 1 2110 2111 2112
2597 1 2111 2112 2113
2598 1 2112 2113 2114
2599 1 2113 2114 2115
2600 1 2114 2115 2116
2601 1 2115 2116 2117
2602 1 2116 2117 2118
2603 1 2117 2118 2119
2604 1 2118 2119 90
2605 1 2121 2120 60
2606 1 2120 2121 2122
2607 1 2121 2122 2123
2608 1 2122 2123 2124
2609 1 2123 2124 2125
2610 1 2124 2125 2126
2611 1 2125 2126 2127
2612 1 2126 2127 2128
2613 1 2127 2128 2129
2614 1 2128 2129 2130
2615 1 2129 2130 2131
2616 1 2130 2131 2132
2617 1 2131 2132 2133
2618 1 2132 2133 2134
2619 1 2133 2134 2135
2620 1 2134 2135 2136
2621 1 2135 2136 2137
2622 1 2136 2137 2138
2623 1 2137 2138 2139
2624 1 2138 2139 82
2625 1 2141 2140 61
2626 1 2140 2141 2142
2627 1 2141 2142 2143
2628 1 2142 2143 2144
2629 1 2143 2144 2145
2630 1 2144 2145 2146
2631 1 2145 2146 2147
2632 1 2146 2147 2148
2633 1 2147 2148 2149
2634 1 2148 2149 2150
2635 1 2149 2150 2151
2636 1 2150 2151 2152
2637 1 2151 2152 2153
2638 1 2152 2153 2154
2639 1 2153 2154 2155
2640 1 2154 2155 2156
2641 1 2155 2156 2157
2642 1 2156 2157 2158
2643 1 2157 2158 2159
2644 1 2158 2159 66
2645 1 2161 2160 61
2646 1 2160 2161 2162
2647 1 2161 2162 2163
2648 1 2162 2163 2164
2649 1 2163 2164 2165
2650 1 2164 2165 2166
2651 1 2165 2166 2167
2652 1 2166 2167 2168
2653 1 2167 2168 2169
2654 1 2168 2169 2170
2655 1 2169 2170 2171
2656 1 2170 2171 2172
2657 1 2171 2172 2173
2658 1 2172 2173 2174
2659 1 2173 2174 2175
2660 1 2174 2175 2176
2661 1 2175 2176 2177
2662 1 2176 2177 2178
2663 1 2177 2178 2179
2664 1 2178 2179 91
2665 1 2181 2180 61
2666 1 2180 2181 2182
2667 1 2181 2182 2183
2668 1 2182 2183 2184
2669 1 2183 2184 2185
2670 1 2184 2185 2186
2671 1 2185 2186 2187
2672 1 2186 2187 2188
2673 1 2187 2188 2189
2674 1 2188 2189 2190
2675 1 2189 2190 2191
2676 1 2190 2191 2192
2677 1 2191 2192 2193
2678 1 2192 2193 2194
2679 1 2193 2194 2195
2680 1 2194 2195 2196
2681 1 2195 2196 2197
2682 1 2196 2197 2198
2683 1 2197 2198 2199
2684 1 2198 2199 83
2685 1 2201 2200 62
2686 1 2200 2201 2202
2687 1 2201 2202 2203
2688 1 2202 2203 2204
2689 1 2203 2204 2205
2690 1 2204 2205 2206
2691 1 2205 2206 2207
2692 1 2206 2207 2208
2693 1 2207 2208 2209
2694 1 2208 2209 2210
2695 1 2209 2210 2211
2696 1 2210 2211 2212
2697 1 2211 2212 2213
2698 1 2212 2213 2214
2699 1 2213 2214 2215
2700 1 2214 2215 2216
2701 1 2215 2216 2217
2702 1 2216 2217 2218
2703 1 2217 2218 2219
2704 1 2218 2219 63
2705 1 2221 2220 62
2706 1 2220 2221 2222
2707 1 2221 2222 2223
2708 1 2222 2223 2224
2709 1 2223 2224 2225
2710 1 2224 2225 2226
2711 1 2225 2226 2227
2712 1 2226 2227 2228
2713 1 2227 2228 2229
2714 1 2228 2229 2230
2715 1 2229 2230 2231
2716 1 2230 2231 2232
2717 1 2231 2232 2233
2718 1 2232 2233 2234
2719 1 2233 2234 2235
2720 1 2234 2235 2236
2721 1 2235 2236 2237
2722 1 2236 2237 2238
2723 1 2237 2238 2239
2724 1 2238 2239 67
2725 1 2241 2240 62
2726 1 2240 2241 2242
2727 1 2241 2242 2243
2728 1 2242 2243 2244
2729 1 2243 2244 2245
2730 1 2244 2245 2246
2731 1 2245 2246 2247
2732 1 2246 2247 2248
2733 1 2247 2248 2249
2734 1 2248 2249 2250
2735 1 2249 2250 2251
2736 1 2250 2251 2252
2737 1 2251 2252 2253
2738 1 2252 2253 2254
2739 1 2253 2254 2255
2740 1 2254 2255 2256
2741 1 2255 2256 2257
2742 1 2256 2257 2258
2743 1 2257 2258 2259
2744 1 2258 2259 92
2745 1 2261 2260 62
2746 1 2260 2261 2262
2747 1 2261 2262 2263
2748 1 2262 2263 2264
2749 1 2263 2264 2265
2750 1 2264 2265 2266
2751 1 2265 2266 2267
2752 1 2266 2267 2268
2753 1 2267 2268 2269
2754 1 2268 2269 2270
2755 1 2269 2270 2271
2756 1 2270 2271 2272
2757 1 2271 2272 2273
2758 1 2272 2273 2274
2759 1 2273 2274 2275
2760 1 2274 2275 2276
2761 1 2275 2276 2277
2762 1 2276 2277 2278
2763 1 2277 2278 2279
2764 1 2278 2279 66
2765 1 2281 2280 63
2766 1 2280 2281 2282
2767 1 2281 2282 2283
2768 1 2282 2283 2284
2769 1 2283 2284 2285
2770 1 2284 2285 2286
2771 1 2285 2286 2287
2772 1 2286 2287 2288
2773 1 2287 2288 2289
2774 1 2288 2289 2290
2775 1 2289 2290 2291
2776 1 2290 2291 2292
2777 1 2291 2292 2293
2778 1 2292 2293 2294
2779 1 2293 2294 2295
2780 1 2294 2295 2296
2781 1 2295 2296 2297
2782 1 2296 2297 2298
2783 1 2297 2298 2299
2784 1 2298 2299 68
2785 1 2301 2300 63
2786 1 2300 2301 2302
2787 1 2301 2302 2303
2788 1 2302 2303 2304
2789 1 2303 2304 2305
2790 1 2304 2305 2306
2791 1 2305 2306 2307
2792 1 2306 2307 2308
2793 1 2307 2308 2309
2794 1 2308 2309 2310
2795 1 2309 2310 2311
2796 1 2310 2311 2312
2797 1 2311 2312 2313
2798 1 2312 2313 2314
2799 1 2313 2314 2315
2800 1 2314 2315 2316
2801 1 2315 2316 2317
2802 1 2316 2317 2318
2803 1 2317 2318 2319
2804 1 2318 2319 93
2805 1 2321 2320 64
2806 1 2320 2321 2322
2807 1 2321 2322 2323
2808 1 2322 2323 2324
2809 1 2323 2324 2325
2810 1 2324 2325 2326
2811 1 2325 2326 2327
2812 1 2326 2327 2328
2813 1 2327 2328 2329
2814 1 2328 2329 2330
2815 1 2329 2330 2331
2816 1 2330 2331 2332
2817 1 2331 2332 2333
2818 1 2332 2333 2334
2819 1 2333 2334 2335
2820 1 2334 2335 2336
2821 1 2335 2336 2337
2822 1 2336 2337 2338
2823 1 2337 2338 2339
2824 1 2338 2339 65
2825 1 2341 2340 66
2826 1 2340 2341 2342
2827 1 2341 2342 2343
2828 1 2342 2343 2344
2829 1 2343 2344 2345
2830 1 2344 2345 2346
2831 1 2345 2346 2347
2832 1 2346 2347 2348
2833 1 2347 2348 2349
2834 1 2348 2349 2350
2835 1 2349 2350 2351
2836 1 2350 2351 2352
2837 1 2351 2352 2353
2838 1 2352 2353 2354
2839 1 2353 2354 2355
2840 1 2354 2355 2356
2841 1 2355 2356 2357
2842 1 2356 2357 2358
2843 1 2357 2358 2359
2844 1 2358 2359 71
2845 1 2361 2360 66
2846 1 2360 2361 2362
2847 1 2361 2362 2363
2848 1 2362 2363 2364
2849 1 2363 2364 2365
2850 1 2364 2365 2366
2851 1 2365 2366 2367
2852 1 2366 2367 2368
2853 1 2367 2368 2369
2854 1 2368 2369 2370
2855 1 2369 2370 2371
2856 1 2370 2371 2372
2857 1 2371 2372 2373
2858 1 2372 2373 2374
2859 1 2373 2374 2375
2860 1 2374 2375 2376
2861 1 2375 2376 2377
2862 1 2376 2377 2378
2863 1 2377 2378 2379
2864 1 2378 2379 96
2865 1 2381 2380 67
2866 1 2380 2381 2382
2867 1 2381 2382 2383
2868 1 2382 2383 2384
2869 1 2383 2384 2385
2870 1 2384 2385 2386
2871 1 2385 2386 2387
2872 1 2386 2387 2388
2873 1 2387 2388 2389
2874 1 2388 2389 2390
2875 1 2389 2390 2391
2876 1 2390 2391 2392
2877 1 2391 2392 2393
2878 1 2392 2393 2394
2879 1 2393 2394 2395
2880 1 2394 2395 2396
2881 1 2395 2396 2397
2882 1 2396 2397 2398
2883 1 2397 2398 2399
2884 1 2398 2399 97
2885 1 2401 2400 67
2886 1 2400 2401 2402
2887 1 2401 2402 2403
2888 1 2402 2403 2404
2889 1 2403 2404 2405
2890 1 2404 2405 2406
2891 1 2405 2406 2407
2892 1 2406 2407 2408
2893 1 2407 2408 2409
2894 1 2408 2409 2410
2895 1 2409 2410 2411
2896 1 2410 2411 2412
2897 1 2411 2412 2413
2898 1 2412 2413 2414
2899 1 2413 2414 2415
2900 1 2414 2415 2416
2901 1 2415 2416 2417
2902 1 2416 2417 2418
2903 1 2417 2418 2419
2904 1 2418 2419 71
2905 1 2421 2420 68
2906 1 2420 2421 2422
2907 1 2421 2422 2423
2908 1 2422 2423 2424
2909 1 2423 2424 2425
2910 1 2424 2425 2426
2911 1 2425 2426 2427
2912 1 2426 2427 2428
2913 1 2427 2428 2429
2914 1 2428 2429 2430
2915 1 2429 2430 2431
2916 1 2430 2431 2432
2917 1 2431 2432 2433
2918 1 2432 2433 2434
2919 1 2433 2434 2435
2920 1 2434 2435 2436
2921 1 2435 2436 2437
2922 1 2436 2437 2438
2923 1 2437 2438 2439
2924 1 2438 2439 72
2925 1 2441 2440 68
2926 1 2440 2441 2442
2927 1 2441 2442 2443
2928 1 2442 2443 2444
2929 1 2443 2444 2445
2930 1 2444 2445 2446
2931 1 2445 2446 2447
2932 1 2446 2447 2448
2933 1 2447 2448 2449
2934 1 2448 2449 2450
2935 1 2449 2450 2451
2936 1 2450 2451 2452
2937 1 2451 2452 2453
2938 1 2452 2453 2454
2939 1 2453 2454 2455
2940 1 2454 2455 2456
2941 1 2455 2456 2457
2942 1 2456 2457 2458
2943 1 2457 2458 2459
2944 1 2458 2459 98
2945 1 2461 2460 69
2946 1 2460 2461 2462
2947 1 2461 2462 2463
2948 1 2462 2463 2464
2949 1 2463 2464 2465
2950 1 2464 2465 2466
2951 1 2465 2466 2467
2952 1 2466 2467 2468
2953 1 2467 2468 2469
2954 1 2468 2469 2470
2955 1 2469 2470 2471
2956 1 2470 2471 2472
2957 1 2471 2472 2473
2958 1 2472 2473 2474
2959 1 2473 2474 2475
2960 1 2474 2475 2476
2961 1 2475 2476 2477
2962 1 2476 2477 2478
2963 1 2477 2478 2479
2964 1 2478 2479 70
2965 1 2481 2480 69
2966 1 2480 2481 2482
2967 1 2481 2482 2483
2968 1 2482 2483 2484
2969 1 2483 2484 2485
2970 1 2484 2485 2486
2971 1 2485 2486 2487
2972 1 2486 2487 2488
2973 1 2487 2488 2489
2974 1 2488 2489 2490
2975 1 2489 2490 2491
2976 1 2490 2491 2492
2977 1 2491 2492 2493
2978 1 2492 2493 2494
2979 1 2493 2494 2495
2980 1 2494 2495 2496
2981 1 2495 2496 2497
2982 1 2496 2497 2498
2983 1 2497 2498 2499
2984 1 2498 2499 73
2985 1 2501 2500 69
2986 1 2500 2501 2502
2987 1 2501 2502 2503
2988 1 2502 2503 2504
2989 1 2503 2504 2505
2990 1 2504 2505 2506
2991 1 2505 2506 2507
2992 1 2506 2507 2508
2993 1 2507 2508 2509
2994 1 2508 2509 2510
2995 1 2509 2510 2511
2996 1 2510 2511 2512
2997 1 2511 2512 2513
2998 1 2512 2513 2514
2999 1 2513 2514 2515
3000 1 2514 2515 2516
3001 1 2515 2516 2517
3002 1 2516 2517 2518
3003 1 2517 2518 2519
3004 1 2518 2519 99
3005 1 2521 2520 70
3006 1 2520 2521 2522
3007 1 2521 2522 2523
3008 1 2522 2523 2524
3009 1 2523 2524 2525
3010 1 2524 2525 2526
3011 1 2525 2526 2527
3012 1 2526 2527 2528
3013 1 2527 2528 2529
3014 1 2528 2529 2530
3015 1 2529 2530 2531
3016 1 2530 2531 2532
3017 1 2531 2532 2533
3018 1 2532 2533 2534
3019 1 2533 2534 2535
3020 1 2534 2535 2536
3021 1 2535 2536 2537
3022 1 2536 2537 2538
3023 1 2537 2538 2539
3024 1 2538 2539 74
3025 1 2541 2540 70
3026 1 2540 2541 2542
3027 1 2541 2542 2543
3028 1 2542 2543 2544
3029 1 2543 2544 2545
3030 1 2544 2545 2546
3031 1 2545 2546 2547
3032 1 2546 2547 2548
3033 1 2547 2548 2549
3034 1 2548 2549 2550
3035 1 2549 2550 2551
3036 1 2550 2551 2552
3037 1 2551 2552 2553
3038 1 2552 2553 2554
3039 1 2553 2554 2555
3040 1 2554 2555 2556
3041 1 2555 2556 2557
3042 1 2556 2557 2558
3043 1 2557 2558 2559
3044 1 2558 2559 100
3045 1 2561 2560 71
3046 1 2560 2561 2562
3047 1 2561 2562 2563
3048 1 2562 2563 2564
3049 1 2563 2564 2565
3050 1 2564 2565 2566
3051 1 2565 2566 2567
3052 1 2566 2567 2568
3053 1 2567 2568 2569
3054 1 2568 2569 2570
3055 1 2569 2570 2571
3056 1 2570 2571 2572
3057 1 2571 2572 2573
3058 1 2572 2573 2574
3059 1 2573 2574 2575
3060 1 2574 2575 2576
3061 1 2575 2576 2577
3062 1 2576 2577 2578
3063 1 2577 2578 2579
3064 1 2578 2579 75
3065 1 2581 2580 72
3066 1 2580 2581 2582
3067 1 2581 2582 2583
3068 1 2582 2583 2584
3069 1 2583 2584 2585
3070 1 2584 2585 2586
3071 1 2585 2586 2587
3072 1 2586 2587 2588
3073 1 2587 2588 2589
3074 1 2588 2589 2590
3075 1 2589 2590 2591
3076 1 2590 2591 2592
3077 1 2591 2592 2593
3078 1 2592 2593 2594
3079 1 2593 2594 2595
3080 1 2594 2595 2596
3081 1 2595 2596 2597
3082 1 2596 2597 2598
3083 1 2597 2598 2599
3084 1 2598 2599 77
3085 1 2601 2600 72
3086 1 2600 2601 2602
3087 1 2601 2602 2603
3088 1 2602 2603 2604
3089 1 2603 2604 2605
3090 1 2604 2605 2606
3091 1 2605 2606 2607
3092 1 2606 2607 2608
3093 1 2607 2608 2609
3094 1 2608 2609 2610
3095 1 2609 2610 2611
3096 1 2610 2611 2612
3097 1 2611 2612 2613
3098 1 2612 2613 2614
3099 1 2613 2614 2615
3100 1 2614 2615 2616
3101 1 2615 2616 2617
3102 1 2616 2617 2618
3103 1 2617 2618 2619
3104 1 2618 2619 103
3105 1 2621 2620 73
3106 1 2620 2621 2622
3107 1 2621 2622 2623
3108 1 2622 2623 2624
3109 1 2623 2624 2625
3110 1 2624 2625 2626
3111 1 2625 2626 2627
3112 1 2626 2627 2628
3113 1 2627 2628 2629
3114 1 2628 2629 2630
3115 1 2629 2630 2631
3116 1 2630 2631 2632
3117 1 2631 2632 2633
3118 1 2632 2633 2634
3119 1 2633 2634 2635
3120 1 2634 2635 2636
3121 1 2635 2636 2637
3122 1 2636 2637 2638
3123 1 2637 2638 2639
3124 1 2638 2639 74
3125 1 2641 2640 73
3126 1 2640 2641 2642
3127 1 2641 2642 2643
3128 1 2642 2643 2644
3129 1 2643 2644 2645
3130 1 2644 2645 2646
3131 1 2645 2646 2647
3132 1 2646 2647 2648
3133 1 2647 2648 2649
3134 1 2648 2649 2650
3135 1 2649 2650 2651
3136 1 2650 2651 2652
3137 1 2651 2652 2653
3138 1 2652 2653 2654
3139 1 2653 2654 2655
3140 1 2654 2655 2656
3141 1 2655 2656 2657
3142 1 2656 2657 2658
3143 1 2657 2658 2659
3144 1 2658 2659 104
3145 1 2661 2660 74
3146 1 2660 2661 2662
3147 1 2661 2662 2663
3148 1 2662 2663 2664
3149 1 2663 2664 2665
3150 1 2664 2665 2666
3151 1 2665 2666 2667
3152 1 2666 2667 2668
3153 1 2667 2668 2669
3154 1 2668 2669 2670
3155 1 2669 2670 2671
3156 1 2670 2671 2672
3157 1 2671 2672 2673
3158 1 2672 2673 2674
3159 1 2673 2674 2675
3160 1 2674 2675 2676
3161 1 2675 2676 2677
3162 1 2676 2677 2678
3163 1 2677 2678 2679
3164 1 2678 2679 75
3165 1 2681 2680 74
3166 1 2680 2681 2682
3167 1 2681 2682 2683
3168 1 2682 2683 2684
3169 1 2683 2684 2685
3170 1 2684 2685 2686
3171 1 2685 2686 2687
3172 1 2686 2687 2688
3173 1 2687 2688 2689
3174 1 2688 2689 2690
3175 1 2689 2690 2691
3176 1 2690 2691 2692
3177 1 2691 2692 2693
3178 1 2692 2693 2694
3179 1 2693 2694 2695
3180 1 2694 2695 2696
3181 1 2695 2696 2697
3182 1 2696 2697 2698
3183 1 2697 2698 2699
3184 1 2698 2699 82
3185 1 2701 2700 75
3186 1 2700 2701 2702
3187 1 2701 2702 2703
3188 1 2702 2703 2704
3189 1 2703 2704 2705
3190 1 2704 2705 2706
3191 1 2705 2706 2707
3192 1 2706 2707 2708
3193 1 2707 2708 2709
3194 1 2708 2709 2710
3195 1 2709 2710 2711
3196 1 2710 2711 2712
3197 1 2711 2712 2713
3198 1 2712 2713 2714
3199 1 2713 2714 2715
3200 1 2714 2715 2716
3201 1 2715 2716 2717
3202 1 2716 2717 2718
3203 1 2717 2718 2719
3204 1 2718 2719 106
3205 1 2721 2720 76
3206 1 2720 2721 2722
3207 1 2721 2722 2723
3208 1 2722 2723 2724
3209 1 2723 2724 2725
3210 1 2724 2725 2726
3211 1 2725 2726 2727
3212 1 2726 2727 2728
3213 1 2727 2728 2729
3214 1 2728 2729 2730
3215 1 2729 2730 2731
3216 1 2730 2731 2732
3217 1 2731 2732 2733
3218 1 2732 2733 2734
3219 1 2733 2734 2735
3220 1 2734 2735 2736
3221 1 2735 2736 2737
3222 1 2736 2737 2738
3223 1 2737 2738 2739
3224 1 2738 2739 77
3225 1 2741 2740 76
3226 1 2740 2741 2742
3227 1 2741 2742 2743
3228 1 2742 2743 2744
3229 1 2743 2744 2745
3230 1 2744 2745 2746
3231 1 2745 2746 2747
3232 1 2746 2747 2748
3233 1 2747 2748 2749
3234 1 2748 2749 2750
3235 1 2749 2750 2751
3236 1 2750 2751 2752
3237 1 2751 2752 2753
3238 1 2752 2753 2754
3239 1 2753 2754 2755
3240 1 2754 2755 2756
3241 1 2755 2756 2757
3242 1 2756 2757 2758
3243 1 2757 2758 2759
3244 1 2758 2759 107
3245 1 2761 2760 77
3246 1 2760 2761 2762
3247 1 2761 2762 2763
3248 1 2762 2763 2764
3249 1 2763 2764 2765
3250 1 2764 2765 2766
3251 1 2765 2766 2767
3252 1 2766 2767 2768
3253 1 2767 2768 2769
3254 1 2768 2769 2770
3255 1 2769 2770 2771
3256 1 2770 2771 2772
3257 1 2771 2772 2773
3258 1 2772 2773 2774
3259 1 2773 2774 2775
3260 1 2774 2775 2776
3261 1 2775 2776 2777
3262 1 2776 2777 2778
3263 1 2777 2778 2779
3264 1 2778 2779 78
3265 1 2781 2780 82
3266 1 2780 2781 2782
3267 1 2781 2782 2783
3268 1 2782 2783 2784
3269 1 2783 2784 2785
3270 1 2784 2785 2786
3271 1 2785 2786 2787
3272 1 2786 2787 2788
3273 1 2787 2788 2789
3274 1 2788 2789 2790
3275 1 2789 2790 2791
3276 1 2790 2791 2792
3277 1 2791 2792 2793
3278 1 2792 2793 2794
3279 1 2793 2794 2795
3280 1 2794 2795 2796
3281 1 2795 2796 2797
3282 1 2796 2797 2798
3283 1 2797 2798 2799
3284 1 2798 2799 83
3285 1 2801 2800 82
3286 1 2800 2801 2802
3287 1 2801 2802 2803
3288 1 2802 2803 2804
3289 1 2803 2804 2805
3290 1 2804 2805 2806
3291 1 2805 2806 2807
3292 1 2806 2807 2808
3293 1 2807 2808 2809
3294 1 2808 2809 2810
3295 1 2809 2810 2811
3296 1 2810 2811 2812
3297 1 2811 2812 2813
3298 1 2812 2813 2814
3299 1 2813 2814 2815
3300 1 2814 2815 2816
3301 1 2815 2816 2817
3302 1 2816 2817 2818
3303 1 2817 2818 2819
3304 1 2818 2819 83
3305 1 2821 2820 82
3306 1 2820 2821 2822
3307 1 2821 2822 2823
3308 1 2822 2823 2824
3309 1 2823 2824 2825
3310 1 2824 2825 2826
3311 1 2825 2826 2827
3312 1 2826 2827 2828
3313 1 2827 2828 2829
3314 1 2828 2829 2830
3315 1 2829 2830 2831
3316 1 2830 2831 2832
3317 1 2831 2832 2833
3318 1 2832 2833 2834
3319 1 2833 2834 2835
3320 1 2834 2835 2836
3321 1 2835 2836 2837
3322 1 2836 2837 2838
3323 1 2837 2838 2839
3324 1 2838 2839 110
3325 1 2841 2840 83
3326 1 2840 2841 2842
3327 1 2841 2842 2843
3328 1 2842 2843 2844
3329 1 2843 2844 2845
3330 1 2844 2845 2846
3331 1 2845 2846 2847
3332 1 2846 2847 2848
3333 1 2847 2848 2849
3334 1 2848 2849 2850
3335 1 2849 2850 2851
3336 1 2850 2851 2852
3337 1 2851 2852 2853
3338 1 2852 2853 2854
3339 1 2853 2854 2855
3340 1 2854 2855 2856
3341 1 2855 2856 2857
3342 1 2856 2857 2858
3343 1 2857 2858 2859
3344 1 2858 2859 111
3345 1 2861 2860 84
3346 1 2860 2861 2862
3347 1 2861 2862 2863
3348 1 2862 2863 2864
3349 1 2863 2864 2865
3350 1 2864 2865 2866
3351 1 2865 2866 2867
3352 1 2866 2867 2868
3353 1 2867 2868 2869
3354 1 2868 2869 2870
3355 1 2869 2870 2871
3356 1 2870 2871 2872
3357 1 2871 2872 2873
3358 1 2872 2873 2874
3359 1 2873 2874 2875
3360 1 2874 2875 2876
3361 1 2875 2876 2877
3362 1 2876 2877 2878
3363 1 2877 2878 2879
3364 1 2878 2879 88
3365 1 2881 2880 88
3366 1 2880 2881 2882
3367 1 2881 2882 2883
3368 1 2882 2883 2884
3369 1 2883 2884 2885
3370 1 2884 2885 2886
3371 1 2885 2886 2887
3372 1 2886 2887 2888
3373 1 2887 2888 2889
3374 1 2888 2889 2890
3375 1 2889 2890 2891
3376 1 2890 2891 2892
3377 1 2891 2892 2893
3378 1 2892 2893 2894
3379 1 2893 2894 2895
3380 1 2894 2895 2896
3381 1 2895 2896 2897
3382 1 2896 2897 2898
3383 1 2897 2898 2899
3384 1 2898 2899 113
3385 1 2901 2900 88
3386 1 2900 2901 2902
3387 1 2901 2902 2903
3388 1 2902 2903 2904
3389 1 2903 2904 2905
3390 1 2904 2905 2906
3391 1 2905 2906 2907
3392 1 2906 2907 2908
3393 1 2907 2908 2909
3394 1 2908 2909 2910
3395 1 2909 2910 2911
3396 1 2910 2911 2912
3397 1 2911 2912 2913
3398 1 2912 2913 2914
3399 1 2913 2914 2915
3400 1 2914 2915 2916
3401 1 2915 2916 2917
3402 1 2916 2917 2918
3403 1 2917 2918 2919
3404 1 2918 2919 108
3405 1 2921 2920 89
3406 1 2920 2921 2922
3407 1 2921 2922 2923
3408 1 2922 2923 2924
3409 1 2923 2924 2925
3410 1 2924 2925 2926
3411 1 2925 2926 2927
3412 1 2926 2927 2928
3413 1 2927 2928 2929
3414 1 2928 2929 2930
3415 1 2929 2930 2931
3416 1 2930 2931 2932
3417 1 2931 2932 2933
3418 1 2932 2933 2934
3419 1 2933 2934 2935
3420 1 2934 2935 2936
3421 1 2935 2936 2937
3422 1 2936 2937 2938
3423 1 2937 2938 2939
3424 1 2938 2939 90
3425 1 2941 2940 89
3426 1 2940 2941 2942
3427 1 2941 2942 2943
3428 1 2942 2943 2944
3429 1 2943 2944 2945
3430 1 2944 2945 2946
3431 1 2945 2946 2947
3432 1 2946 2947 2948
3433 1 2947 2948 2949
3434 1 2948 2949 2950
3435 1 2949 2950 2951
3436 1 2950 2951 2952
3437 1 2951 2952 2953
3438 1 2952 2953 2954
3439 1 2953 2954 2955
3440 1 2954 2955 2956
3441 1 2955 2956 2957
3442 1 2956 2957 2958
3443 1 2957 2958 2959
3444 1 2958 2959 114
3445 1 2961 2960 89
3446 1 2960 2961 2962
3447 1 2961 2962 2963
3448 1 2962 2963 2964
3449 1 2963 2964 2965
3450 1 2964 2965 2966
3451 1 2965 2966 2967
3452 1 2966 2967 2968
3453 1 2967 2968 2969
3454 1 2968 2969 2970
3455 1 2969 2970 2971
3456 1 2970 2971 2972
3457 1 2971 2972 2973
3458 1 2972 2973 2974
3459 1 2973 2974 2975
3460 1 2974 2975 2976
3461 1 2975 2976 2977
3462 1 2976 2977 2978
3463 1 2977 2978 2979
3464 1 2978 2979 109
3465 1 2981 2980 90
3466 1 2980 2981 2982
3467 1 2981 2982 2983
3468 1 2982 2983 2984
3469 1 2983 2984 2985
3470 1 2984 2985 2986
3471 1 2985 2986 2987
3472 1 2986 2987 2988
3473 1 2987 2988 2989
3474 1 2988 2989 2990
3475 1 2989 2990 2991
3476 1 2990 2991 2992
3477 1 2991 2992 2993
3478 1 2992 2993 2994
3479 1 2993 2994 2995
3480 1 2994 2995 2996
3481 1 2995 2996 2997
3482 1 2996 2997 2998
3483 1 2997 2998 2999
3484 1 2998 2999 95
3485 1 3001 3000 90
3486 1 3000 3001 3002
3487 1 3001 3002 3003
3488 1 3002 3003 3004
3489 1 3003 3004 3005
3490 1 3004 3005 3006
3491 1 3005 3006 3007
3492 1 3006 3007 3008
3493 1 3007 3008 3009
3494 1 3008 3009 3010
3495 1 3009 3010 3011
3496 1 3010 3011 3012
3497 1 3011 3012 3013
3498 1 3012 3013 3014
3499 1 3013 3014 3015
3500 1 3014 3015 3016
3501 1 3015 3016 3017
3502 1 3016 3017 3018
3503 1 3017 3018 3019
3504 1 3018 3019 115
3505 1 3021 3020 91
3506 1 3020 3021 3022
3507 1 3021 3022 3023
3508 1 3022 3023 3024
3509 1 3023 3024 3025
3510 1 3024 3025 3026
3511 1 3025 3026 3027
3512 1 3026 3027 3028
3513 1 3027 3028 3029
3514 1 3028 3029 3030
3515 1 3029 3030 3031
3516 1 3030 3031 3032
3517 1 3031 3032 3033
3518 1 3032 3033 3034
3519 1 3033 3034 3035
3520 1 3034 3035 3036
3521 1 3035 3036 3037
3522 1 3036 3037 3038
3523 1 3037 3038 3039
3524 1 3038 3039 116
3525 1 3041 3040 91
3526 1 3040 3041 3042
3527 1 3041 3042 3043
3528 1 3042 3043 3044
3529 1 3043 3044 3045
3530 1 3044 3045 3046
3531 1 3045 3046 3047
3532 1 3046 3047 3048
3533 1 3047 3048 3049
3534 1 3048 3049 3050
3535 1 3049 3050 3051
3536 1 3050 3051 3052
3537 1 3051 3052 3053
3538 1 3052 3053 3054
3539 1 3053 3054 3055
3540 1 3054 3055 3056
3541 1 3055 3056 3057
3542 1 3056 3057 3058
3543 1 3057 3058 3059
3544 1 3058 3059 111
3545 1 3061 3060 91
3546 1 3060 3061 3062
3547 1 3061 3062 3063
3548 1 3062 3063 3064
3549 1 3063 3064 3065
3550 1 3064 3065 3066
3551 1 3065 3066 3067
3552 1 3066 3067 3068
3553 1 3067 3068 3069
3554 1 3068 3069 3070
3555 1 3069 3070 3071
3556 1 3070 3071 3072
3557 1 3071 3072 3073
3558 1 3072 3073 3074
3559 1 3073 3074 3075
3560 1 3074 3075 3076
3561 1 3075 3076 3077
3562 1 3076 3077 3078
3563 1 3077 3078 3079
3564 1 3078 3079 111
3565 1 3081 3080 92
3566 1 3080 3081 3082
3567 1 3081 3082 3083
3568 1 3082 3083 3084
3569 1 3083 3084 3085
3570 1 3084 3085 3086
3571 1 3085 3086 3087
3572 1 3086 3087 3088
3573 1 3087 3088 3089
3574 1 3088 3089 3090
3575 1 3089 3090 3091
3576 1 3090 3091 3092
3577 1 3091 3092 3093
3578 1 3092 3093 3094
3579 1 3093 3094 3095
3580 1 3094 3095 3096
3581 1 3095 3096 3097
3582 1 3096 3097 3098
3583 1 3097 3098 3099
3584 1 3098 3099 93
3585 1 3101 3100 92
3586 1 3100 3101 3102
3587 1 3101 3102 3103
3588 1 3102 3103 3104
3589 1 3103 3104 3105
3590 1 3104 3105 3106
3591 1 3105 3106 3107
3592 1 3106 3107 3108
3593 1 3107 3108 3109
3594 1 3108 3109 3110
3595 1 3109 3110 3111
3596 1 3110 3111 3112
3597 1 3111 3112 3113
3598 1 3112 3113 3114
3599 1 3113 3114 3115
3600 1 3114 3115 3116
3601 1 3115 3116 3117
3602 1 3116 3117 3118
3603 1 3117 3118 3119
3604 1 3118 3119 93
3605 1 3121 3120 92
3606 1 3120 3121 3122
3607 1 3121 3122 3123
3608 1 3122 3123 3124
3609 1 3123 3124 3125
3610 1 3124 3125 3126
3611 1 3125 3126 3127
3612 1 3126 3127 3128
3613 1 3127 3128 3129
3614 1 3128 3129 3130
3615 1 3129 3130 3131
3616 1 3130 3131 3132
3617 1 3131 3132 3133
3618 1 3132 3133 3134
3619 1 3133 3134 3135
3620 1 3134 3135 3136
3621 1 3135 3136 3137
3622 1 3136 3137 3138
3623 1 3137 3138 3139
3624 1 3138 3139 117
3625 1 3141 3140 93
3626 1 3140 3141 3142
3627 1 3141 3142 3143
3628 1 3142 3143 3144
3629 1 3143 3144 3145
3630 1 3144 3145 3146
3631 1 3145 3146 3147
3632 1 3146 3147 3148
3633 1 3147 3148 3149
3634 1 3148 3149 3150
3635 1 3149 3150 3151
3636 1 3150 3151 3152
3637 1 3151 3152 3153
3638 1 3152 3153 3154
3639 1 3153 3154 3155
3640 1 3154 3155 3156
3641 1 3155 3156 3157
3642 1 3156 3157 3158
3643 1 3157 3158 3159
3644 1 3158 3159 94
3645 1 3161 3160 93
3646 1 3160 3161 3162
3647 1 3161 3162 3163
3648 1 3162 3163 3164
3649 1 3163 3164 3165
3650 1 3164 3165 3166
3651 1 3165 3166 3167
3652 1 3166 3167 3168
3653 1 3167 3168 3169
3654 1 3168 3169 3170
3655 1 3169 3170 3171
3656 1 3170 3171 3172
3657 1 3171 3172 3173
3658 1 3172 3173 3174
3659 1 3173 3174 3175
3660 1 3174 3175 3176
3661 1 3175 3176 3177
3662 1 3176 3177 3178
3663 1 3177 3178 3179
3664 1 3178 3179 118
3665 1 3181 3180 94
3666 1 3180 3181 3182
3667 1 3181 3182 3183
3668 1 3182 3183 3184
3669 1 3183 3184 3185
3670 1 3184 3185 3186
3671 1 3185 3186 3187
3672 1 3186 3187 3188
3673 1 3187 3188 3189
3674 1 3188 3189 3190
3675 1 3189 3190 3191
3676 1 3190 3191 3192
3677 1 3191 3192 3193
3678 1 3192 3193 3194
3679 1 3193 3194 3195
3680 1 3194 3195 3196
3681 1 3195 3196 3197
3682 1 3196 3197 3198
3683 1 3197 3198 3199
3684 1 3198 3199 95
3685 1 3201 3200 94
3686 1 3200 3201 3202
3687 1 3201 3202 3203
3688 1 3202 3203 3204
3689 1 3203 3204 3205
3690 1 3204 3205 3206
3691 1 3205 3206 3207
3692 1 3206 3207 3208
3693 1 3207 3208 3209
3694 1 3208 3209 3210
3695 1 3209 3210 3211
3696 1 3210 3211 3212
3697 1 3211 3212 3213
3698 1 3212 3213 3214
3699 1 3213 3214 3215
3700 1 3214 3215 3216
3701 1 3215 3216 3217
3702 1 3216 3217 3218
3703 1 3217 3218 3219
3704 1 3218 3219 99
3705 1 3221 3220 94
3706 1 3220 3221 3222
3707 1 3221 3222 3223
3708 1 3222 3223 3224
3709 1 3223 3224 3225
3710 1 3224 3225 3226
3711 1 3225 3226 3227
3712 1 3226 3227 3228
3713 1 3227 3228 3229
3714 1 3228 3229 3230
3715 1 3229 3230 3231
3716 1 3230 3231 3232
3717 1 3231 3232 3233
3718 1 3232 3233 3234
3719 1 3233 3234 3235
3720 1 3234 3235 3236
3721 1 3235 3236 3237
3722 1 3236 3237 3238
3723 1 3237 3238 3239
3724 1 3238 3239 119
3725 1 3241 3240 95
3726 1 3240 3241 3242
3727 1 3241 3242 3243
3728 1 3242 3243 3244
3729 1 3243 3244 3245
3730 1 3244 3245 3246
3731 1 3245 3246 3247
3732 1 3246 3247 3248
3733 1 3247 3248 3249
3734 1 3248 3249 3250
3735 1 3249 3250 3251
3736 1 3250 3251 3252
3737 1 3251 3252 3253
3738 1 3252 3253 3254
3739 1 3253 3254 3255
3740 1 3254 3255 3256
3741 1 3255 3256 3257
3742 1 3256 3257 3258
3743 1 3257 3258 3259
3744 1 3258 3259 100
3745 1 3261 3260 96
3746 1 3260 3261 3262
3747 1 3261 3262 3263
3748 1 3262 3263 3264
3749 1 3263 3264 3265
3750 1 3264 3265 3266
3751 1 3265 3266 3267
3752 1 3266 3267 3268
3753 1 3267 3268 3269
3754 1 3268 3269 3270
3755 1 3269 3270 3271
3756 1 3270 3271 3272
3757 1 3271 3272 3273
3758 1 3272 3273 3274
3759 1 3273 3274 3275
3760 1 3274 3275 3276
3761 1 3275 3276 3277
3762 1 3276 3277 3278
3763 1 3277 3278 3279
3764 1 3278 3279 101
3765 1 3281 3280 96
3766 1 3280 3281 3282
3767 1 3281 3282 3283
3768 1 3282 3283 3284
3769 1 3283 3284 3285
3770 1 3284 3285 3286
3771 1 3285 3286 3287
3772 1 3286 3287 3288
3773 1 3287 3288 3289
3774 1 3288 3289 3290
3775 1 3289 3290 3291
3776 1 3290 3291 3292
3777 1 3291 3292 3293
3778 1 3292 3293 3294
3779 1 3293 3294 3295
3780 1 3294 3295 3296
3781 1 3295 3296 3297
3782 1 3296 3297 3298
3783 1 3297 3298 3299
3784 1 3298 3299 121
3785 1 3301 3300 97
3786 1 3300 3301 3302
3787 1 3301 3302 3303
3788 1 3302 3303 3304
3789 1 3303 3304 3305
3790 1 3304 3305 3306
3791 1 3305 3306 3307
3792 1 3306 3307 3308
3793 1 3307 3308 3309
3794 1 3308 3309 3310
3795 1 3309 3310 3311
3796 1 3310 3311 3312
3797 1 3311 3312 3313
3798 1 3312 3313 3314
3799 1 3313 3314 3315
3800 1 3314 3315 3316
3801 1 3315 3316 3317
3802 1 3316 3317 3318
3803 1 3317 3318 3319
3804 1 3318 3319 102
3805 1 3321 3320 97
3806 1 3320 3321 3322
3807 1 3321 3322 3323
3808 1 3322 3323 3324
3809 1 3323 3324 3325
3810 1 3324 3325 3326
3811 1 3325 3326 3327
3812 1 3326 3327 3328
3813 1 3327 3328 3329
3814 1 3328 3329 3330
3815 1 3329 3330 3331
3816 1 3330 3331 3332
3817 1 3331 3332 3333
3818 1 3332 3333 3334
3819 1 3333 3334 3335
3820 1 3334 3335 3336
3821 1 3335 3336 3337
3822 1 3336 3337 3338
3823 1 3337 3338 3339
3824 1 3338 3339 122
3825 1 3341 3340 97
3826 1 3340 3341 3342
3827 1 3341 3342 3343
3828 1 3342 3343 3344
3829 1 3343 3344 3345
3830 1 3344 3345 3346
3831 1 3345 3346 3347
3832 1 3346 3347 3348
3833 1 3347 3348 3349
3834 1 3348 3349 3350
3835 1 3349 3350 3351
3836 1 3350 3351 3352
3837 1 3351 3352 3353
3838 1 3352 3353 3354
3839 1 3353 3354 3355
3840 1 3354 3355 3356
3841 1 3355 3356 3357
3842 1 3356 3357 3358
3843 1 3357 3358 3359
3844 1 3358 3359 101
3845 1 3361 3360 98
3846 1 3360 3361 3362
3847 1 3361 3362 3363
3848 1 3362 3363 3364
3849 1 3363 3364 3365
3850 1 3364 3365 3366
3851 1 3365 3366 3367
3852 1 3366 3367 3368
3853 1 3367 3368 3369
3854 1 3368 3369 3370
3855 1 3369 3370 3371
3856 1 3370 3371 3372
3857 1 3371 3372 3373
3858 1 3372 3373 3374
3859 1 3373 3374 3375
3860 1 3374 3375 3376
3861 1 3375 3376 3377
3862 1 3376 3377 3378
3863 1 3377 3378 3379
3864 1 3378 3379 99
3865 1 3381 3380 98
3866 1 3380 3381 3382
3867 1 3381 3382 3383
3868 1 3382 3383 3384
3869 1 3383 3384 3385
3870 1 3384 3385 3386
3871 1 3385 3386 3387
3872 1 3386 3387 3388
3873 1 3387 3388 3389
3874 1 3388 3389 3390
3875 1 3389 3390 3391
3876 1 3390 3391 3392
3877 1 3391 3392 3393
3878 1 3392 3393 3394
3879 1 3393 3394 3395
3880 1 3394 3395 3396
3881 1 3395 3396 3397
3882 1 3396 3397 3398
3883 1 3397 3398 3399
3884 1 3398 3399 99
3885 1 3401 3400 98
3886 1 3400 3401 3402
3887 1 3401 3402 3403
3888 1 3402 3403 3404
3889 1 3403 3404 3405
3890 1 3404 3405 3406
3891 1 3405 3406 3407
3892 1 3406 3407 3408
3893 1 3407 3408 3409
3894 1 3408 3409 3410
3895 1 3409 3410 3411
3896 1 3410 3411 3412
3897 1 3411 3412 3413
3898 1 3412 3413 3414
3899 1 3413 3414 3415
3900 1 3414 3415 3416
3901 1 3415 3416 3417
3902 1 3416 3417 3418
3903 1 3417 3418 3419
3904 1 3418 3419 123
3905 1 3421 3420 99
3906 1 3420 3421 3422
3907 1 3421 3422 3423
3908 1 3422 3423 3424
3909 1 3423 3424 3425
3910 1 3424 3425 3426
3911 1 3425 3426 3427
3912 1 3426 3427 3428
3913 1 3427 3428 3429
3914 1 3428 3429 3430
3915 1 3429 3430 3431
3916 1 3430 3431 3432
3917 1 3431 3432 3433
3918 1 3432 3433 3434
3919 1 3433 3434 3435
3920 1 3434 3435 3436
3921 1 3435 3436 3437
3922 1 3436 3437 3438
3923 1 3437 3438 3439
3924 1 3438 3439 104
3925 1 3441 3440 100
3926 1 3440 3441 3442
3927 1 3441 3442 3443
3928 1 3442 3443 3444
3929 1 3443 3444 3445
3930 1 3444 3445 3446
3931 1 3445 3446 3447
3932 1 3446 3447 3448
3933 1 3447 3448 3449
3934 1 3448 3449 3450
3935 1 3449 3450 3451
3936 1 3450 3451 3452
3937 1 3451 3452 3453
3938 1 3452 3453 3454
3939 1 3453 3454 3455
3940 1 3454 3455 3456
3941 1 3455 3456 3457
3942 1 3456 3457 3458
3943 1 3457 3458 3459
3944 1 3458 3459 101
3945 1 3461 3460 100
3946 1 3460 3461 3462
3947 1 3461 3462 3463
3948 1 3462 3463 3464
3949 1 3463 3464 3465
3950 1 3464 3465 3466
3951 1 3465 3466 3467
3952 1 3466 3467 3468
3953 1 3467 3468 3469
3954 1 3468 3469 3470
3955 1 3469 3470 3471
3956 1 3470 3471 3472
3957 1 3471 3472 3473
3958 1 3472 3473 3474
3959 1 3473 3474 3475
3960 1 3474 3475 3476
3961 1 3475 3476 3477
3962 1 3476 3477 3478
3963 1 3477 3478 3479
3964 1 3478 3479 105
3965 1 3481 3480 101
3966 1 3480 3481 3482
3967 1 3481 3482 3483
3968 1 3482 3483 3484
3969 1 3483 3484 3485
3970 1 3484 3485 3486
3971 1 3485 3486 3487
3972 1 3486 3487 3488
3973 1 3487 3488 3489
3974 1 3488 3489 3490
3975 1 3489 3490 3491
3976 1 3490 3491 3492
3977 1 3491 3492 3493
3978 1 3492 3493 3494
3979 1 3493 3494 3495
3980 1 3494 3495 3496
3981 1 3495 3496 3497
3982 1 3496 3497 3498
3983 1 3497 3498 3499
3984 1 3498 3499 126
3985 1 3501 3500 102
3986 1 3500 3501 3502
3987 1 3501 3502 3503
3988 1 3502 3503 3504
3989 1 3503 3504 3505
3990 1 3504 3505 3506
3991 1 3505 3506 3507
3992 1 3506 3507 3508
3993 1 3507 3508 3509
3994 1 3508 3509 3510
3995 1 3509 3510 3511
3996 1 3510 3511 3512
3997 1 3511 3512 3513
3998 1 3512 3513 3514
3999 1 3513 3514 3515
4000 1 3514 3515 3516
4001 1 3515 3516 3517
4002 1 3516 3517 3518
4003 1 3517 3518 3519
4004 1 3518 3519 103
4005 1 3521 3520 102
4006 1 3520 3521 3522
4007 1 3521 3522 3523
4008 1 3522 3523 3524
4009 1 3523 3524 3525
4010 1 3524 3525 3526
4011 1 3525 3526 3527
4012 1 3526 3527 3528
4013 1 3527 3528 3529
4014 1 3528 3529 3530
4015 1 3529 3530 3531
4016 1 3530 3531 3532
4017 1 3531 3532 3533
4018 1 3532 3533 3534
4019 1 3533 3534 3535
4020 1 3534 3535 3536
4021 1 3535 3536 3537
4022 1 3536 3537 3538
4023 1 3537 3538 3539
4024 1 3538 3539 106
4025 1 3541 3540 103
4026 1 3540 3541 3542
4027 1 3541 3542 3543
4028 1 3542 3543 3544
4029 1 3543 3544 3545
4030 1 3544 3545 3546
4031 1 3545 3546 3547
4032 1 3546 3547 3548
4033 1 3547 3548 3549
4034 1 3548 3549 3550
4035 1 3549 3550 3551
4036 1 3550 3551 3552
4037 1 3551 3552 3553
4038 1 3552 3553 3554
4039 1 3553 3554 3555
4040 1 3554 3555 3556
4041 1 3555 3556 3557
4042 1 3556 3557 3558
4043 1 3557 3558 3559
4044 1 3558 3559 108
4045 1 3561 3560 103
4046 1 3560 3561 3562
4047 1 3561 3562 3563
4048 1 3562 3563 3564
4049 1 3563 3564 3565
4050 1 3564 3565 3566
4051 1 3565 3566 3567
4052 1 3566 3567 3568
4053 1 3567 3568 3569
4054 1 3568 3569 3570
4055 1 3569 3570 3571
4056 1 3570 3571 3572
4057 1 3571 3572 3573
4058 1 3572 3573 3574
4059 1 3573 3574 3575
4060 1 3574 3575 3576
4061 1 3575 3576 3577
4062 1 3576 3577 3578
4063 1 3577 3578 3579
4064 1 3578 3579 131
4065 1 3581 3580 104
4066 1 3580 3581 3582
4067 1 3581 3582 3583
4068 1 3582 3583 3584
4069 1 3583 3584 3585
4070 1 3584 3585 3586
4071 1 3585 3586 3587
4072 1 3586 3587 3588
4073 1 3587 3588 3589
4074 1 3588 3589 3590
4075 1 3589 3590 3591
4076 1 3590 3591 3592
4077 1 3591 3592 3593
4078 1 3592 3593 3594
4079 1 3593 3594 3595
4080 1 3594 3595 3596
4081 1 3595 3596 3597
4082 1 3596 3597 3598
4083 1 3597 3598 3599
4084 1 3598 3599 132
4085 1 3601 3600 105
4086 1 3600 3601 3602
4087 1 3601 3602 3603
4088 1 3602 3603 3604
4089 1 3603 3604 3605
4090 1 3604 3605 3606
4091 1 3605 3606 3607
4092 1 3606 3607 3608
4093 1 3607 3608 3609
4094 1 3608 3609 3610
4095 1 3609 3610 3611
4096 1 3610 3611 3612
4097 1 3611 3612 3613
4098 1 3612 3613 3614
4099 1 3613 3614 3615
4100 1 3614 3615 3616
4101 1 3615 3616 3617
4102 1 3616 3617 3618
4103 1 3617 3618 3619
4104 1 3618 3619 106
4105 1 3621 3620 105
4106 1 3620 3621 3622
4107 1 3621 3622 3623
4108 1 3622 3623 3624
4109 1 3623 3624 3625
4110 1 3624 3625 3626
4111 1 3625 3626 3627
4112 1 3626 3627 3628
4113 1 3627 3628 3629
4114 1 3628 3629 3630
4115 1 3629 3630 3631
4116 1 3630 3631 3632
4117 1 3631 3632 3633
4118 1 3632 3633 3634
4119 1 3633 3634 3635
4120 1 3634 3635 3636
4121 1 3635 3636 3637
4122 1 3636 3637 3638
4123 1 3637 3638 3639
4124 1 3638 3639 110
4125 1 3641 3640 105
4126 1 3640 3641 3642
4127 1 3641 3642 3643
4128 1 3642 3643 3644
4129 1 3643 3644 3645
4130 1 3644 3645 3646
4131 1 3645 3646 3647
4132 1 3646 3647 3648
4133 1 3647 3648 3649
4134 1 3648 3649 3650
4135 1 3649 3650 3651
4136 1 3650 3651 3652
4137 1 3651 3652 3653
4138 1 3652 3653 3654
4139 1 3653 3654 3655
4140 1 3654 3655 3656
4141 1 3655 3656 3657
4142 1 3656 3657 3658
4143 1 3657 3658 3659
4144 1 3658 3659 133
4145 1 3661 3660 105
4146 1 3660 3661 3662
4147 1 3661 3662 3663
4148 1 3662 3663 3664
4149 1 3663 3664 3665
4150 1 3664 3665 3666
4151 1 3665 3666 3667
4152 1 3666 3667 3668
4153 1 3667 3668 3669
4154 1 3668 3669 3670
4155 1 3669 3670 3671
4156 1 3670 3671 3672
4157 1 3671 3672 3673
4158 1 3672 3673 3674
4159 1 3673 3674 3675
4160 1 3674 3675 3676
4161 1 3675 3676 3677
4162 1 3676 3677 3678
4163 1 3677 3678 3679
4164 1 3678 3679 133
4165 1 3681 3680 106
4166 1 3680 3681 3682
4167 1 3681 3682 3683
4168 1 3682 3683 3684
4169 1 3683 3684 3685
4170 1 3684 3685 3686
4171 1 3685 3686 3687
4172 1 3686 3687 3688
4173 1 3687 3688 3689
4174 1 3688 3689 3690
4175 1 3689 3690 3691
4176 1 3690 3691 3692
4177 1 3691 3692 3693
4178 1 3692 3693 3694
4179 1 3693 3694 3695
4180 1 3694 3695 3696
4181 1 3695 3696 3697
4182 1 3696 3697 3698
4183 1 3697 3698 3699
4184 1 3698 3699 134
4185 1 3701 3700 107
4186 1 3700 3701 3702
4187 1 3701 3702 3703
4188 1 3702 3703 3704
4189 1 3703 3704 3705
4190 1 3704 3705 3706
4191 1 3705 3706 3707
4192 1 3706 3707 3708
4193 1 3707 3708 3709
4194 1 3708 3709 3710
4195 1 3709 3710 3711
4196 1 3710 3711 3712
4197 1 3711 3712 3713
4198 1 3712 3713 3714
4199 1 3713 3714 3715
4200 1 3714 3715 3716
4201 1 3715 3716 3717
4202 1 3716 3717 3718
4203 1 3717 3718 3719
4204 1 3718 3719 108
4205 1 3721 3720 107
4206 1 3720 3721 3722
4207 1 3721 3722 3723
4208 1 3722 3723 3724
4209 1 3723 3724 3725
4210 1 3724 3725 3726
4211 1 3725 3726 3727
4212 1 3726 3727 3728
4213 1 3727 3728 3729
4214 1 3728 3729 3730
4215 1 3729 3730 3731
4216 1 3730 3731 3732
4217 1 3731 3732 3733
4218 1 3732 3733 3734
4219 1 3733 3734 3735
4220 1 3734 3735 3736
4221 1 3735 3736 3737
4222 1 3736 3737 3738
4223 1 3737 3738 3739
4224 1 3738 3739 135
4225 1 3741 3740 107
4226 1 3740 3741 3742
4227 1 3741 3742 3743
4228 1 3742 3743 3744
4229 1 3743 3744 3745
4230 1 3744 3745 3746
4231 1 3745 3746 3747
4232 1 3746 3747 3748
4233 1 3747 3748 3749
4234 1 3748 3749 3750
4235 1 3749 3750 3751
4236 1 3750 3751 3752
4237 1 3751 3752 3753
4238 1 3752 3753 3754
4239 1 3753 3754 3755
4240 1 3754 3755 3756
4241 1 3755 3756 3757
4242 1 3756 3757 3758
4243 1 3757 3758 3759
4244 1 3758 3759 111
4245 1 3761 3760 108
4246 1 3760 3761 3762
4247 1 3761 3762 3763
4248 1 3762 3763 3764
4249 1 3763 3764 3765
4250 1 3764 3765 3766
4251 1 3765 3766 3767
4252 1 3766 3767 3768
4253 1 3767 3768 3769
4254 1 3768 3769 3770
4255 1 3769 3770 3771
4256 1 3770 3771 3772
4257 1 3771 3772 3773
4258 1 3772 3773 3774
4259 1 3773 3774 3775
4260 1 3774 3775 3776
4261 1 3775 3776 3777
4262 1 3776 3777 3778
4263 1 3777 3778 3779
4264 1 3778 3779 136
4265 1 3781 3780 109
4266 1 3780 3781 3782
4267 1 3781 3782 3783
4268 1 3782 3783 3784
4269 1 3783 3784 3785
4270 1 3784 3785 3786
4271 1 3785 3786 3787
4272 1 3786 3787 3788
4273 1 3787 3788 3789
4274 1 3788 3789 3790
4275 1 3789 3790 3791
4276 1 3790 3791 3792
4277 1 3791 3792 3793
4278 1 3792 3793 3794
4279 1 3793 3794 3795
4280 1 3794 3795 3796
4281 1 3795 3796 3797
4282 1 3796 3797 3798
4283 1 3797 3798 3799
4284 1 3798 3799 110
4285 1 3801 3800 109
4286 1 3800 3801 3802
4287 1 3801 3802 3803
4288 1 3802 3803 3804
4289 1 3803 3804 3805
4290 1 3804 3805 3806
4291 1 3805 3806 3807
4292 1 3806 3807 3808
4293 1 3807 3808 3809
4294 1 3808 3809 3810
4295 1 3809 3810 3811
4296 1 3810 3811 3812
4297 1 3811 3812 3813
4298 1 3812 3813 3814
4299 1 3813 3814 3815
4300 1 3814 3815 3816
4301 1 3815 3816 3817
4302 1 3816 3817 3818
4303 1 3817 3818 3819
4304 1 3818 3819 137
4305 1 3821 3820 110
4306 1 3820 3821 3822
4307 1 3821 3822 3823
4308 1 3822 3823 3824
4309 1 3823 3824 3825
4310 1 3824 3825 3826
4311 1 3825 3826 3827
4312 1 3826 3827 3828
4313 1 3827 3828 3829
4314 1 3828 3829 3830
4315 1 3829 3830 3831
4316 1 3830 3831 3832
4317 1 3831 3832 3833
4318 1 3832 3833 3834
4319 1 3833 3834 3835
4320 1 3834 3835 3836
4321 1 3835 3836 3837
4322 1 3836 3837 3838
4323 1 3837 3838 3839
4324 1 3838 3839 138
4325 1 3841 3840 112
4326 1 3840 3841 3842
4327 1 3841 3842 3843
4328 1 3842 3843 3844
4329 1 3843 3844 3845
4330 1 3844 3845 3846
4331 1 3845 3846 3847
4332 1 3846 3847 3848
4333 1 3847 3848 3849
4334 1 3848 3849 3850
4335 1 3849 3850 3851
4336 1 3850 3851 3852
4337 1 3851 3852 3853
4338 1 3852 3853 3854
4339 1 3853 3854 3855
4340 1 3854 3855 3856
4341 1 3855 3856 3857
4342 1 3856 3857 3858
4343 1 3857 3858 3859
4344 1 3858 3859 113
4345 1 3861 3860 112
4346 1 3860 3861 3862
4347 1 3861 3862 3863
4348 1 3862 3863 3864
4349 1 3863 3864 3865
4350 1 3864 3865 3866
4351 1 3865 3866 3867
4352 1 3866 3867 3868
4353 1 3867 3868 3869
4354 1 3868 3869 3870
4355 1 3869 3870 3871
4356 1 3870 3871 3872
4357 1 3871 3872 3873
4358 1 3872 3873 3874
4359 1 3873 3874 3875
4360 1 3874 3875 3876
4361 1 3875 3876 3877
4362 1 3876 3877 3878
4363 1 3877 3878 3879
4364 1 3878 3879 116
4365 1 3881 3880 112
4366 1 3880 3881 3882
4367 1 3881 3882 3883
4368 1 3882 3883 3884
4369 1 3883 3884 3885
4370 1 3884 3885 3886
4371 1 3885 3886 3887
4372 1 3886 3887 3888
4373 1 3887 3888 3889
4374 1 3888 3889 3890
4375 1 3889 3890 3891
4376 1 3890 3891 3892
4377 1 3891 3892 3893
4378 1 3892 3893 3894
4379 1 3893 3894 3895
4380 1 3894 3895 3896
4381 1 3895 3896 3897
4382 1 3896 3897 3898
4383 1 3897 3898 3899
4384 1 3898 3899 135
4385 1 3901 3900 113
4386 1 3900 3901 3902
4387 1 3901 3902 3903
4388 1 3902 3903 3904
4389 1 3903 3904 3905
4390 1 3904 3905 3906
4391 1 3905 3906 3907
4392 1 3906 3907 3908
4393 1 3907 3908 3909
4394 1 3908 3909 3910
4395 1 3909 3910 3911
4396 1 3910 3911 3912
4397 1 3911 3912 3913
4398 1 3912 3913 3914
4399 1 3913 3914 3915
4400 1 3914 3915 3916
4401 1 3915 3916 3917
4402 1 3916 3917 3918
4403 1 3917 3918 3919
4404 1 3918 3919 118
4405 1 3921 3920 113
4406 1 3920 3921 3922
4407 1 3921 3922 3923
4408 1 3922 3923 3924
4409 1 3923 3924 3925
4410 1 3924 3925 3926
4411 1 3925 3926 3927
4412 1 3926 3927 3928
4413 1 3927 3928 3929
4414 1 3928 3929 3930
4415 1 3929 3930 3931
4416 1 3930 3931 3932
4417 1 3931 3932 3933
4418 1 3932 3933 3934
4419 1 3933 3934 3935
4420 1 3934 3935 3936
4421 1 3935 3936 3937
4422 1 3936 3937 3938
4423 1 3937 3938 3939
4424 1 3938 3939 136
4425 1 3941 3940 114
4426 1 3940 3941 3942
4427 1 3941 3942 3943
4428 1 3942 3943 3944
4429 1 3943 3944 3945
4430 1 3944 3945 3946
4431 1 3945 3946 3947
4432 1 3946 3947 3948
4433 1 3947 3948 3949
4434 1 3948 3949 3950
4435 1 3949 3950 3951
4436 1 3950 3951 3952
4437 1 3951 3952 3953
4438 1 3952 3953 3954
4439 1 3953 3954 3955
4440 1 3954 3955 3956
4441 1 3955 3956 3957
4442 1 3956 3957 3958
4443 1 3957 3958 3959
4444 1 3958 3959 115
4445 1 3961 3960 114
4446 1 3960 3961 3962
4447 1 3961 3962 3963
4448 1 3962 3963 3964
4449 1 3963 3964 3965
4450 1 3964 3965 3966
4451 1 3965 3966 3967
4452 1 3966 3967 3968
4453 1 3967 3968 3969
4454 1 3968 3969 3970
4455 1 3969 3970 3971
4456 1 3970 3971 3972
4457 1 3971 3972 3973
4458 1 3972 3973 3974
4459 1 3973 3974 3975
4460 1 3974 3975 3976
4461 1 3975 3976 3977
4462 1 3976 3977 3978
4463 1 3977 3978 3979
4464 1 3978 3979 119
4465 1 3981 3980 115
4466 1 3980 3981 3982
4467 1 3981 3982 3983
4468 1 3982 3983 3984
4469 1 3983 3984 3985
4470 1 3984 3985 3986
4471 1 3985 3986 3987
4472 1 3986 3987 3988
4473 1 3987 3988 3989
4474 1 3988 3989 3990
4475 1 3989 3990 3991
4476 1 3990 3991 3992
4477 1 3991 3992 3993
4478 1 3992 3993 3994
4479 1 3993 3994 3995
4480 1 3994 3995 3996
4481 1 3995 3996 3997
4482 1 3996 3997 3998
4483 1 3997 3998 3999
4484 1 3998 3999 116
4485 1 4001 4000 115
4486 1 4000 4001 4002
4487 1 4001 4002 4003
4488 1 4002 4003 4004
4489 1 4003 4004 4005
4490 1 4004 4005 4006
4491 1 4005 4006 4007
4492 1 4006 4007 4008
4493 1 4007 4008 4009
4494 1 4008 4009 4010
4495 1 4009 4010 4011
4496 1 4010 4011 4012
4497 1 4011 4012 4013
4498 1 4012 4013 4014
4499 1 4013 4014 4015
4500 1 4014 4015 4016
4501 1 4015 4016 4017
4502 1 4016 4017 4018
4503 1 4017 4018 4019
4504 1 4018 4019 120
4505 1 4021 4020 116
4506 1 4020 4021 4022
4507 1 4021 4022 4023
4508 1 4022 4023 4024
4509 1 4023 4024 4025
4510 1 4024 4025 4026
4511 1 4025 4026 4027
4512 1 4026 4027 4028
4513 1 4027 4028 4029
4514 1 4028 4029 4030
4515 1 4029 4030 4031
4516 1 4030 4031 4032
4517 1 4031 4032 4033
4518 1 4032 4033 4034
4519 1 4033 4034 4035
4520 1 4034 4035 4036
4521 1 4035 4036 4037
4522 1 4036 4037 4038
4523 1 4037 4038 4039
4524 1 4038 4039 139
4525 1 4041 4040 117
4526 1 4040 4041 4042
4527 1 4041 4042 4043
4528 1 4042 4043 4044
4529 1 4043 4044 4045
4530 1 4044 4045 4046
4531 1 4045 4046 4047
4532 1 4046 4047 4048
4533 1 4047 4048 4049
4534 1 4048 4049 4050
4535 1 4049 4050 4051
4536 1 4050 4051 4052
4537 1 4051 4052 4053
4538 1 4052 4053 4054
4539 1 4053 4054 4055
4540 1 4054 4055 4056
4541 1 4055 4056 4057
4542 1 4056 4057 4058
4543 1 4057 4058 4059
4544 1 4058 4059 122
4545 1 4061 4060 117
4546 1 4060 4061 4062
4547 1 4061 4062 4063
4548 1 4062 4063 4064
4549 1 4063 4064 4065
4550 1 4064 4065 4066
4551 1 4065 4066 4067
4552 1 4066 4067 4068
4553 1 4067 4068 4069
4554 1 4068 4069 4070
4555 1 4069 4070 4071
4556 1 4070 4071 4072
4557 1 4071 4072 4073
4558 1 4072 4073 4074
4559 1 4073 4074 4075
4560 1 4074 4075 4076
4561 1 4075 4076 4077
4562 1 4076 4077 4078
4563 1 4077 4078 4079
4564 1 4078 4079 121
4565 1 4081 4080 118
4566 1 4080 4081 4082
4567 1 4081 4082 4083
4568 1 4082 4083 4084
4569 1 4083 4084 4085
4570 1 4084 4085 4086
4571 1 4085 4086 4087
4572 1 4086 4087 4088
4573 1 4087 4088 4089
4574 1 4088 4089 4090
4575 1 4089 4090 4091
4576 1 4090 4091 4092
4577 1 4091 4092 4093
4578 1 4092 4093 4094
4579 1 4093 4094 4095
4580 1 4094 4095 4096
4581 1 4095 4096 4097
4582 1 4096 4097 4098
4583 1 4097 4098 4099
4584 1 4098 4099 123
4585 1 4101 4100 119
4586 1 4100 4101 4102
4587 1 4101 4102 4103
4588 1 4102 4103 4104
4589 1 4103 4104 4105
4590 1 4104 4105 4106
4591 1 4105 4106 4107
4592 1 4106 4107 4108
4593 1 4107 4108 4109
4594 1 4108 4109 4110
4595 1 4109 4110 4111
4596 1 4110 4111 4112
4597 1 4111 4112 4113
4598 1 4112 4113 4114
4599 1 4113 4114 4115
4600 1 4114 4115 4116
4601 1 4115 4116 4117
4602 1 4116 4117 4118
4603 1 4117 4118 4119
4604 1 4118 4119 124
4605 1 4121 4120 120
4606 1 4120 4121 4122
4607 1 4121 4122 4123
4608 1 4122 4123 4124
4609 1 4123 4124 4125
4610 1 4124 4125 4126
4611 1 4125 4126 4127
4612 1 4126 4127 4128
4613 1 4127 4128 4129
4614 1 4128 4129 4130
4615 1 4129 4130 4131
4616 1 4130 4131 4132
4617 1 4131 4132 4133
4618 1 4132 4133 4134
4619 1 4133 4134 4135
4620 1 4134 4135 4136
4621 1 4135 4136 4137
4622 1 4136 4137 4138
4623 1 4137 4138 4139
4624 1 4138 4139 125
4625 1 4141 4140 121
4626 1 4140 4141 4142
4627 1 4141 4142 4143
4628 1 4142 4143 4144
4629 1 4143 4144 4145
4630 1 4144 4145 4146
4631 1 4145 4146 4147
4632 1 4146 4147 4148
4633 1 4147 4148 4149
4634 1 4148 4149 4150
4635 1 4149 4150 4151
4636 1 4150 4151 4152
4637 1 4151 4152 4153
4638 1 4152 4153 4154
4639 1 4153 4154 4155
4640 1 4154 4155 4156
4641 1 4155 4156 4157
4642 1 4156 4157 4158
4643 1 4157 4158 4159
4644 1 4158 4159 126
4645 1 4161 4160 122
4646 1 4160 4161 4162
4647 1 4161 4162 4163
4648 1 4162 4163 4164
4649 1 4163 4164 4165
4650 1 4164 4165 4166
4651 1 4165 4166 4167
4652 1 4166 4167 4168
4653 1 4167 4168 4169
4654 1 4168 4169 4170
4655 1 4169 4170 4171
4656 1 4170 4171 4172
4657 1 4171 4172 4173
4658 1 4172 4173 4174
4659 1 4173 4174 4175
4660 1 4174 4175 4176
4661 1 4175 4176 4177
4662 1 4176 4177 4178
4663 1 4177 4178 4179
4664 1 4178 4179 123
4665 1 4181 4180 122
4666 1 4180 4181 4182
4667 1 4181 4182 4183
4668 1 4182 4183 4184
4669 1 4183 4184 4185
4670 1 4184 4185 4186
4671 1 4185 4186 4187
4672 1 4186 4187 4188
4673 1 4187 4188 4189
4674 1 4188 4189 4190
4675 1 4189 4190 4191
4676 1 4190 4191 4192
4677 1 4191 4192 4193
4678 1 4192 4193 4194
4679 1 4193 4194 4195
4680 1 4194 4195 4196
4681 1 4195 4196 4197
4682 1 4196 4197 4198
4683 1 4197 4198 4199
4684 1 4198 4199 127
4685 1 4201 4200 123
4686 1 4200 4201 4202
4687 1 4201 4202 4203
4688 1 4202 4203 4204
4689 1 4203 4204 4205
4690 1 4204 4205 4206
4691 1 4205 4206 4207
4692 1 4206 4207 4208
4693 1 4207 4208 4209
4694 1 4208 4209 4210
4695 1 4209 4210 4211
4696 1 4210 4211 4212
4697 1 4211 4212 4213
4698 1 4212 4213 4214
4699 1 4213 4214 4215
4700 1 4214 4215 4216
4701 1 4215 4216 4217
4702 1 4216 4217 4218
4703 1 4217 4218 4219
4704 1 4218 4219 124
4705 1 4221 4220 124
4706 1 4220 4221 4222
4707 1 4221 4222 4223
4708 1 4222 4223 4224
4709 1 4223 4224 4225
4710 1 4224 4225 4226
4711 1 4225 4226 4227
4712 1 4226 4227 4228
4713 1 4227 4228 4229
4714 1 4228 4229 4230
4715 1 4229 4230 4231
4716 1 4230 4231 4232
4717 1 4231 4232 4233
4718 1 4232 4233 4234
4719 1 4233 4234 4235
4720 1 4234 4235 4236
4721 1 4235 4236 4237
4722 1 4236 4237 4238
4723 1 4237 4238 4239
4724 1 4238 4239 132
4725 1 4241 4240 125
4726 1 4240 4241 4242
4727 1 4241 4242 4243
4728 1 4242 4243 4244
4729 1 4243 4244 4245
4730 1 4244 4245 4246
4731 1 4245 4246 4247
4732 1 4246 4247 4248
4733 1 4247 4248 4249
4734 1 4248 4249 4250
4735 1 4249 4250 4251
4736 1 4250 4251 4252
4737 1 4251 4252 4253
4738 1 4252 4253 4254
4739 1 4253 4254 4255
4740 1 4254 4255 4256
4741 1 4255 4256 4257
4742 1 4256 4257 4258
4743 1 4257 4258 4259
4744 1 4258 4259 126
4745 1 4261 4260 125
4746 1 4260 4261 4262
4747 1 4261 4262 4263
4748 1 4262 4263 4264
4749 1 4263 4264 4265
4750 1 4264 4265 4266
4751 1 4265 4266 4267
4752 1 4266 4267 4268
4753 1 4267 4268 4269
4754 1 4268 4269 4270
4755 1 4269 4270 4271
4756 1 4270 4271 4272
4757 1 4271 4272 4273
4758 1 4272 4273 4274
4759 1 4273 4274 4275
4760 1 4274 4275 4276
4761 1 4275 4276 4277
4762 1 4276 4277 4278
4763 1 4277 4278 4279
4764 1 4278 4279 133
4765 1 4281 4280 126
4766 1 4280 4281 4282
4767 1 4281 4282 4283
4768 1 4282 4283 4284
4769 1 4283 4284 4285
4770 1 4284 4285 4286
4771 1 4285 4286 4287
4772 1 4286 4287 4288
4773 1 4287 4288 4289
4774 1 4288 4289 4290
4775 1 4289 4290 4291
4776 1 4290 4291 4292
4777 1 4291 4292 4293
4778 1 4292 4293 4294
4779 1 4293 4294 4295
4780 1 4294 4295 4296
4781 1 4295 4296 4297
4782 1 4296 4297 4298
4783 1 4297 4298 4299
4784 1 4298 4299 134
4785 1 4301 4300 131
4786 1 4300 4301 4302
4787 1 4301 4302 4303
4788 1 4302 4303 4304
4789 1 4303 4304 4305
4790 1 4304 4305 4306
4791 1 4305 4306 4307
4792 1 4306 4307 4308
4793 1 4307 4308 4309
4794 1 4308 4309 4310
4795 1 4309 4310 4311
4796 1 4310 4311 4312
4797 1 4311 4312 4313
4798 1 4312 4313 4314
4799 1 4313 4314 4315
4800 1 4314 4315 4316
4801 1 4315 4316 4317
4802 1 4316 4317 4318
4803 1 4317 4318 4319
4804 1 4318 4319 132
4805 1 4321 4320 131
4806 1 4320 4321 4322
4807 1 4321 4322 4323
4808 1 4322 4323 4324
4809 1 4323 4324 4325
4810 1 4324 4325 4326
4811 1 4325 4326 4327
4812 1 4326 4327 4328
4813 1 4327 4328 4329
4814 1 4328 4329 4330
4815 1 4329 4330 4331
4816 1 4330 4331 4332
4817 1 4331 4332 4333
4818 1 4332 4333 4334
4819 1 4333 4334 4335
4820 1 4334 4335 4336
4821 1 4335 4336 4337
4822 1 4336 4337 4338
4823 1 4337 4338 4339
4824 1 4338 4339 136
4825 1 4341 4340 132
4826 1 4340 4341 4342
4827 1 4341 4342 4343
4828 1 4342 4343 4344
4829 1 4343 4344 4345
4830 1 4344 4345 4346
4831 1 4345 4346 4347
4832 1 4346 4347 4348
4833 1 4347 4348 4349
4834 1 4348 4349 4350
4835 1 4349 4350 4351
4836 1 4350 4351 4352
4837 1 4351 4352 4353
4838 1 4352 4353 4354
4839 1 4353 4354 4355
4840 1 4354 4355 4356
4841 1 4355 4356 4357
4842 1 4356 4357 4358
4843 1 4357 4358 4359
4844 1 4358 4359 137
4845 1 4361 4360 133
4846 1 4360 4361 4362
4847 1 4361 4362 4363
4848 1 4362 4363 4364
4849 1 4363 4364 4365
4850 1 4364 4365 4366
4851 1 4365 4366 4367
4852 1 4366 4367 4368
4853 1 4367 4368 4369
4854 1 4368 4369 4370
4855 1 4369 4370 4371
4856 1 4370 4371 4372
4857 1 4371 4372 4373
4858 1 4372 4373 4374
4859 1 4373 4374 4375
4860 1 4374 4375 4376
4861 1 4375 4376 4377
4862 1 4376 4377 4378
4863 1 4377 4378 4379
4864 1 4378 4379 138
4865 1 4381 4380 135
4866 1 4380 4381 4382
4867 1 4381 4382 4383
4868 1 4382 4383 4384
4869 1 4383 4384 4385
4870 1 4384 4385 4386
4871 1 4385 4386 4387
4872 1 4386 4387 4388
4873 1 4387 4388 4389
4874 1 4388 4389 4390
4875 1 4389 4390 4391
4876 1 4390 4391 4392
4877 1 4391 4392 4393
4878 1 4392 4393 4394
4879 1 4393 4394 4395
4880 1 4394 4395 4396
4881 1 4395 4396 4397
4882 1 4396 4397 4398
4883 1 4397 4398 4399
4884 1 4398 4399 136
4885 1 4401 4400 137
4886 1 4400 4401 4402
4887 1 4401 4402 4403
4888 1 4402 4403 4404
4889 1 4403 4404 4405
4890 1 4404 4405 4406
4891 1 4405 4406 4407
4892 1 4406 4407 4408
4893 1 4407 4408 4409
4894 1 4408 4409 4410
4895 1 4409 4410 4411
4896 1 4410 4411 4412
4897 1 4411 4412 4413
4898 1 4412 4413 4414
4899 1 4413 4414 4415
4900 1 4414 4415 4416
4901 1 4415 4416 4417
4902 1 4416 4417 4418
4903 1 4417 4418 4419
4904 1 4418 4419 138
4905 1 4421 4420 138
4906 1 4420 4421 4422
4907 1 4421 4422 4423
4908 1 4422 4423 4424
4909 1 4423 4424 4425
4910 1 4424 4425 4426
4911 1 4425 4426 4427
4912 1 4426 4427 4428
4913 1 4427 4428 4429
4914 1 4428 4429 4430
4915 1 4429 4430 4431
4916 1 4430 4431 4432
4917 1 4431 4432 4433
4918 1 4432 4433 4434
4919 1 4433 4434 4435
4920 1 4434 4435 4436
4921 1 4435 4436 4437
4922 1 4436 4437 4438
4923 1 4437 4438 4439
4924 1 4438 4439 139
