LAMMPS data file via write_data, version 2 Apr 2025, timestep = 10000, units = lj

5446 atoms
3 atom types
5535 bonds
1 bond types
0 angles
1 angle types

0 18.57318 xlo xhi
0 18.57318 ylo yhi
0 18.57318 zlo zhi

Masses

1 1
2 1
3 1

Pair Coeffs # lj/cut

1 1 1
2 1 1
3 1 1

Bond Coeffs # fene

1 30 1.5 1 1

Angle Coeffs # harmonic

1 466.1 180

Atoms # full

1458 1 2 0 2.573391062041811 1.6206703156817286 0.9204018060125688 0 0 0
1751 1 2 0 1.5933337304986346 0.37358321876683687 1.8579846445385593 0 0 0
1459 1 2 0 1.6826512281837656 1.2055448279858383 1.2131945957857873 0 0 0
1460 1 2 0 1.1427948082944337 2.0397644008565585 1.278352882925316 0 0 0
1750 1 2 0 0.6320574545392884 0.3641279246842194 2.1924240716669194 0 0 0
841 1 3 0 1.0678233892645559 0.036732032313061325 1.069587030061838 0 0 0
462 1 2 0 2.4118097692410734 1.9943714431364 1.9453149883150618 0 0 0
4687 1 2 0 1.637626368732348 1.9246291315725688 0.13307341626240654 0 0 1
1753 1 2 0 2.3064501866228837 0.6845492280380527 0.6517271565146372 0 0 0
4688 1 2 0 2.155971621821533 2.4213183598966874 18.058527222547475 0 0 0
840 1 3 0 1.125685276337375 0.7839664723150636 0.46144483487269805 0 0 0
1579 1 3 0 3.3987840993285947 2.429976689281342 1.8566920193779881 0 0 0
1457 1 2 0 2.7397324589777683 0.9578155243377329 1.5293784533606 0 0 0
1754 1 2 0 3.1798751694717278 0.9845860636060527 0.3501858766005047 0 0 0
1778 1 2 0 4.53158353963272 1.9471503590446793 1.112895533509307 0 0 0
1755 1 2 0 3.7303644366880158 0.8830178210824079 1.1046514967083094 0 0 0
1756 1 2 0 4.290864493066533 0.7743054356065177 1.8993135384410318 0 0 0
4852 1 2 0 5.282841242380889 1.1030177940854344 0.17109084978735298 0 0 1
1577 1 3 0 3.228430915423263 0.70356292855521 2.578688101858524 0 0 0
4999 1 2 0 3.4760353144909386 0.16381714786830529 18.35234050036312 0 0 0
1777 1 2 0 5.147837116302481 1.4646197773772578 1.61802366277593 0 0 0
1797 1 3 0 5.618724555925115 2.2277953208030046 1.9641812395005802 0 0 0
1543 1 2 0 5.458390463199867 1.945747512589459 0.6647595941971947 0 0 0
1544 1 2 0 6.164549893379024 1.3382366937141312 0.8083088754849823 0 0 0
1542 1 2 0 5.318718397775096 2.8314044813739816 1.109441905666766 0 0 0
227 1 2 0 7.202245899448511 2.091171339456755 0.8204431152521525 0 0 0
290 1 2 0 5.661292520077294 0.29831730918983124 1.9584237527449901 0 0 0
229 1 2 0 6.461739929865513 0.9964352160186047 1.8913310002891421 0 0 0
228 1 2 0 6.858747105571801 1.8512642608232857 1.6254313012976354 0 0 0
289 1 2 0 6.003968579935802 0.3506717251458036 1.0783466769123284 0 0 0
201 1 2 0 7.8775057466206375 1.0453682088621663 0.24359510087971828 0 0 0
1545 1 2 0 6.923472446341894 0.822477169186627 0.9769778943711642 0 0 0
204 1 2 0 7.49679776227124 0.3517266601066165 2.898443789512484 0 0 0
1607 1 2 0 8.426833799232249 0.4810819924773535 1.9554300030828193 0 0 0
203 1 2 0 7.542812919836995 0.8451237159730527 2.0820418300003327 0 0 0
1608 1 2 0 8.754421210329884 1.3384898706820967 1.9278847345799315 0 0 0
202 1 2 0 7.91195476916286 1.2167273856186167 1.232567495745415 0 0 0
1885 1 2 0 9.422103136301713 2.250092556276409 0.639113719581462 0 0 0
381 1 2 0 8.551545990996784 1.7511882883387182 18.416528390285237 0 0 -1
271 1 2 0 7.856771144561085 2.0300245398649 1.7836325021321717 0 0 0
382 1 2 0 8.362753954992712 2.3612871510363185 0.625436824133885 0 0 0
1421 1 2 0 9.25401278782305 18.07689963034427 0.6184527077757428 0 0 0
1886 1 2 0 9.073783051690345 1.372031259261396 0.9310794431557343 0 0 0
1887 1 2 0 9.251395098338314 0.4617692051380303 1.3059901717347375 0 0 0
367 1 2 0 10.274545995670497 18.51396863707561 0.4032428111584038 0 -1 0
277 1 2 0 11.045222926272869 1.5815841403297102 1.3580526538621875 0 0 0
276 1 2 0 10.163586709657153 1.2832201129279701 1.593247926643512 0 0 0
368 1 2 0 9.932965802920155 0.8471882478848951 0.6373955278474872 0 0 0
614 1 2 0 10.734725357661903 0.11288645447639423 1.4016611106349852 0 0 0
615 1 2 0 11.24166315044552 0.49383001175733693 0.6800877792080977 0 0 0
384 1 2 0 9.561087898416929 1.997019402207761 1.9012252192644776 0 0 0
278 1 2 0 11.462297356355245 1.525696711833331 0.47742798560696015 0 0 0
1888 1 2 0 9.735828590582813 0.026331252441998743 2.006122932179453 0 0 0
385 1 2 0 10.513667520618347 2.0822542781926385 2.1734434365332924 0 0 0
386 1 2 0 11.36992205375468 1.5445846059292831 2.493287145694425 0 0 0
1692 1 3 0 13.200487352638637 2.5289846158075595 2.856536851597812 0 0 0
1498 1 2 0 12.857008640902565 0.9536510527172738 0.7748023049590704 0 0 0
1693 1 3 0 12.840168081580316 1.790492046775493 2.363368408011822 0 0 0
2404 1 2 0 13.248560465657313 0.21555254413166278 1.3948167515381178 0 1 0
1694 1 3 0 12.635442575151998 1.0290857249421261 1.8921997466480256 0 0 0
1497 1 2 0 13.701961859616803 1.2391506259066822 1.1331538383706306 0 0 0
1496 1 2 0 13.82746716462854 1.516854592907623 2.039358418585992 0 0 0
387 1 2 0 11.694429806271163 0.6566501994042792 2.396515423497488 0 0 0
1495 1 2 0 14.030832216527088 0.5993170996712426 2.259478344866252 0 0 0
2405 1 2 0 14.137607572905644 0.2589773119975767 1.0607618155892224 0 1 0
599 1 2 0 12.630532147320585 1.8708945246693103 1.2786070037591315 0 0 1
357 1 2 0 15.278902511238849 1.0288531861119006 0.33341661343994733 0 0 0
358 1 2 0 15.303692357380571 0.2596276378334191 0.98649325048523 0 0 0
398 1 2 0 14.41480193623761 1.6901805522503672 0.4670943655482242 0 0 0
2066 1 2 0 16.363371942087767 2.259112618108604 0.9539961284182066 0 0 0
421 1 3 0 16.45167306719668 0.9147291275579902 2.160923833707754 0 0 0
2065 1 2 0 16.07966646288628 2.3713897897246246 0.05083423109996592 0 0 0
437 1 2 0 14.558580982370518 18.37940724526797 1.9207107558483822 0 -1 0
1661 1 2 0 16.36513509637729 0.2640600702262077 1.2861096754783155 0 0 0
1662 1 2 0 16.296686331191037 0.755711998632475 0.5117716433714148 0 0 0
694 1 3 0 15.381947309775354 1.5655808354809952 1.235810543302692 0 0 0
413 1 3 0 15.487312001551564 18.12778883197077 17.817043884550795 0 -1 -1
684 1 2 0 0.08243783933580173 18.471182276791094 1.1345428075396304 1 -1 0
420 1 3 0 17.278976048112174 1.2732594515061009 2.467709889763725 0 0 0
418 1 3 0 18.184381230002483 2.0740254611209927 2.2088916748409075 0 0 0
682 1 2 0 17.38809662547546 0.8273357286154723 0.5421401759678709 0 0 0
681 1 2 0 16.963582892949635 1.6247644285011897 0.17783509382472323 0 0 0
683 1 2 0 18.36645730584273 0.6466020674440176 0.48064205781675945 0 0 0
417 1 3 0 17.730891730504595 1.6171360134163848 1.532224933706598 0 0 0
1265 1 2 0 17.049743738910603 0.0505479761516138 18.2705434913543 -1 1 -1
461 1 2 0 2.5695470042982573 2.9180016054169697 1.5904983166724276 0 0 0
1784 1 2 0 1.3101210535383845 3.2737553796124486 1.3354921840896314 0 0 0
460 1 2 0 2.61705346105861 3.654444301056758 0.9797290119773837 0 0 0
1461 1 2 0 0.46074578085730067 2.60175412582274 1.8067527466000308 0 0 0
1785 1 2 0 1.7112001184440184 4.127495850998098 1.3256087673685384 0 0 0
1783 1 2 0 1.7938069171660243 2.6974031616089413 0.7453902477613988 0 0 0
1782 1 2 0 2.7302916030033852 2.639531317935737 0.6555141258112787 0 0 0
459 1 2 0 2.3219029884137528 3.846084526913791 0.09255853053937173 0 0 0
506 1 2 0 0.316231217132467 4.304500275070669 18.447218245298405 0 0 0
507 1 2 0 1.0041930178181406 3.739006347583828 0.19103776013196172 0 0 1
1580 1 3 0 3.3123559020094864 3.2369803556213474 2.3255554262072224 0 0 0
2806 1 3 0 3.8203435343217818 3.0412600564240364 1.1305068725733274 0 0 0
2805 1 3 0 3.7899092620645707 3.9448664484721263 1.5679302931865235 0 0 0
795 1 3 0 3.092252800565807 5.7013058025754955 0.8007892491891465 0 0 0
2804 1 3 0 3.5024026181270305 4.879107185232189 1.5326453818945907 0 0 0
1623 1 2 0 4.59829983353693 2.4840907390086144 2.0617994696517625 0 0 0
1624 1 2 0 4.738636199717476 3.47634570696513 2.0770017082051173 0 0 0
824 1 2 0 4.333104018168162 4.777619755675939 0.40932397988931424 0 0 0
796 1 3 0 2.555106515703508 5.974359901857793 1.5099273277696876 0 0 0
1779 1 2 0 4.335580588999667 1.4468623903278803 0.3504689116301424 0 0 0
1541 1 2 0 6.219361561016693 2.679943833698828 0.9195744203987397 0 0 0
895 1 3 0 5.449949927197472 4.079139119813461 0.7180880237110051 0 0 1
894 1 3 0 6.452506490428073 4.171832903724262 0.9696059754780212 0 0 1
1798 1 3 0 6.207217718379707 1.8665737821725246 2.6667319456029777 0 0 0
893 1 3 0 6.237632452759608 4.3946524955268815 0.0034225350791565745 0 0 1
1540 1 2 0 6.107719115734687 3.3514372135306734 1.7050404656639446 0 0 0
267 1 2 0 6.877892076338955 3.2966285282557126 0.3190302942347712 0 0 0
268 1 2 0 7.679087535233857 3.483674042318039 0.7502986018680574 0 0 0
1996 1 2 0 6.9525825202105604 4.9851713575561085 1.5512721104432579 0 0 0
269 1 2 0 7.437986218868993 3.8782092244335575 1.530323406352451 0 0 0
1625 1 2 0 5.021849336914912 4.37026342339621 2.422456547949976 0 0 0
825 1 2 0 4.747937743288226 5.017633448126827 1.2699490262854025 0 0 0
1997 1 2 0 6.370833792555303 4.725351561472735 2.251954588028441 0 0 0
270 1 2 0 7.429295984417492 2.875052513009293 1.6217211480640252 0 0 0
570 1 2 0 8.46637232883861 4.2187004720694725 1.273415364442795 0 0 0
571 1 2 0 8.456309067967748 3.301528318298588 1.5444144154342687 0 0 0
572 1 2 0 9.066645216269752 3.128916073330559 2.2391793273781584 0 0 0
8 1 1 0 9.513837191240247 3.94151932017601 1.74204128642804 0 0 0
383 1 2 0 8.753695587850657 2.3859714110076253 1.4942598607151887 0 0 0
2021 1 2 0 8.518077553991834 2.699508337693772 18.00223543974687 0 0 -1
1883 1 2 0 8.934419718131014 4.074703977934602 18.43813206831244 0 0 -1
1884 1 2 0 9.070737794569718 3.1239259246115547 0.1989166838246474 0 0 0
371 1 2 0 9.593669553735104 3.112182796885144 1.29563348775656 0 0 0
369 1 2 0 10.301630124306222 1.750996315857387 0.6323637122974884 0 0 0
370 1 2 0 10.288141759781425 2.4898184626233557 1.1891065016344617 0 0 0
1686 1 2 0 11.181135056400093 3.98431250714029 1.946697999167846 0 0 0
602 1 2 0 10.839157004047118 3.607862424083321 0.5142129355128221 0 0 1
950 1 2 0 10.403061574065198 3.208777782435235 2.039508603159169 0 0 1
603 1 2 0 10.65079437646305 3.6184605843915287 18.14598192007402 0 0 0
601 1 2 0 11.281108880489052 3.1426794534114433 1.3125761880894466 0 0 1
949 1 2 0 9.91335969129329 3.3888177868015448 2.8158818055783934 0 0 1
1685 1 2 0 11.597292050558963 3.2629652467112815 2.4206885418635666 0 0 0
531 1 2 0 11.793194031919212 3.9329677765140767 0.86507955085613 0 0 0
1684 1 2 0 11.999517394151573 2.4898978679218677 2.7473145397313186 0 0 0
399 1 2 0 13.955284759832598 2.16747931212607 1.2105627331151583 0 0 0
532 1 2 0 12.197825058565366 3.394796104806042 1.5170836766749798 0 0 0
600 1 2 0 11.802636734856547 2.364577077474989 1.5636649245445966 0 0 1
2112 1 2 0 13.519157034733187 3.710287325739826 1.441126981946279 0 0 0
2113 1 2 0 13.949965581539645 3.8186045619396762 2.2686715478905093 0 0 0
2088 1 2 0 12.743443990840609 4.5415808124095465 0.9584381601294035 0 0 0
2087 1 2 0 13.561971149088382 4.6453123329198895 0.4669105414103378 0 0 0
38 1 1 0 13.626421820321609 3.6969493344948656 0.4732065674462486 0 0 0
533 1 2 0 12.765248180607095 3.6143459647848375 2.2857649168629424 0 0 0
400 1 2 0 14.266092345496597 2.684738913672603 1.9788829248893411 0 0 0
2064 1 2 0 15.42208934669832 2.8539976774748603 18.1081425698165 0 0 -1
1938 1 2 0 14.446008388432933 4.806116347542648 1.726557405027743 0 0 0
769 1 2 0 15.66091530246371 3.0346796542651933 0.6454072078134443 0 0 0
768 1 2 0 16.274970010884772 3.1709290598025617 1.396187896299338 0 0 0
692 1 3 0 15.184361332373292 3.3694173266073975 1.382458258051479 0 0 0
693 1 3 0 15.468957036214164 2.487588193912306 1.5859958025356067 0 0 0
1939 1 2 0 14.437157363147179 4.159041152405664 1.0090041804957215 0 0 0
678 1 2 0 16.332304204967016 4.139986359855478 0.9090896136145031 0 0 0
770 1 2 0 14.691968246545732 2.935696195634879 0.5067129018343292 0 0 0
767 1 2 0 16.34247625891282 3.9343467593054675 1.9336918169294983 0 0 0
680 1 2 0 17.19220493388223 2.5545655574523964 0.15656188110179342 0 0 0
677 1 2 0 15.47226953483584 4.269346980178456 1.3772791544081113 0 0 0
4712 1 2 0 0.32171160645074476 2.004894355804947 18.52758078816164 1 0 0
4713 1 2 0 0.4681950711954563 2.5741065061107977 0.7063791683828688 1 0 1
406 1 2 0 17.96399251461626 1.7968582586237365 0.5761245875584394 0 0 0
1954 1 3 0 17.463793783135326 3.6657223642531944 1.629814947606215 0 0 0
405 1 2 0 17.80585199402314 2.5493102589303764 1.06832998321149 0 0 0
679 1 2 0 17.02258619147711 3.330885144090358 0.7001836969748836 0 0 0
4714 1 2 0 18.466624937518983 3.204719599769836 0.19758005383685384 0 0 1
739 1 2 0 0.4700534223247331 3.9781795078488615 1.0531642798450573 0 0 0
1953 1 3 0 17.864352957553873 4.165631083998939 0.9095542776925858 0 0 0
1952 1 3 0 17.183379186633154 4.654726688893306 1.2522562366097651 0 0 0
740 1 2 0 0.45250564391638215 4.576384676313728 1.8266202577192936 0 0 0
747 1 3 0 18.511977044215673 4.883119120043459 0.7249495429904673 0 0 0
1786 1 2 0 1.3530072572962715 5.014876512964394 1.4474317556056098 0 0 0
1787 1 2 0 0.6411837532593613 5.630071472709268 1.5017732215743724 0 0 0
737 1 2 0 1.4984568585371862 4.865563478790532 18.455762175577096 0 0 -1
738 1 2 0 0.9071888975428377 4.713978162682489 0.6388769234315382 0 0 0
712 1 2 0 18.130277165204014 6.209729791410231 0.7305833654200601 -1 0 0
5118 1 3 0 2.0703027855748286 6.109376899252398 0.5674377066407634 0 0 1
713 1 2 0 0.3912201425791748 6.481497269842882 1.0168025497785949 0 0 0
2234 1 3 0 1.5007342371210066 6.707024327594504 1.636973957245019 1 0 0
5119 1 3 0 1.1594315683202183 5.839083773894278 0.36664857156179564 0 0 1
5117 1 3 0 2.4641556561465205 5.574425895834768 18.437916640889426 0 0 0
736 1 2 0 2.0561916538818097 4.830959202659382 0.6701154287293132 0 0 0
2235 1 3 0 2.2288181641733544 7.070999582056639 1.1327532450501452 1 0 0
794 1 3 0 4.000169317611215 5.793781023491385 1.0057223954029328 0 0 0
5281 1 2 0 3.238380203659908 6.327395340151483 0.01399229154784365 0 0 1
5282 1 2 0 3.6313011050406425 6.820695589066332 0.7160977304971091 0 0 1
2802 1 3 0 3.145702514433319 6.422500773199565 2.5142245027234087 0 0 0
869 1 3 0 3.939613513116199 6.598764092214128 1.7701585954578334 0 0 0
871 1 3 0 4.8228200590614785 5.910991820763665 1.7199234938234427 0 0 0
870 1 3 0 4.383393733500599 6.1756976392624985 2.5071437333014877 0 0 0
5284 1 2 0 5.2427746478835004 7.392293480776716 0.8957122411522421 0 0 1
793 1 3 0 4.603944452612905 6.505745479890754 0.9337276710253932 0 0 0
892 1 3 0 5.770115792626384 5.08914586229307 0.34267845919904566 0 0 1
826 1 2 0 5.696403469669719 4.944510214436432 1.469403322703074 0 0 0
877 1 2 0 5.034242599983704 5.7573578432284265 0.3952662756315368 0 0 1
876 1 2 0 5.631736523753004 6.167694373214525 1.010516870478868 0 0 1
1995 1 2 0 7.166731531835613 5.265751708072393 0.6506964949588692 0 0 0
827 1 2 0 5.9524711289811 5.726110329932395 2.0399907177477195 0 0 0
828 1 2 0 6.352648424859353 6.516375657678795 2.3518749298928894 0 0 0
1993 1 2 0 6.352657973789165 6.752071264130602 0.4665921802737071 0 0 0
1994 1 2 0 6.492824245790979 5.8217679971815635 0.2994381676701005 0 0 0
875 1 2 0 6.603379680062037 5.993672441539532 1.3579551595851809 0 0 1
1992 1 2 0 6.62172302754358 7.136293555385519 1.3066695656577794 0 0 0
842 1 3 0 5.588331682681495 6.843128905928313 1.90748881049666 0 0 0
562 1 2 0 8.500700761655112 5.930286065448586 0.16225961509748804 0 0 0
561 1 2 0 8.284425324684035 5.651907746612865 1.0603428468507583 0 0 0
652 1 3 0 9.285000097478093 5.812282238385788 1.8163072333744954 0 0 1
653 1 3 0 8.690017027968425 6.533010898156315 1.5603120243363473 0 0 1
560 1 2 0 8.092479393003979 5.452242179222585 1.9704364175673608 0 0 0
5029 1 2 0 9.145366718924548 6.853431935554907 0.5566747976693118 0 0 1
632 1 2 0 9.243546020372758 4.864152446720001 1.5729909195115588 0 0 1
874 1 2 0 7.551661867041223 6.339923745930578 1.0581455052803113 0 0 1
5030 1 2 0 8.265122629656016 6.9813703905627 0.18697809466023027 0 0 1
655 1 3 0 9.394676210807985 7.27119481496384 1.8367383172007734 0 0 0
1687 1 2 0 11.111641053381497 4.949440329885066 1.800355522953686 0 0 0
633 1 2 0 9.4537192800826 4.255829638230158 0.7600895163340151 0 0 1
951 1 2 0 10.408990372436667 3.8900058393341586 1.3818192880940594 0 0 1
5028 1 2 0 9.838628031118574 6.534958824640195 1.2635550078761217 0 0 1
1689 1 2 0 11.183836742184704 6.770052402668306 2.0610183149365944 0 0 0
5027 1 2 0 10.864673310377528 6.2776277128479885 1.0757166295389198 0 0 1
1688 1 2 0 11.233139133041494 5.841478861618175 1.9428629029126483 0 0 0
5026 1 2 0 11.184871686282271 6.1776072821537 0.19429999696478184 0 0 1
656 1 3 0 10.282613667980065 7.05652065806756 2.054263999878939 0 0 0
607 1 2 0 10.291678195547345 4.253167963831025 2.407818883468233 0 0 0
2089 1 2 0 12.03379560437775 4.538818298869963 1.688614819591634 0 0 0
1937 1 2 0 13.534429419333422 4.8855418606677015 1.7443357417533103 0 0 0
2108 1 3 0 12.10533015568331 5.906538159771144 0.36650002980912294 0 0 0
2060 1 3 0 12.460277810745852 5.561864573506745 1.9673123794191942 0 0 0
901 1 2 0 12.805019109988315 6.90959981614345 1.93837960871408 0 0 0
2107 1 3 0 11.819135106377937 5.217865633793116 1.0620535688794228 0 0 0
2061 1 3 0 12.84551448843314 5.606487712952952 1.067510729035098 0 0 0
902 1 2 0 13.460098699293638 6.727907164112084 1.2041339110347618 0 0 0
903 1 2 0 13.390222707856305 6.685065948190301 0.28013138812351207 0 0 0
2109 1 3 0 12.16798313218394 6.693003560799548 1.0793573269980168 0 0 0
2059 1 3 0 11.924717463300958 5.316587587458436 2.7563320590682725 0 0 0
900 1 2 0 12.106290596799427 6.854806245601942 2.6685947245415784 0 0 0
2137 1 2 0 13.563517820529924 6.103119719128902 1.9894403896798194 0 0 0
917 1 3 0 14.429506930362358 6.781046526151016 1.4586097125508684 0 0 0
2136 1 2 0 14.093019214314056 5.798832120832206 1.233603043591708 0 0 0
676 1 2 0 15.239667557536444 5.069010703235057 0.9493329786552849 0 0 0
2135 1 2 0 14.575567464216174 6.169410515210451 0.439902675714738 0 0 0
1943 1 2 0 16.32568511049113 5.1625016655607 1.2174252409343729 0 0 0
1942 1 2 0 16.106488751457302 5.572582645901011 0.32280279081989866 0 0 0
675 1 2 0 14.759078563477722 5.084448106357393 0.18988803006626623 0 0 0
2134 1 2 0 15.411263434388196 6.578829661700776 0.8095926118351233 0 0 0
918 1 3 0 14.477479980713547 6.156038482763516 2.2189140983984146 0 0 0
1944 1 2 0 16.02541839340832 5.770451377394834 1.8839113635499143 0 0 0
765 1 2 0 17.03421153460088 5.546074840782945 1.8759063277444037 0 0 0
711 1 2 0 17.28962375488194 5.719467129708737 0.6922595111072863 -1 0 0
764 1 2 0 17.551868176984087 6.2763770055570145 1.7917555596955337 0 0 0
1064 1 2 0 16.999025491344106 6.694489135694807 0.7728108555700666 0 0 0
763 1 2 0 17.557177980693904 7.213121176133635 1.5993654490724458 0 0 0
710 1 2 0 16.94382158866568 5.341083597687972 18.445443462182343 -1 0 -1
709 1 2 0 16.247833653011583 5.618523427481217 17.772902505264366 -1 0 -1
1063 1 2 0 17.715845696634485 7.081092220046459 0.20600382560611802 0 0 0
1065 1 2 0 16.28626621552084 6.720048945140492 1.42747729062284 0 0 0
5120 1 3 0 1.3435544580558147 6.747508856304625 0.14713885674512917 0 0 1
2233 1 3 0 1.1483361609979752 6.924226990577366 2.4937666427817216 1 0 0
714 1 2 0 0.9766140580499336 7.338857778281656 1.1225923121707204 0 0 0
715 1 2 0 1.7062381079144917 8.013504860179827 1.2441108929236748 0 0 0
1975 1 2 0 0.8118064765466936 8.445822243952936 1.6917437987920834 0 0 0
1011 1 3 0 0.5975415937885785 8.39573512194617 18.43595545872307 1 0 -1
4145 1 2 0 1.7233514286315375 8.203710356539078 0.03171006615127503 0 0 1
716 1 2 0 1.798313550583369 8.917109745512803 0.8560957500379864 0 0 0
2232 1 3 0 0.29099260388816356 7.423140966322795 2.200421896212309 1 0 0
2236 1 3 0 2.807170718989751 7.528858962700256 1.6903695955768785 1 0 0
4146 1 2 0 2.1417171920196587 7.373996350207512 0.18864711269987483 0 0 1
1018 1 2 0 2.897745742982469 8.822934643528399 0.7641840248128283 0 0 0
858 1 2 0 4.036412794205688 8.539371249934185 1.507765315656888 0 0 0
868 1 3 0 4.684830038831396 7.165376311205463 1.7842708101497755 0 0 0
867 1 3 0 3.8236156479099086 7.657293035691127 1.8611930268997758 0 0 0
857 1 2 0 4.564673275043522 9.262683288223572 1.051213851193614 0 0 0
811 1 2 0 5.3924932055481225 9.31706090774142 1.690294804065072 0 0 0
554 1 2 0 5.33156737520494 8.02110992448424 1.6828517929555709 0 0 0
555 1 2 0 5.543839887749642 7.714385862666095 2.6215049138787547 0 0 0
5283 1 2 0 4.284050135032915 7.483122079129805 0.8578506506606839 0 0 1
2296 1 3 0 4.203137184366597 8.567331178734294 0.25451848188212306 0 0 0
829 1 2 0 7.003725706197441 7.189021466772591 2.230581194696031 0 0 0
5285 1 2 0 6.083854513545202 7.831398660138035 0.7899438664741116 0 0 1
1991 1 2 0 6.326854845103802 7.863335839731865 1.8632782809953699 0 0 0
810 1 2 0 6.192365542467893 8.89895742107422 1.1971072102965878 0 0 0
1990 1 2 0 5.91344853877387 8.66311315797733 2.278825210322141 0 0 0
5286 1 2 0 6.701346699228237 8.404147626530463 0.33027351449154907 0 0 1
5287 1 2 0 6.76936324375246 9.278788014886034 18.543542311980488 0 0 0
2014 1 2 0 7.243396159792854 8.004928136319352 1.0267420725680867 0 0 0
2013 1 2 0 7.380978826089848 8.448960133746702 1.8863970531865768 0 0 0
2015 1 2 0 7.238474253031847 7.41805479766404 0.2645676199556345 0 0 0
809 1 2 0 5.79094670586975 9.249536108679795 0.40872412975409994 0 0 0
553 1 2 0 5.24745281402671 8.505755778643422 0.8005292119755105 0 0 0
1369 1 2 0 7.369497688592459 8.420786470213482 18.018136014808796 0 0 -1
873 1 2 0 7.930056383240977 7.184041398464323 1.0863315574364452 0 0 1
3086 1 3 0 8.430509988692416 8.84766670184626 1.5607883054846874 0 0 0
1175 1 2 0 9.76288977191393 7.6760530607425705 0.6135626181109332 0 0 1
872 1 2 0 8.650439731204647 7.927394067650193 1.0067159648905009 0 0 1
1370 1 2 0 7.831377784535719 8.478065217986071 0.3305293632625939 0 0 0
3085 1 3 0 9.01603570583285 8.29828093924606 2.0798475475030913 0 0 0
12 1 1 0 9.344520981772764 8.52784547550144 0.8640329975081128 0 0 0
1371 1 2 0 7.70928455749561 9.252250161472482 0.988969979830475 0 0 0
5288 1 2 0 7.716716051600153 9.328371372322941 18.347086343810613 0 0 0
791 1 2 0 9.005228993026863 9.488478719627839 0.6560362410102346 0 0 0
2012 1 2 0 7.941665270326869 8.85136743935299 2.512584072533763 0 0 0
654 1 3 0 8.429683850396584 7.302019575316723 2.0033781752294524 0 0 0
1176 1 2 0 10.163510870968809 7.9552727523945945 1.4565312469213665 0 0 1
1177 1 2 0 10.697707759210306 7.237558482890613 1.0138692759394892 0 0 1
1691 1 2 0 10.95263104619388 8.06867803947992 2.220745589247125 0 0 0
1178 1 2 0 11.463201382297532 7.771818846023893 1.0988359601973796 0 0 1
1877 1 2 0 11.08817251461212 9.05148952406049 0.7948928264710436 0 0 0
1878 1 2 0 10.763059648260908 8.227985981142488 0.3406027332544552 0 0 0
3084 1 3 0 9.884862505686865 8.677474091293195 2.222815977085 0 0 0
847 1 2 0 10.141822754621927 8.98613236990925 1.116560226996989 0 0 0
33 1 1 0 11.3869236874177 8.73030337468936 1.6765872484364313 0 0 0
848 1 2 0 10.563650663220287 9.402562772758742 1.8253320354064697 0 0 0
1879 1 2 0 10.539383379491966 7.390694070068793 18.40526556659769 0 0 -1
5440 1 3 0 10.354639727772584 9.424445906512144 18.51215646237771 0 0 0
1179 1 2 0 12.069253261603189 8.360298802871847 0.6658940318923637 0 0 1
935 1 2 0 12.763310949793892 7.664791319842301 1.201184100647545 0 0 0
934 1 2 0 12.952052711130381 7.706764321006215 0.22247197163949045 0 0 0
936 1 2 0 12.1121264349199 7.718492956734169 1.972630349668307 0 0 0
1234 1 2 0 14.517371730777276 7.070473013861021 18.340643336108716 0 0 0
1897 1 2 0 12.358181753498293 8.848350632316624 1.8548673687231383 0 0 0
2241 1 3 0 14.903578481277345 8.62684576154162 0.5956445279744303 0 0 0
3291 1 2 0 13.32491766039228 9.743964211960925 1.919617870313457 0 0 0
3162 1 2 0 13.734743382615605 7.12262360225246 2.2503710515161943 0 0 0
1180 1 2 0 12.944059532776608 8.561344079149814 0.8886597999377427 0 0 1
5262 1 2 0 15.682149090195514 8.096269774194685 0.0746061907063158 0 0 1
1066 1 2 0 15.404063054222014 7.10345781541748 1.7670006256780746 0 0 0
1233 1 2 0 14.135110515946417 7.3882971770824 0.6643115109737244 0 0 1
2133 1 2 0 16.087737664717107 7.2553091496750275 0.6532918123619004 0 0 0
1232 1 2 0 14.103930864846067 7.760229394933371 1.5483840276550065 0 0 1
2240 1 3 0 15.069531629914296 7.729006058379516 0.8501548276009633 0 0 0
2239 1 3 0 15.74709966760759 8.243068754545696 1.169071856564433 0 0 0
19 1 1 0 14.957781404126472 8.07656297203908 1.8614990470542567 0 0 0
1202 1 2 0 14.368320606228094 8.863188872147692 1.7836090012847543 0 0 0
2081 1 2 0 16.090871496811754 8.536836812563502 2.1417638074032155 0 0 0
1053 1 2 0 14.757962098840078 9.521524234733823 18.487013713466567 0 0 -1
2132 1 2 0 16.77661536599257 7.737550382977956 1.0831907009833788 0 0 0
761 1 2 0 18.16281549201741 8.02038974613272 0.4751655561942331 0 0 0
2209 1 2 0 18.354686012517252 8.725137532204364 1.5044166828679344 0 0 0
5121 1 3 0 0.48625207887187033 7.183296336157482 0.2071291805054568 0 0 1
2238 1 3 0 16.60643755210501 8.688316228875118 0.9210023875582366 0 0 0
762 1 2 0 18.368836644927423 7.462986677879743 1.3122469549513769 0 0 0
2237 1 3 0 17.48548574747861 8.472061254595243 1.1472336944087647 0 0 0
760 1 2 0 17.894573430031294 8.83592523396033 0.16723406878418995 0 0 0
5261 1 2 0 16.65829832635538 8.017571354553077 0.07690319850665972 0 0 1
1946 1 2 0 16.627252038515334 7.374164563641668 2.6579077650644054 0 0 0
39 1 1 0 16.88231221290732 8.024206543589944 2.0286481195486887 0 0 0
2152 1 2 0 17.519647481078266 8.69783005485692 2.2919473650901216 0 0 0
2155 1 2 0 1.440720199915103 9.301127878648048 1.7114873152844143 1 0 0
1976 1 2 0 0.6540677125071973 8.894873184387514 0.8051799746755832 0 0 0
1978 1 2 0 0.5950206786607214 10.882659586352522 0.6107991319289724 0 0 0
1047 1 2 0 1.0926732817070408 10.226132114401608 1.6329959198093227 1 0 0
15 1 1 0 1.6610467761978276 9.887613349083283 0.9704691795790108 0 0 0
1048 1 2 0 0.1290848683238031 10.568577438404033 1.5664884387772366 1 0 0
1977 1 2 0 0.6899478362230516 9.894924592983807 0.6407101933597872 0 0 0
2939 1 2 0 2.175628377596494 11.306472405041244 2.3945581912195077 1 0 0
2154 1 2 0 0.5099337696074553 9.316382099433579 2.097498234162397 1 0 0
2172 1 3 0 2.3626460294324385 9.538265655814383 1.584681509747573 1 0 0
987 1 2 0 1.9274248319564482 10.717050820660349 0.5830577483374502 0 0 0
722 1 3 0 1.6186577991374191 9.35084399488277 0.051322308426042164 0 0 1
2173 1 3 0 2.957352358670123 10.089631604136216 2.110862297391112 1 0 0
1017 1 2 0 2.510320356653034 9.682108590050285 0.536850214269295 0 0 0
1037 1 3 0 3.1361806653825797 10.333553244851505 0.4440806672516166 0 0 0
1038 1 3 0 3.599978714622179 9.977324157962764 1.1875854760859188 0 0 0
2292 1 3 0 4.153382820464691 10.551931667939657 0.49501425963039825 0 0 0
2276 1 2 0 4.2395437711452075 11.235548019488132 1.1827502204869418 0 0 0
856 1 2 0 5.110380117712629 10.083277395359266 0.9586658183979977 0 0 0
2174 1 3 0 2.695392384934808 10.582169919879739 1.2978077935318098 1 0 0
1039 1 3 0 4.280419667810987 10.20185776504716 1.8458992521713957 0 0 0
1124 1 2 0 4.417218923654348 11.742088324495008 2.3147518969554666 0 0 0
5330 1 2 0 3.351994395268886 11.549960653166067 0.5860544820485998 0 0 1
2275 1 2 0 3.4872512938257403 11.020475162502267 1.6923733881582852 0 0 0
1121 1 2 0 6.27587109729852 10.19494118539776 0.986014778326584 0 0 0
1122 1 2 0 5.746729812234538 10.719730187037902 1.6390149167616777 0 0 0
855 1 2 0 5.168138894608454 10.968582335757254 0.6202083743058683 0 0 0
854 1 2 0 5.823148582245457 11.512665673587382 1.0862015947149428 0 0 0
1123 1 2 0 5.299629362617106 11.475237572606613 2.097569611162286 0 0 0
1120 1 2 0 6.841646108067776 10.398407776973535 0.2430321990520477 0 0 0
853 1 2 0 6.75861828866153 11.382679733049876 1.329834694004253 0 0 0
2253 1 2 0 6.828084942063258 12.06688783589883 2.0795962306139635 0 0 0
3054 1 2 0 6.652568450676318 10.397151432382179 2.118630849357987 0 0 0
788 1 2 0 8.237064555983714 11.074061441371503 0.35867760484073663 0 0 0
850 1 2 0 9.463746079648882 10.85964152011979 1.7182924287673935 0 0 0
790 1 2 0 8.577131030454513 10.263991454825904 1.080128074632768 0 0 0
789 1 2 0 7.892891939587766 10.153622642368124 0.40429375069739815 0 0 0
1169 1 2 0 9.29215158918751 10.856807424604964 0.22036594401879003 0 0 1
851 1 2 0 8.651486144996802 11.235740429905636 1.3787757877967823 0 0 0
852 1 2 0 7.708853647141021 11.512573282223833 1.2534221372864225 0 0 0
2032 1 3 0 9.130611725683416 11.407611148890838 2.4479400794434305 0 0 0
927 1 2 0 9.312789193335284 9.72100078144018 1.6111375185895949 0 0 0
928 1 2 0 9.947585970981875 9.943969608422641 0.9713854278918663 0 0 0
3053 1 2 0 7.539652856793058 10.71602815764935 2.078073287411571 0 0 0
3052 1 2 0 8.01852843675159 11.473949962407234 2.5326895707622956 0 0 0
849 1 2 0 10.202668966523676 10.251781244343098 1.983051320792312 0 0 0
929 1 2 0 10.780298150354522 10.250464978554481 0.7815280463271678 0 0 0
1168 1 2 0 9.68784423400936 11.504838658946866 0.8350995315444466 0 0 1
939 1 2 0 10.873275216039184 9.89150477681939 2.8940386168697523 0 0 0
930 1 2 0 11.581920756352643 10.702476597625528 1.1313802005736198 0 0 0
1230 1 3 0 12.442433747260381 9.571785512425237 1.0756433504933303 0 0 1
2326 1 3 0 12.145985171411768 12.388879670660288 1.409555493306762 0 0 0
1231 1 3 0 11.79755345510465 9.70772603202743 1.7522205276678307 0 0 1
1229 1 3 0 12.619356549247241 10.432309875024186 1.5077996365785469 0 0 1
1228 1 3 0 13.071337084793837 11.258004919305762 1.1660018740397398 0 0 1
1191 1 3 0 12.604822543300298 10.578242825142489 0.13201800852014303 0 0 1
931 1 2 0 11.767597430477203 10.037517002024172 0.45368530846625543 0 0 0
1256 1 3 0 14.256955053843672 10.453456784988209 17.484728714161548 0 0 0
3292 1 2 0 13.588798707761404 9.802942822788053 0.949652020454754 0 0 0
3293 1 2 0 14.548462287744213 9.654305687271046 1.1543316494333327 0 0 0
1052 1 2 0 15.62161679393045 9.30507801908639 0.3066562488466728 0 0 0
1216 1 2 0 15.03163766382206 10.681726252127508 1.0359561453410873 0 0 0
1205 1 2 0 14.17609559362839 11.402847019774294 1.4459577309228837 0 0 0
1204 1 2 0 14.049110424460615 10.54158712321367 1.8271272519750132 0 0 0
1217 1 2 0 15.305624756323308 10.583102570632791 1.9154090380624569 0 0 0
977 1 2 0 15.760769207598686 10.792000872444389 0.3692855785783234 0 0 0
1215 1 2 0 14.454695115874094 10.637951650247746 0.24878587155865312 0 0 0
978 1 2 0 15.981571328529514 11.169278814078643 1.2543022204387257 0 0 0
1051 1 2 0 16.15196128253847 9.875671468032875 0.9241319135991538 0 0 0
3294 1 2 0 15.426359140837077 9.365918359091003 1.543062411245056 0 0 0
1031 1 2 0 15.198049347085849 11.491263066835202 18.48189296861914 -1 0 -1
1028 1 2 0 15.766795766888036 8.845439374218236 17.946177533347672 -1 0 -1
2210 1 2 0 18.30891984568706 9.620587430687907 1.3113721711402733 0 0 0
1095 1 2 0 17.285291265475497 9.665272857531102 0.9413115891895765 -1 0 1
1094 1 2 0 17.13782352273869 9.728271897957509 1.982858978318354 -1 0 1
2211 1 2 0 18.310704255566144 10.205859330629197 0.581326212566769 0 0 0
1050 1 2 0 16.801342446149306 10.49653103719005 1.2282185107093033 0 0 0
1042 1 3 0 16.517270369866292 9.779675079195975 18.43270058919208 -1 0 -1
1043 1 3 0 16.834148622713492 10.582510114219621 0.26249432026926883 -1 0 0
1049 1 2 0 17.745578076590427 10.489823745213771 1.474868263760035 0 0 0
2212 1 2 0 17.96886317701396 11.021799580175937 0.21401199011956293 0 0 0
1093 1 2 0 17.82981327140094 10.34723179763447 2.4421091610190233 -1 0 1
1067 1 2 0 0.823625185227509 11.968200794892011 1.5613066193492182 0 0 0
1069 1 2 0 0.7160461678869189 13.415891305860102 0.36115196509842246 0 0 0
1068 1 2 0 0.892515492515573 12.752130156476886 1.018104381923353 0 0 0
1335 1 2 0 2.080885704263636 13.624373357297173 1.47875219461615 0 0 0
258 1 2 0 1.6501906160318287 12.766582748003536 0.32158778378260744 0 0 0
1979 1 2 0 0.51122701188921 11.812831508526976 0.5184982204939049 0 0 0
1526 1 2 0 1.1649736531999584 13.234352233168778 1.8384818249997028 0 0 0
1980 1 2 0 18.437813250885707 12.565762803641245 0.5304613470059002 -1 0 0
2176 1 3 0 1.3802253725426343 11.155491274063703 1.3022891722257575 1 0 0
2175 1 3 0 2.268440690486466 11.485784868648945 1.3704217320448557 1 0 0
2653 1 2 0 1.8716746398021167 12.674445177503625 2.297717887810048 1 0 0
1334 1 2 0 2.644374139809543 13.711219024572628 0.6901989648772813 0 0 0
1104 1 2 0 3.40931451638942 12.216866669920345 18.38744190839628 0 0 0
1333 1 2 0 3.2157529437245147 13.333264462581333 18.539255339394337 0 0 -1
5331 1 2 0 3.5564961463476683 12.233002430680578 1.1358293111194269 0 0 1
239 1 2 0 3.594926559972508 13.77267207003655 1.5743588472230141 0 -1 0
5332 1 2 0 4.167992301916832 13.001140969026968 1.1921202218013147 0 0 1
238 1 2 0 3.72623191497709 13.947470494355048 0.630082636751016 0 -1 0
5333 1 2 0 4.800139870896643 13.542503508644035 1.6953065845703261 0 0 1
1126 1 2 0 3.0268510535023787 13.174680016800433 2.116017712013094 0 0 0
1125 1 2 0 3.7741558749573296 12.569841457812196 2.1402364213953233 0 0 0
2277 1 2 0 4.657094416346222 12.052259403736182 1.1386290049486179 0 0 0
2376 1 2 0 5.428103558824546 13.83722897968782 0.9464895628056744 0 0 0
2252 1 2 0 7.011643633054005 12.583645309629839 1.3207625629490338 0 0 0
2375 1 2 0 5.534036555964 12.904431947833922 0.9946478218914345 0 0 0
2251 1 2 0 6.6464527166028144 13.366143945458495 0.9926686643023027 0 0 0
5334 1 2 0 5.751479109515131 13.611931287969785 2.0068867640984442 0 0 1
2374 1 2 0 5.925652406600749 12.378475485093029 1.649366228161152 0 0 0
5335 1 2 0 6.624002459318221 13.2788703518826 2.264992264813995 0 0 1
2250 1 2 0 6.38085602151296 14.207207483961948 0.5727887243765126 0 0 0
2278 1 2 0 4.917150506204943 12.53773661119211 1.9804868826131576 0 0 0
5392 1 2 0 7.448424093034067 13.245999012043278 0.12573294186115544 0 0 1
119 1 1 0 7.949323011018627 13.175716830483687 1.0242163910509805 0 0 1
4656 1 2 0 8.838628143769954 13.277818651472609 0.5955871265076482 0 0 1
5336 1 2 0 7.5641219490171885 13.352938744485254 1.9319445279563738 0 0 1
2034 1 3 0 8.783978165774842 13.027342362469593 1.7121060312714358 0 0 0
4679 1 2 0 8.915962231941915 11.927786813759656 18.473029488736287 0 0 0
2035 1 3 0 8.11375461781715 12.424463956095689 1.8072147306548163 0 0 0
2036 1 3 0 8.367716691160938 12.19248399577618 0.9070923410263563 0 0 0
1702 1 2 0 8.58721977338458 14.322957525388766 3.0373546988626994 0 0 0
1188 1 3 0 11.295598068106258 11.772942125966368 0.8544369296261984 0 0 1
1187 1 3 0 10.514092438658475 11.433071908647161 1.3079522696720034 0 0 1
4680 1 2 0 9.630851122443785 12.432533447211181 0.2602844951470945 0 0 1
1167 1 2 0 9.626308509098266 12.147852936578808 1.550138575169452 0 0 1
4682 1 3 0 10.0704108451318 13.262829368230765 0.9424127410798491 0 0 1
4655 1 2 0 9.54667058652837 13.805012974826735 0.15389134914633382 0 0 1
1703 1 2 0 9.019875025436647 13.99031830961328 2.26579635206378 0 0 0
18 1 1 0 10.17753238011134 12.325192785659416 2.268101524633402 0 0 0
4683 1 3 0 10.747211713214384 12.867691899928833 1.518791473706733 0 0 1
2307 1 2 0 11.397134031684427 13.917575565516971 1.757453278361896 0 0 0
2308 1 2 0 10.883664729021806 13.94493611735094 0.951754557838725 0 0 0
4681 1 2 0 10.539939031169839 12.575487673468416 0.5148803703500447 0 0 1
120 1 1 0 10.909405204294773 13.338484718812865 0.05030307031504541 0 0 1
1189 1 3 0 12.089289467603377 11.63304398380377 0.30091102698129385 0 0 1
2327 1 2 0 13.076182092074818 12.93925166261028 1.461260284396943 0 0 0
43 1 1 0 13.76845713044558 12.345296899218047 1.1371637930599847 0 0 0
4684 1 3 0 11.500020547975437 13.023448323625157 0.9530720982197887 0 0 1
2151 1 2 0 13.451699916350027 11.897906978995294 1.9088066022988983 0 0 0
4685 1 3 0 12.349403302996985 12.903805597698943 0.39690516724239067 0 0 1
1295 1 2 0 13.187092515558192 13.48214002781138 0.42726714701937335 0 0 0
1308 1 3 0 12.272058630832522 13.808575381159978 1.2223147056417212 0 0 0
1190 1 3 0 12.747446803316219 11.330827996818032 18.165220073883855 0 0 0
1296 1 2 0 13.286261652111623 12.490682392547665 0.27544239708950186 0 0 0
979 1 2 0 15.398637304402133 11.840872079335139 1.7445973319959684 0 0 0
1206 1 2 0 14.425222065807189 12.161256809497804 1.9267179958797083 0 0 0
2215 1 2 0 15.485779514976585 12.017255453672213 0.7168099926326212 0 0 0
2216 1 2 0 14.524270533325133 12.136428126489474 0.6493420193612682 0 0 0
426 1 2 0 14.161854595094727 13.165302617075632 0.570448758090376 0 -1 0
1207 1 2 0 14.973674628039335 12.802069370696298 1.4133842603769313 0 0 0
1208 1 2 0 15.60183287966336 13.213306761507818 0.754672603290978 0 0 0
1033 1 2 0 14.976921296407319 13.349658968432115 18.469113153268744 -1 0 -1
427 1 2 0 14.153698842064545 13.483576625456456 1.5140658858873104 0 -1 0
2345 1 2 0 16.076366765471107 12.543523200006646 1.4190212783314067 0 0 0
1437 1 2 0 15.357238878238821 13.84471756504243 1.634456125102711 0 0 1
425 1 2 0 13.960860773759505 13.369659238431742 18.215601867969383 0 -1 -1
1721 1 2 0 15.906263133664474 12.718488956719167 18.54385879627478 0 -1 -1
2214 1 2 0 16.205066691508033 11.656314660122048 0.1977810991239623 0 0 0
1045 1 3 0 17.595925391748818 12.059806391363551 0.7309426498268514 -1 0 0
2196 1 2 0 18.296795993509903 12.412157509661252 1.5575795005825728 -1 0 0
1981 1 2 0 18.429968155927696 13.379242893864296 0.9927263943707572 -1 0 0
1044 1 3 0 17.09870666548226 11.30932083765294 0.8190817648218485 -1 0 0
1209 1 2 0 16.47240112615608 13.595745347868814 0.456762089232215 0 0 0
2346 1 2 0 16.27718336454917 13.531109871536197 1.4983073546141 0 0 0
1722 1 2 0 16.714611388853623 12.558124593299556 0.5138536262937948 0 -1 0
1723 1 2 0 17.121395248715633 12.755905852115113 1.3602346097339055 0 -1 0
1304 1 2 0 17.472841203404933 13.412091590837239 0.46487616289168837 0 0 0
2344 1 2 0 16.407989069346506 11.846443198460891 2.0160729754506583 0 0 0
2195 1 2 0 17.955738158693208 11.76447266171447 2.101715424637232 -1 0 0
1046 1 3 0 18.204618901651124 11.49012889775973 1.1460462051360423 -1 0 0
44 1 1 0 0.2260544133536635 13.119002949834698 1.957693223508963 0 0 0
2177 1 2 0 0.4309523385638361 14.578181091042142 0.6692929477133865 0 0 0
2178 1 2 0 1.3652712687626007 14.493256080217975 0.6319356111753015 0 0 0
1525 1 2 0 0.7775653587452546 14.099538760664473 1.5777042302033348 0 0 0
1524 1 2 0 0.6783557061443668 15.030131295322212 1.6514080106183424 0 0 0
156 1 3 0 0.597831230403177 15.577393146846717 0.37430965743054434 1 -1 0
2382 1 2 0 1.7419973073109944 14.680011008607767 1.8526089176572096 0 0 0
2179 1 2 0 2.333707553226408 14.737482908928214 0.7214737776784375 0 0 0
178 1 2 0 1.8499888250345446 16.129224067146183 0.6709280075442174 0 0 0
1336 1 2 0 1.9588483572523523 13.738909835414146 2.450715402006453 0 0 0
5384 1 3 0 2.8938852412914864 14.538414958255487 18.368043534988953 0 0 0
2180 1 2 0 3.317359420290911 14.910699500073447 0.7595235886101827 0 0 0
2181 1 2 0 3.9258173192542527 14.71460261820223 1.4332884277532831 0 0 0
2380 1 2 0 2.902191655357635 15.806984177813094 1.0676858596023648 0 0 0
2379 1 2 0 3.832692757557971 15.827731303735966 1.0141921964348353 0 0 0
2381 1 2 0 2.1694259195468986 15.50212530044998 1.5369588052271352 0 0 0
240 1 2 0 2.837363421881553 14.343932907162658 1.8003428646429636 0 -1 0
2378 1 2 0 4.692862607595046 15.457784118614779 1.270658903654688 0 0 0
315 1 2 0 3.962687546807182 16.092825730032136 18.505063312201045 0 0 -1
2182 1 2 0 4.2301499514550915 14.31947345253358 2.2488554532363754 0 0 0
237 1 2 0 4.563092222384164 14.39811379157263 0.511437983782021 0 -1 0
2377 1 2 0 4.965418899883463 14.592323804851723 1.3812523990207004 0 0 0
236 1 2 0 5.085747528046723 15.190080191367722 0.2835210438019586 0 -1 0
235 1 2 0 5.797318909507513 15.401803903988377 0.9436238346082191 0 -1 0
234 1 2 0 6.1919331922678085 15.689342736584583 1.7772492297501858 0 -1 0
2249 1 2 0 6.781080168782473 14.897539201369227 1.203168583520153 0 0 0
1591 1 2 0 5.230264636651583 15.556259475365998 2.349533354953998 0 0 0
1590 1 2 0 5.429352255755426 14.629065356578835 2.50776254795502 0 0 0
2248 1 2 0 6.05984834413133 14.511037030512092 1.6285166353482574 0 0 0
2313 1 2 0 8.284459759768763 14.445988036115281 1.8229269702044033 0 0 0
1425 1 2 0 8.600027775604401 16.03883347666983 0.9830912694645706 0 0 0
1605 1 3 0 7.563500132034761 16.257319591418437 0.955837438267162 0 0 0
2262 1 3 0 7.605505254406979 14.306495551158509 1.036451699958964 0 0 0
2263 1 3 0 8.020036487386683 15.119474629596654 0.9800176795111607 0 0 0
2312 1 2 0 8.94302621072424 14.350497135937896 1.1727379544960974 0 0 0
1353 1 2 0 9.10780314066465 15.601225800667192 0.25646170421614845 0 0 1
2266 1 3 0 8.325117582772771 16.282559531157833 2.342800860943093 0 0 0
2264 1 3 0 7.806347400778231 15.53342201097096 1.8589175353874436 0 0 0
1361 1 3 0 7.588089048872499 14.617878164924367 18.486981371003978 0 0 -1
312 1 2 0 6.2871640533799935 15.584667891139171 0.0177457602031473 0 0 0
2311 1 2 0 9.845519191374498 14.652255536929703 1.0391258925905018 0 0 0
1705 1 2 0 10.539522535955966 14.643418479722216 1.927494325410378 0 0 0
1704 1 2 0 9.871932568118162 13.940062857927584 1.8332658561923236 0 0 0
2310 1 2 0 10.674767808895794 15.204541250794621 0.8885840393598017 0 0 0
303 1 2 0 9.850569638692367 15.494635008477399 1.8534585199610747 0 -1 0
304 1 2 0 9.560064960670246 16.291557313293296 1.406305779066014 0 -1 0
1426 1 2 0 8.906776634265523 15.317335903439442 1.6175728280588784 0 0 0
1427 1 2 0 9.174560961952682 15.106808159577277 2.5079602933779914 0 0 0
2309 1 2 0 11.498598882867295 14.660000334997696 0.784836829612284 0 0 0
302 1 2 0 10.636420717958847 15.72837003841515 2.402900367554076 0 -1 0
1147 1 2 0 10.032164504283125 16.48436534982219 2.638398249599318 0 0 0
1294 1 2 0 13.240332736145174 14.15241055575262 1.1442524777525875 0 0 0
1307 1 3 0 12.443166206194485 14.762899802586636 1.1837556257960857 0 0 0
2425 1 3 0 13.535319607144158 15.64450514506852 1.7264697068840344 0 0 0
5354 1 2 0 13.14290273347742 15.115269593863031 0.41067503847024867 0 0 1
2426 1 3 0 12.577749273717936 15.798416494314067 1.7075374895119408 0 0 0
1310 1 3 0 12.561283381868616 14.696962654614302 2.7424020979347836 0 0 0
5353 1 2 0 13.949090233062627 15.20529014713291 18.41247029873398 0 0 0
1150 1 2 0 11.704036505321895 15.645283642658143 1.1552783128588862 0 0 0
1708 1 2 0 11.367515807895765 16.621327875376544 2.7819224002184244 0 0 0
5356 1 2 0 11.6682065590011 13.848646142891159 0.09836423961778283 0 0 1
5355 1 2 0 12.45897050719703 14.477446910820701 0.14070356007814683 0 0 1
1438 1 2 0 14.870139512392965 14.024044732196586 0.7859870711147169 0 0 1
1439 1 2 0 14.240585472052338 14.263243336337597 0.14143093644734858 0 0 1
1293 1 2 0 13.928466752164562 14.888410760643898 1.0553420461375194 0 0 0
2432 1 2 0 15.440238040204568 15.102944837016683 1.3321642335250699 0 0 0
1269 1 2 0 15.597092474142597 15.909986091680743 0.6219674716563696 -1 0 0
1292 1 2 0 14.593739665997433 15.411151736289808 0.6289301696220834 0 0 0
1270 1 2 0 15.582013974504045 15.144672072303493 0.0037618383446584858 -1 0 0
2433 1 2 0 14.64928423102996 15.105587954232478 1.878800745896217 0 0 0
48 1 1 0 16.07809898106111 14.404794697160417 1.2588991653182933 0 0 0
1415 1 2 0 15.466471480403959 15.819545233920108 2.1658216630397145 0 0 0
1291 1 2 0 14.953107648561563 15.935653111046065 18.404450615181066 0 0 -1
1489 1 2 0 16.28913811775453 16.257294437900654 1.4017272626517103 0 -1 0
1305 1 2 0 17.214803406443345 13.969759715213618 1.219618523042248 0 0 0
446 1 3 0 18.217175824904096 15.50158872248514 1.0573622238103328 0 -1 0
2197 1 2 0 18.15975206953839 14.200071242934944 1.8404346033107448 0 0 0
2411 1 2 0 16.456998997519797 15.170210144016911 0.7780865737194956 0 0 0
40 1 1 0 18.07112140030677 14.247256707885054 0.8984977502772125 -1 0 0
1036 1 2 0 17.298480202960764 14.529611059558748 0.3525778410362657 -1 0 0
2410 1 2 0 16.630301561699078 16.01561869205483 0.2637763666599525 0 0 0
445 1 3 0 17.364629515189847 15.242289562051736 1.3375486788150803 0 -1 0
2427 1 3 0 16.6985789741732 15.58076553756753 17.977426551098837 0 0 -1
1486 1 2 0 0.22425261921169692 16.592408042879313 0.5894889200842008 1 -1 0
1488 1 2 0 17.250374791345365 16.2581833414354 1.2563395488955376 0 -1 0
444 1 3 0 16.610749660942922 15.187630326539658 2.0401202736132955 0 -1 0
1752 1 2 0 2.2127287481589297 0.04717653743868371 1.2288032923942271 0 0 0
179 1 2 0 1.64877830196804 15.693991259891916 18.482630267618156 0 0 -1
177 1 2 0 1.7170908878366533 16.411666119869132 1.5922608741315025 0 0 0
1522 1 2 0 0.5367522655652289 16.815041471834483 2.1190007536068522 0 0 0
1483 1 2 0 2.63473695958722 17.893167759924296 0.628631425181348 1 -1 0
1484 1 2 0 1.6790792624793087 17.683620034858105 0.5333719994342765 1 -1 0
155 1 3 0 0.7208735642230854 16.29777636167294 18.339509617433567 1 -1 -1
1521 1 2 0 0.9100198586421203 17.69745371915196 2.0051806327897506 0 0 0
1283 1 3 0 1.0695396078772657 18.402111087794687 18.39926040077293 0 0 0
154 1 3 0 0.9378658816016843 17.255040724734595 18.378692375919584 1 -1 -1
1263 1 2 0 18.568088750896916 18.251153886253785 18.29777617312938 -1 0 -1
25 1 1 0 3.234982318254834 0.09901853583344769 1.7114997328761712 0 0 0
4851 1 2 0 4.808592491668914 0.43969331495508895 0.7982532717851767 0 0 1
1482 1 2 0 3.1865710460134276 0.07107224060177941 0.7523895559038538 1 0 0
1595 1 2 0 4.2712135457082985 18.154034639031277 1.9964495651498668 0 0 0
211 1 2 0 3.596285206048427 17.33786318277378 0.34522973304250465 0 -1 0
1507 1 2 0 3.3867272115742866 17.739138393605845 1.5413363911735305 0 0 0
4850 1 2 0 4.305156890094445 18.345469736448816 0.3212127183952043 0 -1 1
210 1 2 0 3.371540515398749 16.791460817832203 1.0716016741388983 0 -1 0
209 1 2 0 4.118373425989551 16.725069382554278 1.6834307761317477 0 -1 0
1594 1 2 0 4.429518661736427 17.76948673461333 1.1564120773595759 0 0 0
1558 1 2 0 2.4899903954480034 17.78055735418856 1.9338641526551468 0 -1 0
1557 1 2 0 2.6557512825427168 16.822608719065972 1.9785216883940997 0 -1 0
230 1 2 0 6.814767866603894 0.14167418569592738 1.7669360225069202 0 0 0
1592 1 2 0 5.2083615061896165 16.318672807688632 1.674915885902856 0 0 0
233 1 2 0 6.585433648470093 16.117823437227596 2.568793465273352 0 -1 0
1593 1 2 0 5.200735786326073 17.10916450163332 1.0758762684603054 0 0 0
129 1 2 0 5.513836782465845 18.05206432862248 0.7586265372919464 0 -1 0
1602 1 3 0 6.032375646634011 17.102287422154482 0.6575094525998255 0 0 0
128 1 2 0 6.042318798997407 17.941991280977234 1.5889881179521261 0 -1 0
127 1 2 0 6.036270739969494 16.99967572555565 1.8922958945638286 0 -1 0
1603 1 3 0 6.931211969339033 17.126667173025762 0.9723313927733767 0 0 0
288 1 2 0 6.609102245104105 18.32511945019554 0.6961360679588864 0 -1 0
208 1 2 0 4.7852965584203 17.31277369629299 1.9652290821420022 0 -1 0
207 1 2 0 5.487130609032595 17.681338212700076 2.500808454492457 0 -1 0
1606 1 3 0 8.02724538272729 17.04254251192038 1.2283455359941735 0 0 0
1424 1 2 0 8.907972918160558 16.72746025239651 0.3603878154440558 0 0 0
1604 1 3 0 6.647576940185001 16.218824239070642 0.9827308464638642 0 0 0
4786 1 3 0 7.9219145048603385 17.59579313818083 0.312301470155937 0 -1 1
286 1 3 0 7.837795800638371 16.9949894580331 2.9062505032138106 0 0 1
231 1 2 0 7.199867516882634 17.835637313214814 2.034928380699158 0 -1 0
1546 1 2 0 7.636261748326596 0.26591357374383484 1.1470110728174185 0 0 0
232 1 2 0 6.991046487707489 16.88308447899397 2.2252831632544896 0 -1 0
27 1 1 0 8.08358697007965 18.17648566247599 1.6273861907354965 0 -1 0
1423 1 2 0 9.724390915975468 17.144831715333677 0.2823464424980495 0 0 0
1422 1 2 0 9.998587632172212 17.640319560273664 1.025110100533846 0 0 0
285 1 3 0 8.60695030393948 17.272212709306928 2.260256104891754 0 0 1
306 1 2 0 9.045593995091087 17.951875725887064 1.6479009529850446 0 -1 0
366 1 2 0 11.076383788379497 18.03026946374711 0.5460304294293729 0 -1 0
4892 1 3 0 10.673673991803382 16.76578012244557 0.5692529106696347 0 0 1
305 1 2 0 9.103948111162977 17.07247498220211 1.338033477308244 0 -1 0
1149 1 2 0 10.97899352558919 16.223630272686854 1.462584652614522 0 0 0
1148 1 2 0 10.360669402733633 16.893131549119726 1.8024444104275208 0 0 0
365 1 2 0 11.188119799984696 17.292349915037345 1.2035311075458137 0 -1 0
4893 1 3 0 10.529883175943192 16.431367462370225 18.12516699984682 0 0 0
364 1 2 0 11.875273082960707 17.391476626518056 1.9020432783442365 0 -1 0
388 1 2 0 11.327955013208197 18.32531784339056 2.5035833849096965 0 -1 0
2424 1 3 0 13.842079694941079 15.952654072611406 0.8841399324618283 0 0 0
441 1 2 0 13.003959012580859 16.14179048757593 18.545617351266852 0 -1 -1
363 1 2 0 12.462724879278664 16.703823380021596 2.2656197650888545 0 -1 0
1411 1 2 0 13.029151375400863 17.724874238599124 0.7453852956361505 0 0 0
440 1 2 0 13.065873092272842 16.600227592207787 0.8263575752013694 0 -1 0
439 1 2 0 13.064132118952763 17.214466136137347 1.5687506745497595 0 -1 0
1410 1 2 0 12.447246323969747 17.206131548656927 0.19968842927471583 0 0 0
438 1 2 0 13.781015692556647 17.839039810408988 1.753549019679101 0 -1 0
362 1 2 0 13.427812361815564 16.72258044949651 2.384914685542798 0 -1 0
1695 1 3 0 11.857629211837605 0.9510695061937716 1.3042483258183941 0 0 0
1414 1 2 0 14.808046794490886 16.092914627018818 1.4729284868984522 0 0 0
2423 1 3 0 14.058073728574582 16.347411208974563 0.01114451742105853 0 0 0
1412 1 2 0 13.9423941068108 17.417784461210115 0.6603039396807422 0 0 0
359 1 2 0 15.055278137404432 17.902816648594595 0.8874127835359342 0 -1 0
2406 1 2 0 14.215489121382632 18.36739937061625 0.2735358971867409 0 0 0
1413 1 2 0 14.654395938563969 16.788488229531914 0.8414125203262388 0 0 0
360 1 2 0 14.710726259128288 17.456791345453695 1.6492443370250367 0 -1 0
1268 1 2 0 15.74406949474599 16.866496396926077 0.6878399068272646 -1 0 0
453 1 3 0 15.928182846169308 17.785115253049547 1.5926920149373909 0 -1 0
452 1 3 0 15.637173285485177 0.04761590736490362 2.1152597593886777 0 0 0
414 1 3 0 15.877163084995647 18.05368720187526 0.11487550633963803 0 -1 0
1490 1 2 0 15.629466667285618 16.77373691313291 1.871269898591962 0 -1 0
1523 1 2 0 0.30608509471536055 15.925360570236293 1.8022316036284267 0 0 0
1485 1 2 0 0.9321476572530059 17.093921350255293 0.9065790918752326 1 -1 0
685 1 2 0 18.49349698033843 17.63838774988436 1.43371383116799 0 -1 0
1660 1 2 0 16.619844249290754 18.377227091639586 2.1587664650420164 0 -1 0
1267 1 2 0 16.595460723919647 17.31269119136602 0.48353041561173493 -1 0 0
1487 1 2 0 17.82995650915705 16.35732903808459 0.5320151033892575 0 -1 0
686 1 2 0 17.899095730035263 17.12965641688439 1.9337792362172914 0 -1 0
160 1 2 0 17.649256755376744 0.37233068419514226 1.8135872979266319 0 0 0
1266 1 2 0 16.779035721021756 18.216630549152093 0.5623219450285473 -1 0 0
161 1 2 0 17.483352031700438 18.10918928360751 1.4714373742335536 0 -1 0
162 1 2 0 17.755327566401007 17.91631809734881 0.5418234415887586 0 -1 0
454 1 3 0 16.73178504390009 17.289426143888452 1.5378351247331858 0 -1 0
1264 1 2 0 17.971045461757267 0.3339357285575373 18.014384590728397 -1 1 -1
463 1 2 0 1.49173527906721 1.667405944068113 2.2441268069389775 0 0 0
1749 1 2 0 0.4245396300280956 0.08567817998413121 3.0690252790054777 0 0 0
2668 1 2 0 0.3811029094288848 0.6670048419216745 4.045109025714705 0 0 0
2669 1 2 0 1.2432075896393404 0.7595745158134428 3.708739805572554 0 0 0
1560 1 2 0 1.8712301487327572 0.7962497169046241 2.7332286811019397 0 0 0
1561 1 2 0 1.8199149321310677 1.6104015666858678 3.272707473245228 0 0 0
1770 1 2 0 0.06899334897340352 2.01473835812003 3.3714687552959184 0 0 0
1562 1 2 0 1.9412343501111218 2.4156766283071502 3.8289416788406005 0 0 0
2670 1 2 0 2.257808141015356 0.8029899133303812 3.8760813639792913 0 0 0
1771 1 2 0 0.8489704029224084 1.694590425967608 3.860776603793169 0 0 0
31 1 1 0 4.98409042356338 1.2098397229488986 2.5226886084184703 0 0 0
1578 1 3 0 3.486428272721874 1.4773002583496393 2.011973532635157 0 0 0
1622 1 2 0 3.9449605503475076 2.433286980426998 2.78792402000787 0 0 0
1620 1 2 0 4.525204689598009 1.4339654703078075 3.949564734582377 0 0 0
1621 1 2 0 3.9500429149701866 1.5032050401231063 3.125376086847361 0 0 0
150 1 3 0 3.1210051699688863 0.175530002724124 3.6291034124503154 1 0 0
151 1 3 0 4.1075163850488545 18.46427601158961 3.8129980171180535 1 -1 0
1596 1 2 0 3.555275485569819 18.36269913624538 2.6623278158298542 0 0 0
1807 1 2 0 5.146131903652029 2.0749469225757022 2.91797676582547 0 0 0
2671 1 2 0 2.8606894610060576 1.5302447908481447 3.6209917077772418 0 0 0
2672 1 2 0 3.1012905629366543 2.457463805287959 3.690232262671905 0 0 0
1576 1 2 0 4.994571646842935 0.3179469336521883 2.733865180214486 0 0 0
291 1 2 0 5.823854922367669 0.8219624015215183 2.7893448669840923 0 0 0
1619 1 2 0 5.096394399798628 2.1718355783091567 4.438905485723351 0 0 0
292 1 2 0 5.528650380553898 1.2138299663082304 3.5485705541575245 0 0 0
1537 1 2 0 6.673559390188929 1.782583601343469 3.5872306951626425 0 0 0
1536 1 2 0 6.9131530982879665 1.150508492275733 2.8903743722554385 0 0 0
1618 1 2 0 5.973246921176021 1.9487094772203104 4.39606865335511 0 0 0
293 1 2 0 5.835939578149677 0.8033408713050875 4.421768164744539 0 0 0
1538 1 2 0 6.39998424397052 2.6561241918835257 3.2825631977282725 0 0 0
1554 1 3 0 4.40789877521996 2.8249233095872492 3.9362199887395715 0 1 0
3519 1 2 0 4.869153283878067 0.711128143691277 4.873104561813341 0 0 0
1535 1 2 0 6.455391703164517 0.6918862635548837 3.5827794648257334 0 0 0
1876 1 3 0 7.430691898843035 0.5247518658555372 3.8835162519222437 0 0 0
272 1 2 0 7.743910549164414 1.9672677508995946 2.7636427347717443 0 0 0
1874 1 3 0 8.070560756651146 1.5350778473752957 3.850000796295842 0 0 0
273 1 2 0 8.233559871507548 1.1249037483187503 2.848350794596249 0 0 0
1875 1 3 0 7.253515662227996 1.3812633194048785 4.247208346740074 0 0 0
540 1 2 0 9.216773154310609 0.8264687120734296 4.359581241179792 0 0 0
1609 1 2 0 8.842124548132219 1.953058744000367 2.8066988420622656 0 0 0
543 1 2 0 7.525582363354978 2.4274577559573713 3.797674446244612 0 0 0
542 1 2 0 7.949266982711094 2.2217911851319787 4.626852442320529 0 0 0
1873 1 3 0 8.641887320197988 2.3399296818631554 3.836348632837599 0 0 0
613 1 2 0 10.65307425969515 0.6097025539488045 2.1600213570711904 0 0 0
275 1 2 0 9.613047207839797 0.9722619094121019 2.329417129972178 0 0 0
539 1 2 0 10.040892740280954 0.9054301656066885 3.873042055357608 0 0 0
538 1 2 0 10.825296714335133 0.7188722151406781 4.365416814477787 0 0 0
612 1 2 0 10.462082767100812 1.1007390564882218 2.9330185110532114 0 0 0
274 1 2 0 9.011073958132787 0.6289590834255936 3.008416488085926 0 0 0
537 1 2 0 10.991373982731686 1.6897492711849404 4.369135878697534 0 0 0
1610 1 2 0 9.457286102258992 1.5038120242973794 3.3729351504649845 0 0 0
1611 1 2 0 9.821464962992625 2.0376389079135078 4.173405948308147 0 0 0
1890 1 2 0 10.848443669361082 0.18714618781622824 3.502122655582618 0 0 0
1889 1 2 0 10.270906199754384 18.500991415088432 2.764328735808725 0 -1 0
2609 1 2 0 11.990010038303692 1.6997292153330399 4.849079556555996 0 0 0
1494 1 2 0 13.273719759136494 0.48793381069326947 2.8312845938726268 0 0 0
1681 1 2 0 14.122344061821979 1.594137822861397 3.2374605305099333 0 0 0
2568 1 2 0 12.605463258800187 1.0017525539555052 4.08854953627152 0 1 0
2569 1 2 0 12.233015866876409 0.732156528375223 3.1514090067541756 0 1 0
1891 1 2 0 11.757108539509233 18.406601551309585 3.6833829581420994 0 -1 0
1682 1 2 0 13.102905247411325 1.6105525491715194 3.236804838150799 0 0 0
1734 1 2 0 13.580954418587558 0.8380794426287174 3.896968223054714 0 0 0
1892 1 2 0 12.68327066287485 18.36313292064495 3.888671591595909 0 -1 0
2570 1 2 0 12.332666687240144 18.417433673212965 2.810090005812382 0 0 0
1733 1 2 0 14.391989860511877 0.5759745093413311 3.5123029532112615 0 0 0
1732 1 2 0 15.190319601828238 0.8104916028884745 2.9929019069336595 0 0 0
447 1 3 0 15.28992707658586 0.46266209494526794 4.222146051268206 0 0 0
695 1 3 0 15.004967422081497 0.8559337635129184 1.8059480642393642 0 0 0
696 1 3 0 14.986376156294364 1.7063907406671845 2.245907343048594 0 0 0
435 1 2 0 15.350626670012662 18.18053280282929 3.715665912164461 0 -1 0
436 1 2 0 15.02524603782373 18.392000523658297 2.8403655494162225 0 -1 0
1731 1 2 0 16.005786194436926 0.4064133249600029 3.0851967384720465 0 0 0
2067 1 2 0 16.29070169368277 1.9566743346962272 1.845745743428045 0 0 0
2068 1 2 0 15.895414611545197 2.097504201205673 2.7171715054680563 0 0 0
448 1 3 0 14.690728723953617 1.070521199681175 4.596991446732836 0 0 0
2536 1 3 0 15.759496244087481 1.4000703932382166 4.563275172476024 0 0 0
419 1 3 0 17.68242955957966 1.9230399180607636 2.9945429072811645 0 0 0
464 1 2 0 0.8150591799012576 1.416250903679781 2.809737640426963 0 0 0
2667 1 2 0 18.230274851024244 1.314461362609299 4.201033797530336 -1 0 0
1769 1 2 0 0.18888038146342395 2.9222494761235587 3.0420266951388375 0 0 0
465 1 2 0 18.515147588817335 1.0541050371777303 2.7673263238677657 -1 0 0
466 1 2 0 17.809357093608313 0.9283926286578185 3.3918168540154205 -1 0 0
2723 1 2 0 16.29732441828523 0.7105703673232235 4.076328277306248 -1 0 0
2722 1 2 0 16.893434267677073 1.3760257495084403 3.8958933455757183 -1 0 0
53 1 1 0 17.51931409148073 2.0238826692728713 4.106440010441544 -1 0 0
2742 1 2 0 16.772025266434493 2.4534668157653625 3.640036477584207 0 0 0
404 1 2 0 17.156013987378223 2.5165683535485766 1.7777711485743128 0 0 0
2692 1 2 0 17.795360722004393 2.8748383911899165 4.266784198004219 -1 0 0
1927 1 2 0 16.844067804198843 2.058778448410717 4.911787815116467 0 0 0
2715 1 3 0 2.0347192730173282 3.574287902992977 2.2479412003815087 0 0 0
2716 1 3 0 2.524497066806689 4.368948155868549 2.059105502534162 0 0 0
741 1 2 0 1.1579111157962216 4.350290836618827 2.417378083242523 0 0 0
2714 1 3 0 1.6703826278837288 2.7230461908540162 2.296190397037607 0 0 0
1462 1 2 0 0.7985278164394053 3.403792208104566 2.239136385233457 0 0 0
2713 1 3 0 1.138859254643119 2.4148663439742264 3.1042823299151747 0 0 0
1463 1 2 0 1.3469215284333393 3.5284550448100145 3.0801257895784753 0 0 0
1464 1 2 0 1.976856643057901 4.160659616598375 3.4244411372678534 0 0 0
2712 1 3 0 0.7255285178234274 2.861067824802194 3.8416505452042435 0 0 0
1968 1 2 0 0.18726387293898844 4.014007057929714 3.346431268785538 0 0 0
1969 1 2 0 0.2796266745865475 4.923752464887547 3.6541006929274658 0 0 0
742 1 2 0 1.8464622096374634 4.957781298058682 2.720560070963459 0 0 0
743 1 2 0 1.2525233611488602 5.425282792911226 3.298589619207307 0 0 0
1563 1 2 0 1.4492319121337311 2.5161887829203615 4.70992903317205 0 0 0
1808 1 2 0 5.020150999434291 2.9538788136624183 2.8307586257374453 0 0 0
1581 1 3 0 2.7628235215450263 2.630168881183389 2.786089368509156 0 0 0
2798 1 3 0 3.844963335137482 4.327861856898711 2.5421534816258426 0 0 0
2801 1 3 0 3.2212729029271645 3.737728881822349 4.3303114704296135 0 0 0
2799 1 3 0 3.082302959879012 4.141039064172506 3.1048769291270433 0 0 0
1809 1 2 0 4.620489215201741 3.7555472699824426 3.270576539654922 0 0 0
2800 1 3 0 3.5817873953486394 3.3482178476165534 3.538513691088256 0 0 0
1555 1 3 0 3.8420699870392148 2.785417963349729 4.701095750397224 0 1 0
1810 1 2 0 4.209218026044459 4.399803096005296 3.877712769728319 0 0 0
1539 1 2 0 6.052337356531418 3.2271910898588665 2.640228165934288 0 0 0
1998 1 2 0 6.564309876587811 4.54518664668779 3.1397028305689094 0 0 0
1553 1 3 0 5.358437149953711 2.7890945525927364 3.7312415773505956 0 1 0
1799 1 3 0 6.9047622303502765 2.5137958702266414 2.5044110346049933 0 0 0
1800 1 3 0 7.000620349049533 3.455623481511027 2.438854439017143 0 0 0
1552 1 3 0 5.686900948278656 3.64125121314246 3.4248692190919954 0 1 0
1999 1 2 0 5.919864457753549 4.5874248090216785 3.905726779564229 0 0 0
2813 1 2 0 6.472267731473699 2.7575726911786202 4.430042467476345 0 0 0
2048 1 2 0 6.669806850473506 3.783146822925435 3.989162862111554 0 0 0
546 1 2 0 9.088876218900696 4.106948634182963 2.5610573905407645 0 0 0
545 1 2 0 8.198526099538974 3.7017980035519185 2.4510136177100263 0 0 0
1801 1 3 0 7.331096467147847 4.370596480093718 2.394128869255306 0 0 0
2814 1 2 0 7.333226534765283 3.076171103518607 4.552656958761782 0 0 0
544 1 2 0 7.884666929114782 3.0242358947255337 3.1142373051660313 0 0 0
1872 1 3 0 8.276301272782439 3.2000883654559926 4.082539788038204 0 0 0
2047 1 2 0 7.555251590971893 4.02333337175484 3.6107586912050884 0 0 0
3022 1 2 0 8.649015300036694 4.32737096777354 4.894561584183738 0 0 0
611 1 2 0 10.541129704023039 2.035466546152924 3.3251910956291266 0 0 0
536 1 2 0 11.401086126007886 2.5318675402735162 3.90049126846043 0 0 0
574 1 2 0 9.583136052156505 2.567660426777222 3.299889511612474 0 0 0
573 1 2 0 8.831896207134871 3.1327367038649645 3.1276562234517526 0 0 0
3021 1 2 0 9.60576700659618 4.1013708109853875 4.741400032078182 0 0 0
948 1 2 0 9.598331910618626 4.075409668523172 3.527184277223317 0 0 1
575 1 2 0 9.377964820320383 3.0632731488468297 4.099377878414877 0 0 0
610 1 2 0 10.744278527536215 2.944169996436352 3.0973224061616795 0 0 0
609 1 2 0 10.821867638202281 3.5139372523349497 3.8036568032636175 0 0 0
1858 1 2 0 10.728411714234154 4.630172750376875 4.835747632065412 0 0 0
1683 1 2 0 12.54766036186035 2.3010512743354643 3.5456503399498485 0 0 0
2608 1 2 0 12.62798066434909 2.286853703440094 4.558503835161781 0 0 0
535 1 2 0 12.049765884470713 3.1873856839557857 3.897837334807108 0 0 0
534 1 2 0 12.615357172509299 3.6763018205360214 3.233880466739227 0 0 0
2114 1 2 0 13.499937946366252 4.424101232666538 2.9098838717275535 0 0 0
2607 1 2 0 13.146862452558539 3.0069913132103 4.182859240245614 0 0 0
2606 1 2 0 13.68449046630214 3.4592394393198993 3.456592408526759 0 0 0
1905 1 2 0 12.880455927528066 3.8558257401428646 4.693253455103832 0 0 0
2115 1 2 0 12.728892209823673 4.790797432355957 3.266732035887138 0 0 0
1904 1 2 0 13.331308373601956 4.309677129309653 4.003065508016213 0 0 0
1678 1 2 0 12.927468639751691 2.9245529010049673 5.3289652343255085 0 0 0
1680 1 2 0 13.716591797501383 1.8830910404955563 4.010491458195588 0 0 0
2069 1 2 0 15.819269255867463 1.38048879586197 3.5160193485783897 0 0 0
2070 1 2 0 15.08871747116176 1.9536063076547454 3.9246750571761173 0 0 0
1903 1 2 0 14.248197813741408 4.518496961642384 3.6073067842179727 0 0 0
401 1 2 0 14.849700290460536 3.299844296254647 2.4920338939637428 0 0 0
1917 1 3 0 14.222514109414773 4.173656115011381 4.491901928911759 0 0 0
2605 1 2 0 14.366506197645885 2.9460714195787054 3.8769722695198676 0 0 0
402 1 2 0 15.763532196305754 3.212025319794682 2.444253348717713 0 0 0
2604 1 2 0 15.111632792556883 3.5273493339570643 4.294878023966284 0 0 0
403 1 2 0 16.67510013558153 2.8539714599353743 2.587025657681774 0 0 0
921 1 3 0 15.235069397394719 4.606455307687893 3.387881598408071 0 0 0
1931 1 2 0 16.130648099808003 4.727236161301821 3.7883612346823554 0 0 0
1956 1 3 0 18.14680253688909 4.131736381385684 2.4293719696547496 0 0 0
1955 1 3 0 18.38133988823203 3.5945268870230627 1.7277222422463543 0 0 0
1767 1 2 0 17.566510435117163 3.6041907360073897 3.3930891661940312 -1 0 0
1768 1 2 0 17.915563478513373 3.1316389172104477 2.6073059023814507 -1 0 0
2743 1 2 0 16.78042179520766 3.1540297627864 4.316791064813433 0 0 0
1766 1 2 0 17.66378469061691 4.285125310447379 4.005521536184714 -1 0 0
1765 1 2 0 17.17430137889482 4.716221391357992 4.718454111925739 -1 0 0
1929 1 2 0 15.882478398508237 2.8642777166808826 3.8263009409807487 0 0 0
2744 1 2 0 17.52851699135432 3.6328887513931085 4.811663484657682 0 0 0
1928 1 2 0 15.918793788785758 2.36638620382669 4.632257964173633 0 0 0
1930 1 2 0 16.101889426465593 3.7924160495024117 3.8532360253475737 0 0 0
2160 1 2 0 1.2318578952481625 5.851072770872005 2.3449727694960996 1 0 0
2159 1 2 0 2.141045887734196 5.983474425860423 2.5397979441436855 1 0 0
2161 1 2 0 0.3824653910868369 5.346994407538755 2.577682295988886 1 0 0
1970 1 2 0 0.4742932246571677 5.312178464047792 4.491362450894467 0 0 0
1971 1 2 0 0.7592739409251543 6.055817717534397 3.974270243505099 0 0 0
1788 1 2 0 0.19620513493749295 6.294855656296439 2.071448952579587 0 0 0
2708 1 2 0 2.141814474937068 6.510006524223238 4.327882764652242 0 0 0
745 1 2 0 1.4631038660585642 5.053028413958743 4.428665578137926 0 0 0
2803 1 3 0 3.3600381751289787 5.695696808591463 2.0446012015804502 0 0 0
2792 1 2 0 3.139121399543006 6.393174607786428 3.509246762113003 0 0 0
2709 1 2 0 2.206068567256492 7.458310312105909 4.311311753962672 0 0 0
744 1 2 0 2.0238632212351666 5.5807239636465304 3.852197369762239 0 0 0
1811 1 2 0 3.3955876879770663 4.8660221156143155 3.7575030441330752 0 0 0
2797 1 3 0 4.380870597065971 5.164921257740077 2.487313105229405 0 0 0
2790 1 2 0 3.7536233910854344 5.537764125403146 3.102815721765158 0 0 0
2791 1 2 0 2.7791304740252345 5.520806674520524 3.183208367050282 0 0 0
846 1 3 0 3.3427075771605943 7.411502677886492 4.220770037142246 0 0 0
1827 1 3 0 2.984724118177108 5.854687391407905 4.493715117347126 0 0 0
1852 1 2 0 7.079143941032923 5.55708353479578 2.55049596573393 0 0 0
844 1 3 0 4.544318665536079 6.623588802847069 3.4963276111054706 0 0 0
843 1 3 0 5.262797801843334 6.692515484199557 2.7926134350849923 0 0 0
2789 1 2 0 4.644724788863048 5.588559863112838 3.4273693927163738 0 0 0
1626 1 2 0 5.410657811198725 4.999016989356478 3.030713367643569 0 0 0
2788 1 2 0 5.022499898849936 5.319107439205083 4.292378257489582 0 0 0
3034 1 3 0 6.386970881158009 6.6046602195418425 4.668583759864318 0 0 0
32 1 1 0 6.241212519847549 5.503586293597809 3.0357966382484856 0 0 0
586 1 2 0 6.468646393828718 5.57892905645658 4.020256118082527 0 0 0
1832 1 2 0 5.701355123274686 6.126600982958182 3.563346747532227 0 0 0
558 1 2 0 7.364759036423999 5.660599584285004 3.5259853843923548 0 0 0
3091 1 3 0 5.233855493155648 6.853287596695946 5.26417862924522 0 0 0
1833 1 2 0 5.143627075633539 6.442370939082184 4.271586175101874 0 0 0
557 1 2 0 6.840449901574086 6.485381872116396 3.2812983420312 0 0 0
1853 1 2 0 7.773638516739634 6.207963203447978 2.612110984353305 0 0 0
559 1 2 0 8.052220136278391 5.223083602692028 2.9156356280694564 0 0 0
1854 1 2 0 8.674212645220411 6.321714759782157 2.6360063996479868 0 0 0
585 1 2 0 6.998731363643821 4.855734685363778 4.460998231665704 0 0 0
2045 1 2 0 9.135676035087744 4.853029784446489 3.2215603862543856 0 0 0
2046 1 2 0 8.512666395923999 4.156459998263627 3.6126752807407314 0 0 0
1846 1 2 0 8.389337159255241 6.177478570297366 3.8511903904767797 0 0 0
1855 1 2 0 9.381680718978943 5.96682714296963 3.1990561164396416 0 0 0
1847 1 2 0 7.892366488931731 7.038268297547079 3.519118217299505 0 0 0
922 1 2 0 9.552930467715917 6.343166617953599 4.132102255988454 0 0 0
2043 1 2 0 10.39478697308514 6.028721744371998 2.5785300039078938 0 0 0
923 1 2 0 9.373448914003387 7.001332339747014 3.4225442168509805 0 0 0
1845 1 2 0 8.954647837226988 5.537992599921498 4.181144028309901 0 0 0
608 1 2 0 10.98030814340144 3.9641166245486192 3.0018517957167807 0 0 0
947 1 2 0 9.915371240083953 4.826408272656097 4.048460888065377 0 0 1
1856 1 2 0 10.247778868081662 5.6760097368099895 3.5479121137049674 0 0 0
2044 1 2 0 9.906251790459628 5.127156537084873 2.6660505371046934 0 0 0
13 1 1 0 10.118628505411484 5.6768921934177445 4.554314539043623 0 0 0
1857 1 2 0 10.916818327899128 5.16593139149254 4.059619599181971 0 0 0
897 1 2 0 10.868497567676005 6.263496014012381 4.400631247721547 0 0 0
2057 1 3 0 10.839383620537802 5.127918549417533 2.887492390944039 0 0 0
898 1 2 0 11.411292990081954 6.924120856692872 3.790159621673806 0 0 0
2058 1 3 0 11.30157847874299 6.004967133068903 3.0258521233128133 0 0 0
899 1 2 0 12.327683441165348 6.837966542406031 3.5907914882035086 0 0 0
2092 1 2 0 11.497370850093427 4.060544917548481 4.427780733719174 0 0 0
2042 1 2 0 10.43630721840691 6.6603763604309965 3.348814082005733 0 0 0
2090 1 2 0 11.95223821081123 4.308912882712995 2.6731929331472233 0 0 0
2091 1 2 0 11.794360447594565 4.415192681888219 3.5984514782333097 0 0 0
1936 1 2 0 13.841102694253513 5.282389252088489 2.562754604144774 0 0 0
2116 1 2 0 12.31173240475532 5.52584474747963 3.731375223941577 0 0 0
2138 1 2 0 13.291590074753229 6.406112279328993 2.8600337298337863 0 0 0
2139 1 2 0 13.235723782381204 6.377422697174384 3.8591484983058493 0 0 0
2117 1 2 0 12.013101576947284 6.060838428212326 4.568948386851749 0 0 0
1935 1 2 0 13.546366443141805 5.499575397678144 3.4416632535145535 0 0 0
2118 1 2 0 12.004744904926623 6.996824918096639 4.848277865055553 0 0 0
2093 1 2 0 12.123393495724873 4.747139275358246 4.573161104093477 0 0 0
2140 1 2 0 13.156150523413084 6.802735330156033 4.773126578576711 0 0 0
3163 1 2 0 14.612053385780769 7.132220676180608 2.616928287001065 0 0 0
1932 1 2 0 15.56897170251577 4.52728411821212 4.514088960212388 0 0 0
919 1 3 0 15.254815768547548 5.693458876144165 2.629137502530238 0 0 0
920 1 3 0 15.21836725122472 4.762888783031606 2.3602066858593966 0 0 0
1902 1 2 0 14.589311363611303 5.432871237852301 3.471613446759407 0 0 0
1901 1 2 0 14.269243661321267 6.345079635633947 3.1519736966760465 0 0 0
2076 1 2 0 14.464163735379161 6.280314315744427 4.384550267629004 0 0 0
2166 1 2 0 15.609499089508557 6.428831378901818 4.41855029590888 0 0 0
3164 1 2 0 15.207085914522338 6.760561529975712 3.281240941997629 0 0 0
3991 1 3 0 15.837472009553448 5.575128004697524 5.044583988211868 0 0 0
2165 1 2 0 15.6200104986987 5.694754741931537 3.8433605742005845 0 0 0
766 1 2 0 16.5340055735073 4.838264835061731 2.2977006290407367 0 0 0
2162 1 2 0 18.06829053615958 5.583243214421259 2.8816880272337166 0 0 0
2163 1 2 0 17.220572160083613 6.123830859488922 2.787680397290048 0 0 0
2164 1 2 0 16.305134177607336 5.884293485056658 3.2337975262985803 0 0 0
1764 1 2 0 17.66018852505962 5.533550926274304 4.766277233105111 -1 0 0
1961 1 3 0 17.496089701680813 5.22230215400649 3.6758544889882883 0 0 0
1960 1 3 0 17.618501605877768 6.146969348641588 3.9850448458666543 0 0 0
1945 1 2 0 16.047635830331206 6.617810986316836 2.423713249457594 0 0 0
1958 1 3 0 17.615116057776135 7.247011597943899 3.6867074366293133 0 0 0
1959 1 3 0 16.866723638557815 6.706905413814947 3.9419371801655 0 0 0
2156 1 2 0 2.0334339785916025 8.653777582094245 2.02341730309764 1 0 0
2157 1 2 0 2.0616953187568288 7.753046673816546 2.4484295791620827 1 0 0
1789 1 2 0 0.22092773525770112 6.609559729978787 2.9802918857774627 0 0 0
1790 1 2 0 0.3416972167358934 6.960205561372323 3.898419627147569 0 0 0
1974 1 2 0 1.1324288348088019 8.19695314541718 2.613229941310662 0 0 0
1973 1 2 0 1.1723952992636373 7.602842496546332 3.3573655788239862 0 0 0
1972 1 2 0 1.361873496393853 6.69614331592024 3.5356698634425867 0 0 0
2711 1 2 0 1.82873210221342 8.6239374128454 3.159820832392519 0 0 0
58 1 1 0 1.2530300992445498 9.325775371517645 2.902938540784521 0 0 0
2206 1 2 0 0.7471986969333198 9.011308545144878 4.049697685901665 1 0 0
2710 1 2 0 2.3773751978900792 7.921730026997778 3.4327453189939363 0 0 0
2363 1 2 0 2.1308063021853005 9.454850809349537 3.6085767737519574 0 0 0
2362 1 2 0 2.200988438187632 8.78817018176754 4.312841624245526 0 0 0
859 1 2 0 3.2922868679186355 8.948002649487963 1.8678000916635054 0 0 0
845 1 3 0 3.8694767597950057 6.546350970520698 4.128419586424527 0 0 0
2158 1 2 0 2.162222095694672 6.896169618195614 2.8237935347115464 1 0 0
2793 1 2 0 3.632601025672703 7.1225611848851225 3.1272149951685755 0 0 0
2794 1 2 0 3.9219974060167844 8.027435966424015 3.088316206479474 0 0 0
2795 1 2 0 4.487524850529171 7.611712363377642 3.658418172498757 0 0 0
860 1 2 0 2.8999658220399436 8.923069412896124 2.7439251642534632 0 0 0
2982 1 2 0 4.380992426398901 8.914479132147934 4.268274532864688 0 0 0
1988 1 2 0 5.249008134518089 9.58379422547966 3.7128417806619414 0 0 0
2361 1 2 0 3.0886462270450896 8.469008087511487 4.400330719725952 0 0 0
556 1 2 0 6.209982031424523 7.270092892258096 3.1021424147219823 0 0 0
2796 1 2 0 4.8875367388082465 8.421223714483613 3.4050074131565533 0 0 0
1834 1 2 0 5.473937626859718 7.1294553184030764 3.793818145921441 0 0 0
3057 1 2 0 6.350845922344501 8.517010689301753 4.0191617989050075 0 0 0
1989 1 2 0 5.28860874558751 9.136897649145292 2.8618420329242413 0 0 0
1848 1 2 0 7.1414972427927665 7.609098190302063 3.4230434506759124 0 0 0
59 1 1 0 5.317290887506632 8.496191855953967 4.334050350544462 0 0 0
1849 1 2 0 6.659552923712298 8.176457863274283 2.8753688004393263 0 0 0
3056 1 2 0 6.381872494118961 9.30886390650802 3.4584648417276593 0 0 0
1835 1 2 0 6.128133975626015 7.593957325686969 4.317205419234423 0 0 0
830 1 2 0 7.724984542798781 7.711892903205953 2.5375348165081486 0 0 0
2011 1 2 0 8.484612045172495 9.678423600212366 2.365262826625024 0 0 0
831 1 2 0 8.249637746549793 8.046600882089505 3.287793265563923 0 0 0
832 1 2 0 7.791827824257628 7.945209261104433 4.083749850863427 0 0 0
3072 1 2 0 9.305159737212165 8.668662148359017 4.2447840862977575 0 0 0
1850 1 2 0 7.2961243066147885 8.64505153173778 3.449845589601026 0 0 0
3073 1 2 0 8.456959505507058 8.49615312174481 4.583189997984908 0 0 0
924 1 2 0 9.319180857703142 7.991285510042218 3.3683342667552147 0 0 0
925 1 2 0 8.968712638937532 8.912912293933713 2.9800727641813687 0 0 0
2856 1 3 0 8.630687986393044 7.112766439681565 4.246272255455359 0 0 0
2855 1 3 0 8.851644536811426 6.6180214584939945 5.010390579319295 0 0 0
3083 1 3 0 10.056933886038562 7.852657940523151 2.6572797622201683 0 0 0
1690 1 2 0 11.138298547581645 7.379566450314513 2.8306152056168283 0 0 0
3082 1 3 0 10.531245162506329 8.290476385888981 3.3638992157241634 0 0 0
2041 1 2 0 10.314012763137113 7.40053570623171 4.002137082469603 0 0 0
2040 1 2 0 10.084285647015127 7.845437487512827 4.843691304792942 0 0 0
938 1 2 0 11.583506866948786 9.262303655611426 2.882418256679027 0 0 0
3071 1 2 0 9.981680865945677 9.018398761727909 3.627859670416927 0 0 0
2119 1 2 0 11.218878687256653 7.50607763283157 5.233383732275251 0 0 0
2039 1 2 0 10.450313205369142 8.70673674541914 4.623866754544161 0 0 0
1900 1 2 0 13.872328620531489 7.342536115847886 3.1725711667297465 0 0 0
3161 1 2 0 13.013855597961292 7.593605647408513 2.7415153327092954 0 0 0
3160 1 2 0 12.663334816509126 7.814440396682381 3.629932998221722 0 0 0
937 1 2 0 11.83272973252999 8.364611590153684 2.653978870135595 0 0 0
3288 1 2 0 11.94375286866581 8.686889455491412 3.698527010640834 0 0 0
3159 1 2 0 12.84004689335491 8.489456885156036 4.274759105288595 0 0 0
3287 1 2 0 11.36554248604307 8.07234178886406 4.11043142140417 0 0 0
1898 1 2 0 13.15559935881806 8.45853091604403 2.098325167328134 0 0 0
1899 1 2 0 13.890274080849391 8.13190764418681 2.6060347284004326 0 0 0
2084 1 3 0 13.644130528292129 9.137692765821328 3.011686381039697 0 0 0
2083 1 3 0 13.443834737299554 8.374327091202908 3.469188756089236 0 0 0
3289 1 2 0 12.614815481626065 8.797586796288634 3.0687077754190564 0 0 0
2082 1 3 0 13.675700853399707 7.825993371016689 4.1947666967567105 0 0 0
2080 1 2 0 15.267847713957803 8.895296262549696 2.5263413753114543 0 0 0
986 1 2 0 15.347152235025044 7.913482661645306 2.6932688201980355 0 0 0
3165 1 2 0 15.804477909706481 7.526438341717889 3.4211480901547238 0 0 0
2077 1 2 0 14.325293652434803 7.1710420081888575 4.184565691547934 0 0 0
2078 1 2 0 14.809518524765675 7.859170886393699 3.6634750127393017 0 0 0
2079 1 2 0 14.623395340156879 8.564487155730284 3.1066567248875407 0 0 0
985 1 2 0 15.733540247623267 8.570051086360833 3.342819159080084 0 0 0
984 1 2 0 15.222667807713542 9.376419863775936 3.738439236980416 0 0 0
2335 1 2 0 13.928819686327618 9.158215553933283 3.9745248363779355 0 0 0
4041 1 3 0 15.9837605791864 7.484686662268907 4.503388628634431 0 0 0
2207 1 2 0 0.403873916834705 8.700315097662 3.201854245450135 1 0 0
2227 1 3 0 18.500075950244657 7.881884054325479 3.2722882727394267 0 0 0
2208 1 2 0 0.0935373716785678 8.375022681272103 2.3203108720479433 1 0 0
1957 1 3 0 17.54409359201983 7.692088646051229 2.82774063910301 0 0 0
3166 1 2 0 16.62286574711463 8.014607989369999 3.770123911786076 0 0 0
66 1 1 0 16.76645611924929 8.632046330953962 3.0333068002157186 0 0 0
3337 1 2 0 17.510001242277266 8.682472572491315 3.643816008943475 0 0 0
2153 1 2 0 18.13520794214232 9.443879891173282 2.3252333801775427 0 0 0
3296 1 2 0 16.294268815710833 9.528716134582865 3.006568136133493 0 0 0
2228 1 3 0 0.011279523580622453 7.946870866256369 4.217959643647908 1 0 0
2338 1 2 0 16.51809995330402 8.880250875055701 4.1810436224577545 0 0 0
16 1 1 0 0.7312465635352983 11.228504116998755 2.1464307150717237 0 0 0
2938 1 2 0 1.9828152803419992 10.424611313348716 2.0119084090417747 1 0 0
2912 1 2 0 0.37358233882340147 9.693587697137128 3.176252974853077 0 0 0
2937 1 2 0 2.097667455534808 9.683398357235468 2.5288647785772707 1 0 0
2364 1 2 0 1.234698379566138 9.889694004085234 3.720039726433754 0 0 0
2365 1 2 0 0.4948836258794311 10.492996389490965 3.683774961661923 0 0 0
816 1 2 0 1.1559896109613388 10.571574145662911 2.82105870864644 0 0 0
2203 1 2 0 1.956331216528112 10.35256983985821 4.442347458001874 1 0 0
815 1 2 0 2.0327390884473036 10.436259353316549 3.1914522440775284 0 0 0
2366 1 2 0 0.02158837758576837 11.334662706641137 3.666748674844034 0 0 0
814 1 2 0 2.934477009878693 10.002430642622903 3.1508257805207127 0 0 0
2202 1 2 0 1.9036374477539464 11.277312901673298 4.112696012062801 1 0 0
2205 1 2 0 0.933717979122932 9.391008884677273 4.90922286033019 1 0 0
861 1 2 0 3.31602254548835 9.223419956587986 3.567217062278651 0 0 0
812 1 2 0 4.54194165627594 9.191545812159637 2.1122100646532505 0 0 0
813 1 2 0 3.6986683770392275 9.69268247100336 2.582298225952375 0 0 0
2273 1 2 0 3.551747922044956 10.800390191174014 3.5083977561966773 0 0 0
2274 1 2 0 3.2139934512166866 10.886754959937257 2.6012014950493465 0 0 0
2220 1 3 0 4.418113597328328 11.381894508823942 3.25653721516435 1 0 0
862 1 2 0 4.012633103756269 9.832030790342595 3.6742932270286905 0 0 0
2219 1 3 0 3.7406771909015104 12.026593034378324 3.251477354509158 1 0 0
2272 1 2 0 3.1152912429996786 10.248132969382983 4.189463022099053 0 0 0
2388 1 3 0 4.636946334755451 12.305362919720881 5.20496658212625 0 0 0
2962 1 2 0 5.838798951816896 9.248947353847901 4.516376662933706 0 0 0
2221 1 3 0 5.303834152347019 11.055888219403457 3.0888065378127467 1 0 0
1987 1 2 0 4.903777297267867 9.73762973001435 4.647176786816913 0 0 0
863 1 2 0 4.6426834041308505 10.603330820741792 3.8173742074423886 0 0 0
1040 1 3 0 4.512945884463116 10.28934817837399 2.8172084579036603 0 0 0
3055 1 2 0 6.297073971709854 9.567709868893038 2.507439987644339 0 0 0
1374 1 2 0 6.71463510425004 10.41969137934744 3.3225485185152146 0 0 0
1041 1 3 0 5.366375131607634 10.235162576024962 2.4313923775346256 0 0 0
1373 1 2 0 7.269911425152196 9.818539561175273 2.757828569710995 0 0 0
2963 1 2 0 6.752469379640145 9.52532302179772 4.535663901220302 0 0 0
864 1 2 0 5.458431127369561 10.769033840841177 4.268532280243084 0 0 0
1372 1 2 0 7.478235843367827 9.532377380375381 1.8576750815509833 0 0 0
1375 1 2 0 6.516945484810731 11.18686030986946 3.750675431965151 0 0 0
2254 1 2 0 6.799130103627868 11.30913411597901 2.674435837634449 0 0 0
866 1 2 0 7.342539531633125 10.358876423355365 4.134453647417912 0 0 0
2010 1 2 0 8.52197014418269 10.584292473296042 2.2800258069234682 0 0 0
1851 1 2 0 7.70922853380243 9.453059835574278 3.8052350392317966 0 0 0
2257 1 2 0 9.0497778404344 10.035195811302255 3.6630868810447406 0 0 0
2256 1 2 0 8.262505513058677 10.455163823933875 3.2705969845077183 0 0 0
37 1 1 0 8.270739594470632 10.069299618073128 4.380349699127459 0 0 0
2007 1 2 0 8.578620951381687 10.989097513226358 4.295076746051885 0 0 0
2255 1 2 0 7.490980645112457 11.071865882612542 3.3421717566982525 0 0 0
2008 1 2 0 9.1077300875587 11.254942338168089 3.5325476216574065 0 0 0
2009 1 2 0 9.317349325750776 10.58144107205376 2.7881775887741544 0 0 0
3051 1 2 0 8.280105100871596 12.202542410230052 3.224481542949007 0 0 0
3050 1 2 0 8.09633352103908 11.78660490534977 4.069448959245718 0 0 0
3111 1 2 0 11.20009136966715 10.787952419835992 2.23391331930004 0 0 0
3110 1 2 0 11.011943836119684 11.736260030403265 2.4779457230278235 0 0 0
3105 1 2 0 9.172624783436639 10.77255858827926 5.185898870956081 0 0 0
926 1 2 0 9.544424921880548 9.560864865866304 2.4910704485528976 0 0 0
2258 1 2 0 9.829290576450036 10.343135484142238 4.194075237122212 0 0 0
3070 1 2 0 10.89823320162719 9.402406174356031 3.882221393179134 0 0 0
940 1 2 0 10.364062018685292 10.735072980809745 2.9276915615149375 0 0 0
941 1 2 0 10.094138435779026 11.39409106739295 2.271405824383479 0 0 0
2259 1 2 0 10.62208077137617 10.918130038931764 4.2452897711251625 0 0 0
3106 1 2 0 9.637749572566538 11.30887622848221 4.529323787222272 0 0 0
3108 1 2 0 9.627778838404295 12.217231136200887 3.2887003947447955 0 0 0
2260 1 2 0 11.471518750019406 11.485671331461035 4.441569443133246 0 0 0
3069 1 2 0 11.369242607225345 9.270243831333808 4.697712201848146 0 0 0
2325 1 3 0 11.998247081019228 11.459731294109533 1.7031190773201004 0 0 0
2332 1 2 0 11.486975204214302 10.353984291458653 3.935041745667482 0 0 0
3112 1 2 0 12.115007204871336 10.666764440511843 2.3289378293112972 0 0 0
3290 1 2 0 12.678827885955258 9.58772234297592 2.5437640972145514 0 0 0
2324 1 3 0 12.362025249460132 11.649379991501279 2.5853788599269674 0 0 0
2331 1 2 0 11.437574305951284 11.209933118272275 3.4370051782987625 0 0 0
2333 1 2 0 12.168283740092823 9.676305439056312 4.055579578189675 0 0 0
2334 1 2 0 13.097858682517582 9.668672259692055 3.936272247532628 0 0 0
3114 1 2 0 12.608170814947144 10.72814011765703 4.030339277143726 0 0 0
3113 1 2 0 12.444654109438314 10.269998963862445 3.191273474473624 0 0 0
2085 1 3 0 13.514064004635395 10.06896507867834 3.004330522876484 0 0 0
2086 1 3 0 14.36308228516747 9.907515120303028 3.381463392557507 0 0 0
2150 1 2 0 13.283952358145966 11.055788374719668 2.366189124766474 0 0 0
1203 1 2 0 14.600145189361262 9.788746766263797 2.1746800582701993 0 0 0
1218 1 2 0 15.915902960617311 10.920899781337651 2.5359883376235417 0 0 0
983 1 2 0 14.93390387990619 10.183274217165883 4.223930517365215 0 0 0
2149 1 2 0 14.002236995436444 11.155935529856487 3.0112646430345062 0 0 0
982 1 2 0 14.619063508935419 11.033207240433482 3.9099725483780365 0 0 0
2148 1 2 0 14.797649381202577 10.685810845353924 2.871639426195513 0 0 0
2147 1 2 0 15.606521491605239 10.438949624743156 3.4549131904904073 0 0 0
981 1 2 0 14.542893977985454 11.912470561501936 3.56065610845211 0 0 0
1219 1 2 0 16.10095985367459 11.641085425744913 3.210821377665679 0 0 0
2194 1 2 0 17.193262993708725 11.11853147754252 2.1586120961463062 -1 0 0
1092 1 2 0 0.06484457280091505 10.814676289452425 2.683288809343765 0 0 1
2339 1 2 0 17.184113699119816 9.54408767912084 4.15470970425295 0 0 0
3295 1 2 0 15.851059624442502 9.898890551669481 2.2768566141031177 0 0 0
2913 1 2 0 18.300051640029206 9.534352686918066 3.937832267200598 -1 0 0
2193 1 2 0 16.822210479421116 10.46485638954745 2.813767143136124 -1 0 0
2192 1 2 0 16.77439504695909 10.539634898788236 3.772184443219243 -1 0 0
2340 1 2 0 17.334899421906055 9.628495799776028 3.234987531761014 0 0 0
2341 1 2 0 17.904229092303343 10.333936943346675 3.4947134281320005 0 0 0
2342 1 2 0 17.558702446253335 11.194127775580714 3.107498256903322 0 0 0
2914 1 2 0 18.077308415450272 9.71481206575213 4.792808622369129 -1 0 0
2940 1 2 0 1.5148259138542064 11.472648597127257 3.0602927651281053 1 0 0
2942 1 2 0 0.8971101082622036 11.672550073145073 4.695730543648532 1 0 0
2941 1 2 0 1.0097653881429987 11.780121265991484 3.7903445941252327 1 0 0
2348 1 2 0 0.35033547239396806 12.746169458151583 3.7770658320100177 0 0 0
2200 1 2 0 1.3415107729291194 12.840665315229579 3.3834496300568655 1 0 0
2201 1 2 0 1.9042084670986872 12.263115730423953 3.889609562498415 1 0 0
2652 1 2 0 1.0303533945559051 12.285072116054915 2.531526916995976 1 0 0
2367 1 2 0 1.3797423844357657 13.828857882352855 3.987253243055981 0 0 0
2368 1 2 0 2.0030963943398405 13.2366361892758 4.531253590990195 0 0 0
2654 1 2 0 2.3801494772079472 13.002818375813133 3.037417915249565 1 0 0
2199 1 2 0 0.8707693186358121 13.619483153472425 2.9875371474160213 1 0 0
2349 1 2 0 1.0907532607749748 12.723145952332512 4.462148301538774 0 0 0
2218 1 3 0 2.9551524820299813 12.116777071588803 2.749824049475137 1 0 0
2217 1 3 0 2.662253608499282 11.447185515278212 3.5347678341787137 1 0 0
2184 1 2 0 3.4703905166812254 13.046682051590906 3.1238999900313646 0 0 0
2183 1 2 0 4.131926701431934 13.439803871845847 2.5281538667346872 0 0 0
2185 1 2 0 2.9443436301264363 12.529330862155506 3.771309705519089 0 0 0
1127 1 2 0 3.008346016760343 13.99094386292766 2.758736600604641 0 0 0
2369 1 2 0 2.9831331519715816 13.128768508901477 4.600733046964946 0 0 0
2371 1 2 0 4.625463863730132 12.451833070041125 3.9072535797635957 0 0 0
1385 1 2 0 4.63599908522581 13.517384065343114 3.6526069161636605 0 0 0
46 1 1 0 3.3922162202687343 14.057185137388666 3.8836315072958225 0 0 0
2655 1 2 0 2.4367932201106077 13.642457395322392 3.802012030667033 1 0 0
2186 1 2 0 3.164111189260204 12.008040728400271 4.545974327223847 0 0 0
2370 1 2 0 3.868682496363414 12.907574595950937 4.215772471795956 0 0 0
2373 1 2 0 5.818447830635486 12.377659505950902 2.6140281852076592 0 0 0
2279 1 2 0 5.076810566002726 13.231052787313812 2.70710951400276 0 0 0
1394 1 3 0 6.686623599990531 12.368736297513324 3.136878523948625 0 0 0
2372 1 2 0 4.968423106559492 12.289333630604236 3.0614867137369193 0 0 0
2280 1 2 0 5.750881652542264 13.475041616688289 3.34129104213283 0 0 0
1393 1 3 0 6.09093780334972 12.47881132112787 3.858237787013427 0 0 0
2317 1 2 0 6.7979322064162435 14.350331954559062 4.965028225170782 0 0 0
2387 1 3 0 4.552130690776261 11.697406904227808 4.441913437408223 0 0 0
1376 1 2 0 6.908562363007051 11.980147301504669 4.223284618179768 0 0 0
1392 1 3 0 5.429291525347627 12.632655013475974 4.634281526361532 0 0 0
1384 1 2 0 4.775095603060064 13.306508483848429 4.568537217035828 0 0 0
1549 1 3 0 5.747274465442488 13.975476665880038 4.237628548818924 0 0 0
1395 1 3 0 7.530657592701439 12.529951132517983 2.732593520585728 0 0 0
2033 1 3 0 9.026919657775146 12.410623238190166 2.3613599070539637 0 0 0
2282 1 2 0 7.65826271463775 13.461270819316939 3.41658965091124 0 0 0
2283 1 2 0 8.50678595197844 13.203051627270387 3.802516811702346 0 0 0
1396 1 3 0 8.278713398013988 13.1618405740013 2.678338453576424 0 0 0
2281 1 2 0 6.662029981211402 13.473887124785916 3.3072822477449693 0 0 0
2284 1 2 0 8.568530357228855 12.744738162600946 4.586209422231599 0 0 0
1387 1 3 0 8.241382384126196 14.108113874507223 5.031301671604622 0 0 0
2329 1 2 0 11.70828872330962 12.54763074721445 2.560338594683765 0 0 0
1142 1 2 0 10.065846237533156 13.147175014556947 2.7083429561758234 0 0 0
1428 1 2 0 9.898583677739145 14.509114929603605 2.7306970023045847 0 0 0
3107 1 2 0 9.327316273851283 12.131951600241928 4.1995771113857945 0 0 0
3109 1 2 0 10.468214365141474 11.719866677876595 3.236958926248604 0 0 0
1143 1 2 0 9.37415113206355 13.56094344298936 3.2617918276339184 0 0 0
1431 1 2 0 10.622419107773112 13.861847774186224 4.552757029758511 0 0 0
1430 1 2 0 10.88238059579115 14.116841142346875 3.625650908404882 0 0 0
3330 1 3 0 10.584262270066876 13.140227362144962 3.5637976366878914 0 0 0
3331 1 3 0 9.82644698149609 13.020905212166154 4.209449593100126 0 0 0
1429 1 2 0 10.80251674470541 14.040298872141495 2.680216136257465 0 0 0
1144 1 2 0 9.86954103224217 14.12283729458069 3.8080809042645893 0 0 0
3329 1 3 0 10.721263340425661 12.406672717954594 4.118273563572543 0 0 0
2328 1 2 0 12.599797309547421 12.67269732517648 2.2568836745808327 0 0 0
2420 1 3 0 13.650264905213028 13.234228863514806 2.4487993820805007 0 0 0
2330 1 2 0 11.468026484980808 12.172609613222404 3.4208601732830783 0 0 0
2323 1 3 0 12.822526951958935 11.517295641550923 3.409300866310558 0 0 0
2305 1 2 0 12.052983935544972 13.73696573025036 3.605628315886889 0 0 0
2322 1 3 0 12.429737631320624 12.034967568981651 4.059968398550582 0 0 0
2304 1 2 0 12.562867595004692 12.932499284623653 3.7544128531411247 0 0 0
2303 1 2 0 13.40967981497066 12.547865233089144 4.0160004000947875 0 0 0
2419 1 3 0 13.578923102641976 13.823380033350182 3.2383431374705025 0 0 0
2421 1 3 0 13.391377526437328 12.41171551127385 2.925793736971702 0 0 0
3452 1 3 0 14.883993984417222 12.785450384439208 4.227688850949907 0 0 0
980 1 2 0 14.995799262006237 11.73591875943872 2.6837717889725585 0 0 0
3453 1 3 0 14.207334896549744 12.946498634524444 3.5963012973376878 0 0 0
3454 1 3 0 14.728535390366732 12.864666251267055 2.7609968550780724 0 0 0
1221 1 2 0 16.249638748071128 13.442548712390765 3.145319775831577 0 0 0
428 1 2 0 14.603687635776089 13.78416377808388 2.3060007569154473 0 -1 0
3455 1 3 0 15.569675516709541 12.650611228368296 2.4568765339697434 0 0 0
1220 1 2 0 15.932808193529333 12.593830747323134 3.4483625158617017 0 0 0
2935 1 3 0 16.782221736089024 11.61561051500426 3.969479094172786 0 0 0
2936 1 3 0 15.994591714074517 11.413187295792607 4.464300272036457 0 0 0
1724 1 2 0 17.697875375638798 13.065058672416534 2.1512021048472527 0 -1 0
2347 1 2 0 18.54851050776044 13.01316802691151 2.8907512528174544 -1 0 0
2648 1 2 0 16.654981789117357 13.293354401376508 4.153730497175237 0 0 0
2651 1 2 0 0.18699892375801389 11.993905414908259 2.826310691529956 1 0 0
2650 1 2 0 18.029765024403225 12.249717278987882 3.3485002557132075 0 0 0
3456 1 3 0 16.57988826223583 12.782422674493052 2.3459506635905663 0 0 0
2343 1 2 0 17.13940219580677 11.916332977515934 2.6973070946829876 0 0 0
2649 1 2 0 17.266732165783015 12.797082838696776 3.5936305023986472 0 0 0
3393 1 2 0 17.911336755005568 13.560370590119653 3.872055453712115 -1 0 0
2934 1 3 0 17.235976884429203 12.267653403730641 4.5580836514800085 0 0 0
2383 1 2 0 1.0943002687556753 14.68876163063923 2.4949526597059664 0 0 0
2384 1 2 0 0.8032348888444626 14.87772030690336 3.3717825882901096 0 0 0
1601 1 2 0 2.0256534560785653 15.209074076454883 2.9194743823069076 0 0 0
45 1 1 0 1.8192664822572855 14.254235790963731 3.229979677750855 0 0 0
1600 1 2 0 1.483023499721659 15.692413878311326 3.5676866990372256 0 0 0
2656 1 2 0 2.319714543725209 14.2857276703028 4.464816574436572 1 0 0
2198 1 2 0 0.1478073022932955 14.119807870221301 2.6252864869550905 1 0 0
142 1 3 0 1.207867702765919 15.843464490249925 2.3112377279721494 1 -1 0
143 1 3 0 0.5761606835281492 16.199101320011124 2.9588297057074855 1 -1 0
2385 1 2 0 0.10976544564888836 14.223409560417497 3.647718639087244 0 0 0
2657 1 2 0 1.5898712939525406 14.820213490415378 4.201550830132189 1 0 0
1386 1 2 0 4.150865847597497 14.34835735754174 3.389666260965327 0 0 0
1128 1 2 0 2.7401374719142613 14.714672486690414 3.337050548393144 0 0 0
1527 1 2 0 4.145413453190038 15.752903341845785 2.126015176091902 0 -1 0
26 1 1 0 3.1865717350239637 16.019588406854492 2.232890728855459 0 -1 0
241 1 2 0 3.368797195203901 15.00347188262652 2.261394638895781 0 -1 0
1582 1 2 0 3.1918052505189682 15.592382228815879 3.137137453031248 0 0 0
1129 1 2 0 3.020407071382282 15.167538801325737 4.180968935234214 0 0 0
1130 1 2 0 3.8988971527272094 14.956816252553098 4.188932835180218 0 0 0
1583 1 2 0 2.4715419608922424 15.86116848996394 3.687914320004431 0 0 0
1137 1 3 0 4.023307684684323 15.88158534104741 4.064122891407268 0 0 0
1587 1 2 0 4.024205137587435 14.067543596587882 4.745239435756186 0 0 0
1528 1 2 0 4.2462726248443925 15.503033817104987 3.0603332275939557 0 -1 0
1588 1 2 0 4.811432327689233 14.341230550797231 4.213522318014384 0 0 0
1529 1 2 0 5.008310529295386 15.859203221236282 3.4899352770403445 0 -1 0
1589 1 2 0 5.272346178724053 14.764233637492879 3.449875280134763 0 0 0
1547 1 3 0 4.962858195143186 15.312134428920837 4.289651702619693 0 0 0
2247 1 2 0 6.604746895818994 14.230701503070497 2.344810912640737 0 0 0
2316 1 2 0 6.6077804992467595 14.695182702223951 4.1190396276509205 0 0 0
1548 1 3 0 5.692185412230819 14.801339242062285 4.705633884764503 0 0 0
2245 1 2 0 6.065686143462006 15.663406383831452 3.527751514311102 0 0 0
2244 1 2 0 6.257089407046558 15.623017226848658 4.443881504372946 0 0 0
2314 1 2 0 7.73708178056564 14.270371482324435 2.607740502541134 0 0 0
2416 1 3 0 9.385703367683842 14.796141138234196 4.83150757263656 0 0 0
2315 1 2 0 7.181667435563193 14.394432853992999 3.4037087105450365 0 0 0
1391 1 3 0 8.674897920461646 14.405309265738138 4.111070699505668 0 0 0
1701 1 2 0 8.15598677016446 15.12439229855283 3.4011663682090423 0 0 0
1700 1 2 0 8.151924236188615 16.07186596874924 3.665435110016709 0 0 0
1379 1 2 0 7.609126391941368 14.618097529941858 4.454190435555658 0 0 0
1651 1 3 0 7.186004107965769 15.44216672425088 3.9507124927890267 0 -1 0
1650 1 3 0 7.2542938651525954 16.387017866372254 3.941402343491111 0 -1 0
1390 1 3 0 8.569717724418593 15.324509800855946 4.326453273731273 0 0 0
1380 1 2 0 7.146580658113127 15.33936805295663 4.97334615398905 0 0 0
1699 1 2 0 8.938861344943076 16.366106393170785 4.123282474133296 0 0 0
1706 1 2 0 11.324468006764798 14.904877927081348 2.4053908127305377 0 0 0
1146 1 2 0 9.68173026336053 15.751545939802954 3.1866036818837236 0 0 0
2415 1 3 0 9.80224121305007 15.49917885946682 4.281464611222695 0 0 0
1145 1 2 0 9.442286094543196 14.96096382746999 3.6382611784557533 0 0 0
301 1 2 0 10.722600981814834 15.472700000603258 3.296731842621016 0 -1 0
1698 1 2 0 9.521173579066534 16.68462873782368 4.789592413212984 0 0 0
300 1 2 0 10.345824822772407 16.237642255235215 3.6622970458574726 0 -1 0
2306 1 2 0 11.775551155851279 13.771959850031367 2.6638446816386834 0 0 0
1309 1 3 0 12.656893640121755 14.0548069071832 2.059273622235199 0 0 0
2418 1 3 0 13.064510124145661 13.87089126183972 4.058688646133445 0 0 0
1707 1 2 0 11.658725299010834 15.815154048308484 2.4237421333318165 0 0 0
2575 1 2 0 11.765782817216767 14.357758021056913 4.4192191805185805 0 0 0
2574 1 2 0 11.725802733557178 14.8217255197177 3.6332342699950506 0 0 0
2417 1 3 0 12.696736437026319 14.750568260582055 3.894503341392631 0 0 0
2399 1 2 0 12.953916868583306 15.676294338151477 3.925675635465083 0 0 0
1311 1 3 0 12.753917490992274 15.611812012927492 2.7508105174214452 0 0 0
2647 1 2 0 16.210088614065267 13.995808678793315 4.650819187819468 0 0 0
2435 1 2 0 13.591027901316604 14.9518351093112 3.3183130057290993 0 0 0
24 1 1 0 16.002482832975733 14.04921325218129 2.4661960944293644 0 0 0
429 1 2 0 15.104130961037365 13.770233435865276 3.146146412255451 0 -1 0
1416 1 2 0 15.431994719184837 14.842690589557387 2.4730274146202476 0 0 0
2434 1 2 0 13.998835997317906 14.697256331629015 2.481893955002509 0 0 0
430 1 2 0 14.52623667422007 14.323677842444704 3.6727539664906907 0 -1 0
431 1 2 0 14.787421043701146 15.120552936142351 3.30808175898304 0 -1 0
442 1 3 0 15.684899527142704 14.443003511253366 3.5039647938214773 0 -1 0
2646 1 2 0 15.313155093366829 14.421492058513733 4.646450542715407 0 0 0
2645 1 2 0 14.851768703926826 15.258919941858784 4.385549399390521 0 0 0
3396 1 2 0 16.588749222176734 15.103911097531567 4.338764601933415 -1 0 0
1502 1 3 0 14.161368574022738 16.030203594260197 2.6328983120010223 0 -1 0
1306 1 2 0 17.00101778234131 13.916426708579003 2.151134868797696 0 0 0
456 1 3 0 17.167493297727194 15.957973582721408 2.393063634733928 0 -1 0
443 1 3 0 16.361318541936303 14.974626876710664 3.0072795803532695 0 -1 0
1725 1 2 0 17.504159649217204 13.558489956554775 2.923973563849868 0 -1 0
3394 1 2 0 17.667174011713467 14.571287816777687 3.9877182195568888 -1 0 0
1726 1 2 0 17.396985851920704 14.557141043406798 3.0195715844577125 0 -1 0
3395 1 2 0 16.773061680752424 14.292123532523714 3.8151388271084614 -1 0 0
146 1 3 0 0.01810562366709334 15.21560052695114 2.714087540905533 1 -1 0
1727 1 2 0 17.19493216673868 15.551690990151329 3.4009155176125843 0 -1 0
145 1 3 0 18.38120425849742 15.76920117499644 3.5158346487774654 0 -1 0
144 1 3 0 18.237447029196957 16.300467605333168 2.7247456015489004 0 -1 0
1 1 1 0 1.702073642610926 17.031495522391108 2.385359256235568 0 -1 0
158 1 2 0 0.21578691488469748 17.752070025133534 2.8448204944606843 1 -1 0
1747 1 2 0 1.348942889138963 17.35328786093691 4.191718133511063 0 -1 0
157 1 2 0 0.9551373793085397 17.19805819531452 3.0235830904179912 1 -1 0
1520 1 2 0 1.5590044797794955 18.197787100472418 2.5566966526329344 0 0 0
1599 1 2 0 1.6298248823780983 16.666973762127807 3.533126132139287 0 0 0
1519 1 2 0 1.756114139905148 18.497089223890377 3.5211544451954166 0 0 0
1748 1 2 0 0.804358317503482 18.006563122661714 3.767957616674619 0 -1 0
122 1 2 0 2.0303043304388715 16.18108746784328 2.6207329945158446 0 -1 0
688 1 2 0 17.810292443858923 17.692983626341768 3.3751622391748963 0 -1 0
1746 1 2 0 2.0911496961599885 16.96498818143218 4.568105888779059 0 -1 0
1518 1 2 0 1.7347520028812338 0.11794645640514098 4.540068315827308 0 1 0
149 1 3 0 2.4660815280846284 18.12049586621208 4.0672496387243795 1 -1 0
1559 1 2 0 2.5268258346289256 0.037463996181453955 2.422556961927346 0 0 0
1508 1 2 0 3.633000746491965 17.294637134745372 2.3168517428326765 0 0 0
1598 1 2 0 2.0735313622060723 17.557746666248427 3.265318706791773 0 0 0
148 1 3 0 3.3439876649488727 17.66034829214077 3.8894636226042087 1 -1 0
123 1 2 0 2.790174804110295 16.593285139933897 2.9973147070886785 0 -1 0
124 1 2 0 3.7467818094389194 16.53688992944171 3.0651721816556736 0 -1 0
1597 1 2 0 2.9522213579688676 17.71487525955908 2.915069531322875 0 0 0
1509 1 2 0 4.254714992528595 17.48877141027896 3.0695620021685843 0 0 0
147 1 3 0 2.9837849530315097 16.79359859869859 3.9506522330664855 1 -1 0
1138 1 3 0 3.453358169314558 16.255132972961775 4.727561635870203 0 0 0
125 1 2 0 4.712253457689782 16.50730593337081 2.742788618938033 0 -1 0
1139 1 3 0 3.9389475660507713 17.11537240407723 4.539839823634654 0 0 0
1575 1 2 0 5.379793399048793 0.06929174093421475 3.5648638450710175 0 0 0
2246 1 2 0 6.447028949053853 15.088233188269854 2.8486358349190337 0 0 0
1530 1 2 0 5.568120405140645 16.598586455423533 3.6993876252097775 0 -1 0
1574 1 2 0 5.451169171439333 18.473383265836187 4.514822142152578 0 -1 0
1533 1 2 0 5.721289761589261 17.680337120677397 3.873342719782132 0 -1 0
1510 1 2 0 4.574334181842498 16.90155131839777 3.7779959538028955 0 0 0
206 1 2 0 6.468371494977168 17.80858676632488 2.6788727512654162 0 -1 0
126 1 2 0 5.62796283310042 16.542613459963324 2.597156296623725 0 -1 0
1532 1 2 0 6.4531444720029905 17.121306755328423 3.792217606964974 0 -1 0
1531 1 2 0 6.1100465910394774 16.660809624516894 4.569403561576752 0 -1 0
294 1 2 0 6.624807154588082 0.2715926545842659 4.603107760907687 0 0 0
1534 1 2 0 6.444491520888303 18.31999598307226 3.6663976190832 0 -1 0
1628 1 2 0 8.389515680488918 18.424217762369825 3.634665461756914 0 -1 0
295 1 2 0 7.530698314032498 0.21020385697293828 4.951981395662279 0 0 0
296 1 2 0 7.466106297395215 17.996556047978487 4.377004042460238 0 -1 0
1627 1 2 0 8.278459842924923 18.182677771179254 2.6611964760871607 0 -1 0
205 1 2 0 7.307044959498398 17.980427918918952 3.07510091350447 0 -1 0
1629 1 2 0 8.518690290943232 18.351292271223553 4.59103261409891 0 -1 0
2265 1 3 0 7.60637496840179 15.834483478164778 2.73265224935828 0 0 0
284 1 3 0 8.86438606130865 17.24082247751685 3.1600511832208205 0 0 1
297 1 2 0 8.146142888453134 17.393560989717383 4.16224125802862 0 -1 0
298 1 2 0 9.122081599080186 17.534132354779416 4.206407541970922 0 -1 0
283 1 3 0 9.570082145016116 17.7283813011411 2.505871629742247 0 0 1
282 1 3 0 9.325622836633878 18.31393622297526 3.217019179461415 0 0 1
299 1 2 0 9.747068963940869 16.997855006758122 3.710595935841136 0 -1 0
390 1 2 0 10.579415517504666 17.695110649764754 3.52701971825085 0 -1 0
389 1 2 0 10.91718382522843 17.50226046404831 2.6574537128702653 0 -1 0
1709 1 2 0 11.343274932627475 16.918927891914212 3.6984009444801895 0 0 0
1710 1 2 0 11.632104385526572 17.526858027523676 4.359089380306205 0 0 0
1711 1 2 0 10.939132510288156 18.20961200415979 4.385836683612689 0 0 0
391 1 2 0 10.624386680940958 17.164385849165612 4.39901076462859 0 -1 0
2517 1 2 0 11.435296494910519 16.374447080799694 4.550245317796435 0 -1 0
1697 1 2 0 9.902975164081745 17.507919183904306 5.082893952258025 0 0 0
2403 1 2 0 12.76966424904149 18.179880393650333 1.909309807631087 0 0 0
361 1 2 0 14.064578426076137 16.691347277328934 1.678585730581816 0 -1 0
2573 1 2 0 11.731531596886194 15.793699290053851 3.4550466387633043 0 0 0
2402 1 2 0 12.984779668940108 17.579404105306313 2.64608247470546 0 0 0
2516 1 2 0 12.309323334208212 16.63960456627934 4.206219336351749 0 -1 0
2572 1 2 0 12.27482757751716 16.628081800446314 3.2467259702676565 0 0 0
2571 1 2 0 11.971542967340385 17.56062749956564 3.1123614181432386 0 0 0
2400 1 2 0 13.308820513204664 16.442396494904937 3.527378932809925 0 0 0
2401 1 2 0 13.671237635059562 17.32634453282119 3.2657995875824155 0 0 0
1893 1 2 0 13.674626478841308 18.422733464927337 3.946217079072149 0 -1 0
2515 1 2 0 13.02435388341224 17.36226444111434 4.236666982245821 0 -1 0
1493 1 2 0 13.909811184837864 18.312622694522744 2.911427235986258 0 -1 0
1504 1 3 0 15.163171191086727 16.53478344228144 4.197217282149757 0 -1 0
1492 1 2 0 14.439531806366682 17.56097374211184 2.6153949983433717 0 -1 0
1491 1 2 0 14.796716272680277 16.690050495327988 2.43656380052328 0 -1 0
1657 1 2 0 14.632280088737367 17.432907648875137 3.790351755467809 0 -1 0
434 1 2 0 15.899148439301603 17.4384709235984 4.00259625320287 0 -1 0
432 1 2 0 15.52400054986546 15.727529558724825 3.389552660160128 0 -1 0
1658 1 2 0 15.285676310183447 17.427297883120822 3.0883148818103763 0 -1 0
1659 1 2 0 16.006879389689395 17.66609094368923 2.5506928708390446 0 -1 0
433 1 2 0 15.9427971060578 16.613197580641582 3.3720000321476102 0 -1 0
1503 1 3 0 14.627132256976607 16.227050887414013 3.444412119868173 0 -1 0
1656 1 2 0 14.13428530862418 17.26084936068942 4.63176502635839 0 -1 0
455 1 3 0 16.731431522277138 16.780783366373093 2.361044072854731 0 -1 0
3397 1 2 0 16.085743203841396 15.91976656124704 4.33261241045474 -1 0 0
159 1 2 0 18.139462045577044 18.447584127630222 2.5081499922087667 0 -1 0
1728 1 2 0 17.359557211859855 16.583437987948912 3.4254938859089865 0 -1 0
1730 1 2 0 16.61684150606467 18.196973315731835 3.172981680746297 0 -1 0
687 1 2 0 17.402650212198967 17.58299248254799 2.5539463969292457 0 -1 0
1729 1 2 0 16.71231489816712 17.281811380639965 3.3888860061677986 0 -1 0
689 1 2 0 18.042615362789594 18.11387432361294 4.1553901426679785 0 -1 0
467 1 2 0 17.282999114153103 0.35720937617118453 3.9705490348618415 -1 0 0
1565 1 2 0 1.6343049267654595 1.2803084922469574 6.0600270348627 0 0 0
3515 1 2 0 0.9631411484992699 0.7342067356969048 5.181046206591014 0 0 0
1566 1 2 0 2.206947039577011 0.5463350281023941 6.106515859515493 0 0 0
1772 1 2 0 1.6258521082957837 1.5611531655419768 4.408356865870639 0 0 0
3514 1 2 0 0.11159707470173756 1.2092689624274735 5.396515961010649 0 0 0
3513 1 2 0 18.10625863647942 1.4850976816050594 6.101999013301843 -1 0 0
1564 1 2 0 1.1933858754049211 1.7815709080154083 5.360828542475282 0 0 0
1740 1 2 0 2.070743189890808 2.4877882030834875 6.581400470198804 0 0 0
2693 1 2 0 0.033609899372146985 2.4309552506254724 4.337061000277623 0 0 0
2729 1 2 0 0.011304126572543538 0.1664087900833378 7.235068204892342 0 0 0
3516 1 2 0 1.9133683168660451 0.8616502523060424 5.194450975310598 0 0 0
2673 1 2 0 3.560016579499732 1.9001317838102847 4.319395034530751 0 0 0
3517 1 2 0 2.8027555311681045 0.6201797520627265 4.741475064957057 0 0 0
1741 1 2 0 2.6058416051744335 1.93318956289445 6.032900122669146 0 0 0
3518 1 2 0 3.8375782427091263 0.6252318407601175 4.60710061432627 0 0 0
1773 1 2 0 2.4306861859602757 1.9106880798847656 4.762627126021891 0 0 0
1742 1 2 0 3.14757314580873 1.2347215274911805 5.647597926750236 0 0 0
1477 1 3 0 3.94685642697341 2.931057255865538 6.364925909497205 1 1 0
2674 1 2 0 4.334029060162718 1.849539045631878 5.017180797462378 0 0 0
2478 1 2 0 4.178830041814712 0.7203956392696903 5.753094870577737 0 0 0
1743 1 2 0 3.2014305309126554 0.2529361951575646 5.6957675494790365 0 0 0
1567 1 2 0 2.6939761999262823 18.515157583965998 6.699987189315149 0 -1 0
1568 1 2 0 3.6968317181131702 18.503738303802017 6.96547132016759 0 -1 0
2479 1 2 0 4.82078854762793 1.005993475212894 6.4312643616500305 0 0 0
2481 1 2 0 6.459754835310212 1.6857529962994946 6.9220622442217286 0 0 0
2675 1 2 0 5.095002434649491 1.7255461324597787 5.615383361600707 0 0 0
1617 1 2 0 6.450694357466193 1.751382840609089 5.212320211191879 0 0 0
3520 1 2 0 5.632544649195396 0.7241217765100271 5.489382468556334 0 0 0
2676 1 2 0 5.967365655548837 1.9332054078515444 6.059883791214159 0 0 0
2482 1 2 0 7.148003330469785 1.982778357378038 6.317282856254195 0 0 0
3521 1 2 0 5.442224110826509 0.05241018132465133 6.094209241768324 0 0 0
541 1 2 0 8.68817509133944 1.5609009863483572 4.663615428314474 0 0 0
1616 1 2 0 6.678900142005821 1.034948038124387 5.847305698459445 0 0 0
2483 1 2 0 8.060612257172405 2.3534727569370237 6.380253313241279 0 0 0
1615 1 2 0 7.601943059361484 1.2917688164928687 5.451652286668166 0 0 0
1614 1 2 0 8.498141034139785 1.278221783884662 5.79558835532303 0 0 0
1632 1 2 0 8.554722036354908 0.581510155611436 6.77582017240532 0 0 0
579 1 2 0 8.632785332277807 1.5945866624416198 6.970292413940784 0 0 0
2461 1 2 0 9.531077055465355 0.8823920827611559 6.94955244198366 0 0 0
581 1 2 0 7.284895864272371 2.7313600025619853 7.109501791292873 0 0 0
580 1 2 0 7.7827127039187545 1.9689957573993886 7.243046044067333 0 0 0
1674 1 2 0 11.560113090320094 0.4692064232445439 5.054489898753168 0 0 0
578 1 2 0 9.38030666615683 1.9410045337892117 6.491455006144604 0 0 0
577 1 2 0 9.069570393737568 2.517277024682771 5.824934320170958 0 0 0
1613 1 2 0 9.396198612324984 1.4310503510981891 5.403152752154211 0 0 0
1612 1 2 0 10.21195067020829 1.8885365442980087 5.096985026571899 0 0 0
1675 1 2 0 11.020956501431884 1.1680473358491934 5.463802314511874 0 0 0
2584 1 3 0 10.817029455399446 1.7068244853126635 6.411092315799648 0 1 0
2583 1 3 0 10.883686598677626 1.9919002653277766 7.351185504643812 0 1 0
2586 1 3 0 10.696320600984967 0.5002627639484777 6.606540805286537 0 1 0
2610 1 2 0 12.316244276570028 0.9913283742781308 5.527164147498322 0 0 0
2611 1 2 0 12.348195327766755 1.055061760993401 6.455935278034704 0 0 0
1735 1 2 0 13.223880624611127 0.3994309743153955 4.700202244949344 0 0 0
2567 1 2 0 13.1569097375278 1.3686721894734315 4.741014366234359 0 1 0
2857 1 2 0 13.356558130595085 0.7086524528828483 7.220670951066525 0 0 0
2592 1 2 0 12.82087350036523 0.12791628002329075 6.012623466906584 0 0 0
57 1 1 0 12.47531605213676 0.3769351991054205 7.11720779473774 0 0 0
2593 1 2 0 13.312592941734865 0.9987160010390825 6.24320531836205 0 0 0
2565 1 2 0 12.864572946020965 2.078953716489939 6.501422958226197 0 1 0
2566 1 2 0 13.043974099185153 1.8900120025409883 5.5290367647298 0 1 0
450 1 3 0 14.067946886471939 1.6235087666679942 5.334498979044471 0 0 0
2594 1 2 0 14.087957896854913 1.349261484486376 6.684389637252133 0 0 0
2512 1 2 0 13.760056621654577 18.39551430792438 6.722594503196274 0 -1 0
2533 1 3 0 14.883606741188373 1.0431825668681334 5.787344734361991 0 0 0
2534 1 3 0 15.160323284596021 1.7338749836188185 6.297287813387828 0 0 0
2756 1 2 0 15.485329348941372 0.20271235069761837 6.177025797153397 0 0 0
1895 1 2 0 15.299492956761242 18.42598354207293 5.114082190005335 0 -1 0
2532 1 3 0 14.508974731893197 0.3614784338010166 6.414452281940533 0 0 0
449 1 3 0 14.075457782262715 0.685387744402766 5.268028976010484 0 0 0
2755 1 2 0 16.019876151907113 1.0069350560553099 6.408025884796455 0 0 0
1894 1 2 0 14.459168291247732 18.42284933572643 4.541651784475251 0 -1 0
2757 1 2 0 15.264970698618631 17.945249339090367 6.561232898394327 0 -1 0
2535 1 3 0 15.395999076986792 1.8784013122991523 5.326281361568988 0 0 0
1896 1 2 0 16.06593556837882 0.4154979750149421 5.106643466883156 0 0 0
691 1 2 0 17.546590540835776 1.1331625587470027 4.841862452001857 0 0 0
34 1 1 0 16.68037927861362 1.174711353739503 5.2122064794365786 0 0 0
469 1 2 0 17.63716045788187 0.35141308667518245 5.689475338556387 -1 0 0
2694 1 2 0 18.187538025192808 2.2592789120470793 5.196653218679437 -1 0 0
2696 1 2 0 0.5311863266035451 2.851564571318528 6.654092558940362 0 0 0
690 1 2 0 18.186429491323832 0.41014562782276753 4.611532157429738 0 0 0
468 1 2 0 17.233677125338804 0.15826743488160852 4.881033694829651 -1 0 0
470 1 2 0 17.386227543935394 0.7307683064671859 6.545872474505508 -1 0 0
1967 1 2 0 0.04314573141066904 3.5773916701383226 4.206901870379221 0 0 0
1829 1 3 0 2.3236707933301424 4.252543737066929 4.5383484564153544 0 0 0
1830 1 3 0 1.652306038178144 3.7909986903591806 5.058480338240707 0 0 0
2748 1 2 0 1.0371397507532796 4.053880886448332 5.873538212900604 1 0 0
1831 1 3 0 1.2123593395516448 3.7771318405172787 4.200437435409305 0 0 0
2747 1 2 0 0.7280912441438457 4.261565013398703 4.967715915212131 1 0 0
1965 1 2 0 0.007328511461383939 3.733336241773042 5.968209648810553 0 0 0
1467 1 2 0 2.1906716264279216 2.839238919647856 5.539265682644858 0 0 0
1964 1 2 0 0.16439697253688235 4.694688306813939 6.054883959101515 0 0 0
35 1 1 0 2.0048154649370074 4.637048752410159 5.74129039915422 0 0 0
2762 1 3 0 1.473552988518851 4.32905719900484 6.791531822762975 1 0 0
1465 1 2 0 2.4318183879367368 3.353706028918328 3.7061766610043256 0 0 0
1469 1 2 0 3.231740837423765 3.5295062281303347 6.331613294243007 0 0 0
1828 1 3 0 2.435096083774673 5.168624857526269 4.9171830088209285 0 0 0
1556 1 3 0 4.270499392551333 3.660769985513896 4.6840035613676525 0 1 0
1466 1 2 0 2.4559638021298724 2.91600827844006 4.578449638127149 0 0 0
1774 1 2 0 3.090232902065621 2.3960222844041037 5.270555875618708 0 0 0
1775 1 2 0 3.212925156723044 3.3432152855022315 5.326485385612858 0 0 0
1776 1 2 0 2.8826164474952147 4.255125554018398 5.488774788803175 0 0 0
1468 1 2 0 2.2702222227394437 3.6545850359785055 6.043091874122692 0 0 0
2809 1 2 0 4.423494512647114 3.846342327742245 6.600228495098635 0 0 0
1806 1 3 0 4.164132988795565 4.9487411668380785 7.1959508592940695 0 0 0
2810 1 2 0 4.25442613540813 3.798041080052544 5.684917789735209 0 0 0
2763 1 3 0 2.4241616298609423 4.287372137697844 6.761031136217033 1 0 0
1804 1 3 0 3.4903515961635323 5.19682088992234 5.681712209114527 0 0 0
2001 1 2 0 4.50244293959652 4.658963441001455 5.0655031297707085 0 0 0
2812 1 2 0 5.666975419336048 3.0425325084892236 4.830021036937996 0 0 0
2000 1 2 0 5.1560614821091155 4.382352869054651 4.431746030255208 0 0 0
2049 1 2 0 6.24510829462629 3.9588329051951274 4.832241216313199 0 0 0
2811 1 2 0 4.75456603956933 3.042080998614409 5.27136671869889 0 0 0
2050 1 2 0 5.481400431399789 4.195280926414618 5.424197134860982 0 0 0
1866 1 2 0 5.275213786593959 3.2070321864717872 6.296999835274995 0 0 0
2051 1 2 0 5.414075467529521 4.155085762417002 6.384450133928399 0 0 0
1865 1 2 0 6.016931919295402 3.3865138293531416 5.774439923292576 0 0 0
1864 1 2 0 6.738952873865721 2.7349189490659773 5.563057754315949 0 0 0
2677 1 2 0 6.260918032898328 2.635494582412734 6.6400337967970495 0 0 0
2678 1 2 0 6.157236224009352 3.5108854424950167 6.9151327449542 0 0 0
2785 1 2 0 6.4392155273684395 4.604092227789966 6.4708886424581555 0 0 0
2815 1 2 0 7.390479195119404 3.930058553446737 4.961284138950343 0 0 0
3023 1 2 0 8.036291693145174 4.85365229727763 4.3974271821827 0 0 0
2484 1 2 0 8.897774971735608 2.7659141866393115 6.804406165680284 0 0 0
1862 1 2 0 8.30465553252539 3.2518871890509224 5.0305798846732594 0 0 0
582 1 2 0 7.395636576544432 3.2232759429072186 6.277250625621511 0 0 0
583 1 2 0 6.906589705268389 3.9723311803698134 5.979921363429442 0 0 0
1863 1 2 0 7.668888890766511 2.697931194423803 5.474998971879007 0 0 0
2816 1 2 0 7.985018341109642 4.088898176678056 5.70273155441383 0 0 0
2817 1 2 0 8.25574658026026 3.5964714329874403 6.520192591226338 0 0 0
1861 1 2 0 9.032935835579323 3.5483042669540463 5.447647966570277 0 0 0
1819 1 2 0 7.536630520494529 4.534914143201473 6.804847694421249 0 0 0
1818 1 2 0 7.531791137412787 5.268174627326796 6.137141459753079 0 0 0
3020 1 2 0 10.215071612123028 3.2514360729203506 4.642494323836796 0 0 0
1676 1 2 0 11.413020763444829 2.0084277160335104 5.680689910587896 0 0 0
2818 1 2 0 9.0864790080249 3.7370771757269505 7.090343775151339 0 0 0
576 1 2 0 9.162751337262868 2.617416516840652 4.91347907486512 0 0 0
3019 1 2 0 11.132348912401733 3.1624385785214435 4.91555898815653 0 0 0
1860 1 2 0 9.829551930156276 3.4931707343522858 5.973520815114717 0 0 0
3018 1 2 0 10.847464527421783 2.965236124573523 5.769269176022766 0 0 0
3017 1 2 0 10.425737924796625 3.0725970856522826 6.61732787054201 0 0 0
2891 1 3 0 12.560844668120138 3.405202490000449 6.519470521712903 0 0 0
1677 1 2 0 12.049724502940755 2.73461171963697 5.56877232634338 0 0 0
1679 1 2 0 13.653362414681084 2.4585580865294254 4.857152077186935 0 0 0
1906 1 2 0 12.09061099352046 3.703842670313927 5.244166400531339 0 0 0
1907 1 2 0 11.477574293901698 3.7978611643500724 6.063165667774461 0 0 0
1908 1 2 0 11.487136068670022 4.55026363139708 6.671460827770951 0 0 0
1920 1 3 0 13.84330135661752 3.1330148483254208 6.714359854383218 0 0 0
1919 1 3 0 14.385224356298357 3.3270737766027176 5.925481160241589 0 0 0
1951 1 3 0 13.305268315783447 3.733811212333908 5.908302808792986 0 0 0
2094 1 2 0 13.000079480279744 4.758205509864562 5.107845346900539 0 0 0
2071 1 2 0 14.746195449429347 2.381196490677149 4.658244022377403 0 0 0
2603 1 2 0 15.96157616650391 3.38336215593923 4.819963228948697 0 0 0
2072 1 2 0 15.137708219308738 2.872987512590366 5.403816901262825 0 0 0
451 1 3 0 13.975172339344503 2.2915174128232088 5.974673315323996 0 0 0
1918 1 3 0 14.150942951561072 3.3343434428415475 4.972217337709698 0 0 0
2754 1 2 0 16.301519569480465 1.9472196975260718 6.286841611660963 0 0 0
2073 1 2 0 15.077194858825575 3.8652712810421113 5.339194883109762 0 0 0
2880 1 3 0 16.21740283858455 4.120744109347475 5.866992634502621 0 0 0
2878 1 3 0 14.700537425688218 3.903699834603243 6.9308927726255085 0 0 0
2881 1 3 0 16.541054192597233 4.014397958806396 6.753973460801761 0 0 0
2879 1 3 0 15.528575998346518 3.8287104779614873 6.495931472006349 0 0 0
2753 1 2 0 16.062595510973917 2.8469304499029224 6.569327487131944 0 0 0
2695 1 2 0 0.42670094805793496 2.4253148240836113 5.808346309357423 0 0 0
2746 1 2 0 18.42443490313315 4.629952957931717 5.037759389578791 0 0 0
1966 1 2 0 18.528222882989947 3.263963571553145 5.100196020259602 -1 0 0
2602 1 2 0 16.540181355861414 3.1712971155756735 5.56845891572654 0 0 0
2745 1 2 0 17.69601728283783 4.223959597489923 5.5039341046141 0 0 0
2601 1 2 0 17.465309380550927 2.935894164196956 5.672240959110639 0 0 0
2751 1 2 0 17.76157353006212 3.539324177086686 6.62216300623959 0 0 0
2752 1 2 0 16.957478462191247 3.0441540244420637 6.856256529227023 0 0 0
2706 1 2 0 0.8968039533243979 6.217529436445995 5.041686652671596 0 0 0
2707 1 2 0 1.8388851073262358 6.113519719324508 5.098778362002439 0 0 0
1791 1 2 0 1.1028939901478692 7.171810129513635 4.470705830222371 0 0 0
1963 1 2 0 0.8257163275459046 5.374051659456837 6.385965944979951 0 0 0
1962 1 2 0 1.7820384965189549 5.2608835477898435 6.3814320768054165 0 0 0
1792 1 2 0 1.4902701785273391 7.078875799034494 5.430555410329175 0 0 0
1982 1 3 0 0.6521804461831969 6.169072951551536 6.874016092159337 0 0 0
1793 1 2 0 2.327402667040962 7.110270012426502 5.914563664920765 0 0 0
746 1 2 0 1.3046461636259081 5.126128094056217 5.331471412018466 0 0 0
1983 1 3 0 1.1368524528674548 6.420031886924468 6.078035472608481 0 0 0
1759 1 2 0 0.49289256201484033 5.02218778022374 7.543971105042682 0 0 0
2980 1 2 0 1.6996679344053012 6.849332976554912 6.782885042012303 0 0 0
1812 1 2 0 3.8740929560562525 5.553281038854012 4.255352153321275 0 0 0
1802 1 3 0 2.736358103318573 6.663948620819088 5.215193515768691 0 0 0
2003 1 2 0 4.235953287298336 5.685466652251178 6.401446606218811 0 0 0
4026 1 2 0 3.578339306001961 7.0059860828527505 6.569259502479372 0 0 0
2004 1 2 0 4.174565894536911 6.560172662192518 5.894422164732491 0 0 0
1803 1 3 0 3.015320044539829 5.951219398647027 5.799444459287312 0 0 0
1805 1 3 0 3.595604465342786 4.570921240411221 6.415609933973555 0 0 0
3090 1 3 0 5.910822281987954 7.541165198109435 5.542836621738619 0 0 0
3036 1 3 0 6.915522748526965 5.705322236118172 5.042916146060896 0 0 0
3035 1 3 0 6.046205645935228 5.953904532170998 5.342251162228292 0 0 0
2002 1 2 0 4.49332631869075 4.8710345798721315 5.999104293372211 0 0 0
1813 1 2 0 4.4532403000010135 5.776834757175007 4.959538238308104 0 0 0
1814 1 2 0 5.091497167788568 5.845721827783491 5.751819078048807 0 0 0
3089 1 3 0 6.516112810171756 6.810446717499995 5.753573270201842 0 0 0
1815 1 2 0 5.24180343751841 5.81908454829089 6.685760773952624 0 0 0
2787 1 2 0 5.822635600290442 5.132208038534687 4.750682723683018 0 0 0
2786 1 2 0 5.818401479278661 5.067978248460706 5.786327769629644 0 0 0
1816 1 2 0 6.132906176896019 5.5642095499414 6.715891619176916 0 0 0
2052 1 2 0 5.191057040411051 4.740296193865094 7.131320180101678 0 0 0
3032 1 3 0 7.996932693652276 6.121655796903279 4.847611270490177 0 0 0
584 1 2 0 6.798036965830863 4.6929535153196875 5.375064549871115 0 0 0
1844 1 2 0 9.28727280535084 5.253509272256765 5.03193450035381 0 0 0
1842 1 2 0 8.795307113929288 4.905417651802684 6.426232749659735 0 0 0
1817 1 2 0 6.836943254883535 5.884656163091251 6.1214030613480315 0 0 0
3024 1 2 0 8.00270345508173 5.231026176237898 5.219207107639853 0 0 0
3134 1 2 0 7.716098901327313 6.231284033099351 6.541727850212493 0 0 0
3133 1 2 0 8.65958350262752 6.3243898849581655 6.752643672441253 0 0 0
3025 1 2 0 8.629287643924233 5.786288198871409 5.743318650167952 0 0 0
3088 1 3 0 7.444362762082497 6.598203630109235 5.560320941458407 0 0 0
1843 1 2 0 9.384396908655832 4.579539699503751 5.78796775829604 0 0 0
2853 1 3 0 8.677633661555529 7.330327665972991 6.490721428232942 0 0 0
3120 1 3 0 10.832002985428886 6.263591242900156 5.586186832828839 0 0 0
3037 1 3 0 12.10801974946973 4.61465433257492 5.817853112904438 0 0 0
3029 1 2 0 11.570177850767656 5.529990170244442 6.391239691982936 0 0 0
3026 1 2 0 9.590814618278797 5.798494173704209 5.835736213672862 0 0 0
1859 1 2 0 10.577374235000681 3.9740571370044364 5.541827174611578 0 0 0
3016 1 2 0 10.097023312537106 4.006321760309891 6.937632054065404 0 0 0
3027 1 2 0 10.375563043708876 5.413758733013008 5.503815837300116 0 0 0
3028 1 2 0 11.359763917170804 5.165066595527372 5.548778411131263 0 0 0
3118 1 3 0 10.552211580809523 7.244302060000235 6.119868223017522 0 0 0
3030 1 2 0 10.726876286119598 5.369696159784692 6.6925675592621054 0 0 0
3117 1 3 0 10.03994632838568 6.474414676505267 6.432747841566197 0 0 0
3038 1 3 0 12.382327576684744 5.466597810549027 5.5305119962251235 0 0 0
1934 1 2 0 13.92240977775329 5.338859969617915 4.2849266919486855 0 0 0
3039 1 3 0 12.087031631494458 6.331622004743162 5.6299908005776045 0 0 0
1947 1 3 0 12.992743644193881 5.561074935926413 4.475265792988078 0 0 0
1949 1 3 0 13.293001927114945 5.531746622007295 6.170021218385786 0 0 0
1948 1 3 0 13.419328797375938 5.9522581593548445 5.292922701742653 0 0 0
2872 1 2 0 12.493850003046742 5.397587639452155 6.922376991582482 0 0 0
1950 1 3 0 13.144565177060006 4.629077022301304 6.29491291202617 0 0 0
4181 1 2 0 14.010958510410957 5.142498515381184 6.877153227297917 0 0 0
2095 1 2 0 13.777629920959475 4.926313900378453 5.596092276815999 0 0 0
3041 1 3 0 12.016862635523877 7.398508814861139 5.893513830284855 0 0 0
1933 1 2 0 14.827182934869285 4.998010119990022 4.275772199387977 0 0 0
2169 1 2 0 13.914082806877975 6.710566495739193 6.311421622761144 0 0 0
2096 1 2 0 14.320302749968246 4.348091995176012 6.166580774547493 0 0 0
2097 1 2 0 15.10785314899495 4.818289877427982 6.469991681882089 0 0 0
2075 1 2 0 14.469223329525617 5.6650694697268875 5.125233692462776 0 0 0
2074 1 2 0 14.983305875076635 4.805520652088684 5.2993374861517095 0 0 0
2098 1 2 0 15.808377154198789 5.500112735601835 6.735453432516987 0 0 0
4182 1 2 0 14.49012262660157 5.8138662951309525 6.337569053728502 0 0 0
4183 1 2 0 15.278649133229083 5.881998359913429 5.895619515542877 0 0 0
2170 1 2 0 14.045287453674145 6.163480550814201 7.156846820623529 0 0 0
2705 1 2 0 0.14852284077677222 5.729926620326837 5.401318491094511 0 0 0
1761 1 2 0 18.2050146315055 5.798865878583479 6.8546220727872305 -1 0 0
3990 1 3 0 16.64662109315159 5.7994062851227675 4.566350705983988 0 0 0
2704 1 2 0 17.921910727697863 5.314120707318283 5.833393682467572 -1 0 0
1762 1 2 0 17.673678034265418 6.376971465460268 6.2543257666797 -1 0 0
1763 1 2 0 17.736378743147302 6.316970362579322 5.261038417977026 -1 0 0
2703 1 2 0 17.17568910285065 5.0082259509834035 6.426518962580885 -1 0 0
3988 1 3 0 16.66946861675956 6.149736771959932 6.251590432928584 0 0 0
3989 1 3 0 16.8844700704595 5.493162954650399 5.475722712019387 0 0 0
2230 1 3 0 17.222295559206785 7.427465800683483 4.620837102126994 0 0 0
2229 1 3 0 18.129602191069505 7.286873814542772 4.754125035201198 0 0 0
2231 1 3 0 16.568784240210075 6.792428536403458 4.893174816120514 0 0 0
1760 1 2 0 18.52309814904475 5.747278535556815 7.751870589681609 -1 0 0
4091 1 3 0 18.438455771606204 6.934960080506362 6.947227539751685 0 0 0
1984 1 3 0 0.22677925166926913 6.579776814978389 6.034458984383976 0 0 0
1985 1 3 0 0.3743528609117157 7.26586619080061 5.32381555808289 0 0 0
4023 1 2 0 1.8035848180282648 8.081685317357644 5.873743980031594 1 0 0
63 1 1 0 1.4909610407670963 8.812763381170397 6.810827352895419 0 0 0
4022 1 2 0 0.9566858386491693 7.693619993519048 6.133833316572474 1 0 0
3172 1 2 0 0.589282651409399 8.971329990390942 6.318379636695437 0 0 0
2981 1 2 0 1.6351562406565243 7.852234966670091 6.913181059998698 0 0 0
4021 1 2 0 0.718137812148641 7.682331028360229 7.010999451729217 1 0 0
4037 1 3 0 0.03240820110853177 7.967185879715294 6.077232304024857 1 0 0
1986 1 3 0 0.5636022381247305 8.209160003499276 5.199704105988536 0 0 0
3173 1 2 0 0.26791916195368437 9.730471330109827 5.941016126272439 0 0 0
4024 1 2 0 2.648410424099483 8.188926491672232 5.376268504933839 0 0 0
1794 1 2 0 2.7052620493332316 7.845477491530402 6.373939404214936 0 0 0
4025 1 2 0 3.3897350205934917 7.483197781743878 5.7156390355757045 0 0 0
1795 1 2 0 3.3159656444913184 8.63547168614912 6.198269888332187 0 0 0
2360 1 2 0 3.6860889933547267 8.310237915196204 5.1793281833452145 0 0 0
2984 1 2 0 2.886479248891754 9.345819940622196 5.3205462862387085 0 0 0
2983 1 2 0 3.788042972298468 9.314021058018316 4.849924931017846 0 0 0
2985 1 2 0 2.3716561434202403 9.052129179806846 6.115343402100211 0 0 0
1796 1 2 0 4.094508300568703 9.111281272599724 5.841632901054841 0 0 0
4304 1 2 0 4.8853272241842705 8.132797349323885 7.878095210841346 0 0 0
2359 1 2 0 4.305892671726995 8.085789542404264 5.822724044598547 0 0 0
2358 1 2 0 4.7907219607433635 8.648283865205297 6.449791182199359 0 0 0
36 1 1 0 4.8500184136412035 8.871880016617686 5.210659917625439 0 0 0
2357 1 2 0 5.100059964472619 9.16786109366373 7.18646811468521 0 0 0
2005 1 2 0 4.303921394869912 6.983795828082769 5.007789697937565 0 0 0
2006 1 2 0 4.693821362882218 7.8666790764388965 4.756089998781995 0 0 0
1836 1 2 0 6.809812053123828 7.520441049373491 4.972004717163797 0 0 0
835 1 2 0 6.476355290689867 8.456624277491622 5.988087583071591 0 0 0
1837 1 2 0 7.171129312423133 7.578533542097057 5.8426063201031715 0 0 0
3058 1 2 0 6.293545449933882 8.510266468902737 4.94445143084025 0 0 0
836 1 2 0 5.62181171948155 8.5437032220007 5.635657622148147 0 0 0
834 1 2 0 7.311095882150732 8.72653754199879 5.592646102399443 0 0 0
3093 1 3 0 6.482115874818841 7.4841149220682555 6.625272737209166 0 0 0
3221 1 2 0 6.474339436320815 9.148970361759865 6.813659741640878 0 0 0
3092 1 3 0 7.133968164165619 8.167494731470166 6.914589549273237 0 0 0
3094 1 3 0 5.746030172529049 6.895223502182937 6.483769763066239 0 0 0
3095 1 3 0 5.2204936086954525 7.691262098006752 6.40386405279693 0 0 0
3033 1 3 0 7.227863086960235 6.479037802651916 4.331485429702979 0 0 0
1838 1 2 0 7.579403321915531 7.212274304769014 6.526583296651723 0 0 0
2854 1 3 0 9.247237759826298 7.1261265440759844 5.745762099579433 0 0 0
833 1 2 0 7.34387583519947 8.608221062469704 4.639212787145539 0 0 0
3087 1 3 0 8.16788936633815 7.191563701172335 5.516633017277269 0 0 0
3075 1 2 0 8.00540372734453 8.339415665375281 6.328824973498242 0 0 0
3074 1 2 0 8.093378794794154 8.116267516232668 5.369128018516117 0 0 0
4210 1 2 0 8.88741313141331 8.74559538458142 5.572772560453795 0 0 0
4211 1 2 0 8.113338858567213 9.338972801083976 5.6259551903985106 0 0 0
3219 1 2 0 8.455783210502585 9.174019056247813 6.799097251573352 0 0 0
2852 1 3 0 8.748897052724795 7.443917639989845 7.411037063107786 0 0 0
3121 1 3 0 10.015964476914464 6.697984732180202 5.16947799728246 0 0 0
3119 1 3 0 11.28904320245011 6.675301603900708 6.257384712683538 0 0 0
3101 1 2 0 9.61878799301295 7.556287873207358 6.702696152273871 0 0 0
2120 1 2 0 11.390530749288205 8.401454208890412 5.477325574702122 0 0 0
4209 1 2 0 9.825040752821202 8.504675926911778 5.613438380584846 0 0 0
3102 1 2 0 9.0738708845309 8.382148171935976 6.576304109628337 0 0 0
3100 1 2 0 9.568370660797772 6.730337508233366 7.2501162500427085 0 0 0
2121 1 2 0 10.889450587382255 9.144600035350638 5.661384987645169 0 0 0
4208 1 2 0 10.483626752027156 8.307613514769587 6.23708865659351 0 0 0
4207 1 2 0 11.288117891393004 8.092323818129755 6.770208143028867 0 0 0
2038 1 2 0 9.883526663756095 9.390066427854615 4.957351204684335 0 0 0
3040 1 3 0 12.863621015179657 6.868816789923618 5.831652155200137 0 0 0
3067 1 2 0 11.507619743678154 9.746260676326097 6.380732164621012 0 0 0
3285 1 2 0 12.440726045189923 8.422897925722063 5.575430928764656 0 0 0
3286 1 2 0 12.119692173403788 7.970355941312698 4.711244111061388 0 0 0
2141 1 2 0 12.972456911652726 7.6904595086865175 5.096454836905862 0 0 0
3158 1 2 0 12.783441672094652 9.295956679959634 4.8605851929814685 0 0 0
2142 1 2 0 13.54862759087417 8.229371777068872 5.76255264087433 0 0 0
3284 1 2 0 12.753996912645528 8.048899332937394 6.40811247571389 0 0 0
3157 1 2 0 12.982326287265996 10.184017595630387 5.187297662326421 0 0 0
3068 1 2 0 11.863344100436075 9.475162649067153 5.507117059168004 0 0 0
2870 1 2 0 13.443137586087625 7.099447778500671 7.179492297266351 0 0 0
2168 1 2 0 14.201450955465473 6.633922923716715 5.394173371249446 0 0 0
2100 1 2 0 15.040244521990768 6.834898369397804 6.281125930011859 0 0 0
2104 1 2 0 14.083164284786315 9.566224438868655 4.863129077322047 0 0 0
2337 1 2 0 15.592023687756676 8.748008271018149 4.498740999612125 0 0 0
2143 1 2 0 14.274198971445882 8.866287049005061 5.651272200178654 0 0 0
2167 1 2 0 15.061410501763268 6.919458382059962 5.066727649722898 0 0 0
2101 1 2 0 14.586923695966165 7.633895307658598 5.877686560361358 0 0 0
2102 1 2 0 14.368793046472986 8.028213477931974 4.960613274348867 0 0 0
2103 1 2 0 13.676921967581634 8.696882314424087 4.8825047460676965 0 0 0
2144 1 2 0 15.052237709001986 9.322571961990773 5.259494945660222 0 0 0
4185 1 2 0 15.857969010487885 7.534527076040889 5.747397875584818 0 0 0
4184 1 2 0 15.831225344182167 6.577695941354876 5.610489892837274 0 0 0
4186 1 2 0 16.106353937325323 8.448749847913135 6.024386682642294 0 0 0
3338 1 2 0 17.582058154033607 8.434419572732704 4.548665941557569 0 0 0
4040 1 3 0 16.585338634132906 8.004223569639963 5.091632709975429 0 0 0
4038 1 3 0 17.96527220281678 7.312379746682752 5.872359669617986 0 0 0
4039 1 3 0 17.008608800825705 7.441893973777667 5.72326681892873 0 0 0
2916 1 2 0 16.45231397072319 9.357146132831959 4.9984410991812895 -1 0 0
3339 1 2 0 17.959164047667844 8.843651984165172 5.373136328846304 0 0 0
2917 1 2 0 16.893839050448623 9.077827111912939 5.807606554086103 -1 0 0
3981 1 2 0 17.433337561131733 7.8391620411023855 6.756766600341717 0 0 0
2204 1 2 0 1.83483892999601 9.685449428016552 5.091530695230808 1 0 0
2222 1 3 0 1.439661997888592 9.626947777573156 5.908364364551896 1 0 0
2188 1 2 0 1.6285880182925139 11.121959002361884 5.1213902404708955 0 0 0
2223 1 3 0 1.0539037708097456 10.008626247362484 6.735664644763486 1 0 0
2189 1 2 0 0.8599829732422101 10.537477654309527 4.873084241209927 0 0 0
2944 1 2 0 0.9219561087247199 10.74706389621042 5.879653215577987 1 0 0
2187 1 2 0 2.561342192639817 11.371444112982903 4.904190582627163 0 0 0
3174 1 2 0 18.355910350022818 10.564252133709145 6.183236730738389 -1 0 0
2289 1 3 0 1.9710886086551338 10.587201069781132 6.610534025018998 0 0 0
2290 1 3 0 1.8811611584117343 11.46918506009052 6.2970080047093715 0 0 0
2288 1 3 0 2.3317203596585285 10.562771708360472 5.721500575032384 0 0 0
2271 1 2 0 3.574233843167369 10.968744575692549 4.612566216163556 0 0 0
3243 1 3 0 4.452417806319232 10.575304643367081 4.93738117494703 0 0 0
2287 1 3 0 3.2085428443619115 10.998627078463645 5.788758735655883 0 0 0
3245 1 3 0 3.244244813686981 10.02938680802702 6.160340538669443 0 0 0
3244 1 3 0 3.6596820470980185 10.178886246806925 5.323893478082258 0 0 0
2270 1 2 0 3.830671406127424 11.581601639842708 5.321630790659234 0 0 0
2354 1 2 0 3.7839806169509465 11.12428368176173 6.947137837447855 0 0 0
3242 1 3 0 5.272145883084097 10.344106450164347 5.530787520453902 0 0 0
3224 1 2 0 4.303658842253199 10.027668645588175 6.602920006223111 0 0 0
865 1 2 0 6.398382109557975 10.454892714317591 4.382551211960953 0 0 0
3223 1 2 0 5.003221833515862 9.651163303951376 6.14698595529415 0 0 0
3059 1 2 0 6.21509676140215 9.306796736331998 5.4241957064882715 0 0 0
3222 1 2 0 5.894129313359751 9.89212677345948 6.42078306900957 0 0 0
2391 1 3 0 5.403930440384698 10.957551116348835 6.483815804876011 0 0 0
3060 1 2 0 6.5908375769776635 10.160488602567769 5.453531933776587 0 0 0
2390 1 3 0 4.453986788348259 11.05996459650305 6.1729813876389 0 0 0
2389 1 3 0 4.915949104525788 11.389250803574244 5.434018012792915 0 0 0
2029 1 3 0 6.123882154540075 11.36360579366013 4.7899039213801915 0 0 0
3047 1 2 0 6.777579108192554 11.728858716929821 6.573808853507826 0 0 0
4212 1 2 0 7.3146290675477905 9.681140648017706 6.050164384026085 0 0 0
2028 1 3 0 7.026164945679015 11.073611671224167 4.853904195143876 0 0 0
2037 1 2 0 8.922631586038095 9.503232026947682 4.819832554010438 0 0 0
2964 1 2 0 7.488539957088052 9.955649867978412 5.004923878788483 0 0 0
2965 1 2 0 8.057799815192727 10.289893171847783 5.846159967080899 0 0 0
3103 1 2 0 9.37018300948737 9.218095130850493 6.358282550388316 0 0 0
3104 1 2 0 9.162359194540514 10.021515159997575 5.846017328334667 0 0 0
3061 1 2 0 7.180359812685963 10.825068086898822 5.878317278442071 0 0 0
2966 1 2 0 7.9103087552126246 10.10489750935377 6.758766633193292 0 0 0
2027 1 3 0 7.973212610122528 10.901677309142752 5.004422923247493 0 0 0
64 1 1 0 7.954820048941546 11.309790215775505 6.376746218497597 0 0 0
3217 1 2 0 8.67885299326354 10.875163623732004 6.736376089035853 0 0 0
3218 1 2 0 8.976744740243554 9.982229344502036 7.0020926181408845 0 0 0
3323 1 2 0 9.37627254717475 11.472599582976391 5.973842938669437 0 0 0
4213 1 2 0 6.8993410447717 10.157202986063265 6.793484228997174 0 0 0
2122 1 2 0 10.196300505811951 9.767953652629117 5.860253884728052 0 0 0
3324 1 2 0 9.462164480836421 11.673784467578404 6.9217859678093205 0 0 0
2123 1 2 0 10.465483946415548 10.07765952915382 6.723459648789402 0 0 0
2300 1 3 0 10.437376849983947 10.858553049620927 6.065791437820878 0 0 0
2301 1 3 0 10.274755792997528 10.566609383383842 5.086990619767066 0 0 0
2299 1 3 0 10.396709180470197 11.737548292022705 6.496935612396402 0 0 0
2124 1 2 0 9.875254566570005 10.701162490729303 7.115628887466182 0 0 0
3307 1 2 0 11.57297138582456 11.80600906113677 6.193031368742609 0 0 0
65 1 1 0 11.447190047172695 10.88393087208133 6.316618599196764 0 0 0
3327 1 3 0 11.081547026942962 11.488052275869675 5.496403288261266 0 0 0
42 1 1 0 13.06824636791413 11.491080322560984 4.852019559218861 0 0 0
3115 1 2 0 12.094791413626295 10.359038514546475 4.809528045454331 0 0 0
3116 1 2 0 11.425643470299955 10.438400302315499 5.4849646511607135 0 0 0
3156 1 2 0 12.487088722759228 10.72644969034622 5.835056097270187 0 0 0
3155 1 2 0 13.319013606644793 11.120478159483982 5.7782942216570765 0 0 0
2261 1 2 0 12.134749771892777 11.437121632094316 5.129532718645794 0 0 0
2106 1 2 0 14.021711939831771 11.261155253017606 4.935621756574839 0 0 0
3277 1 2 0 12.273041159876007 11.225817969442415 6.732240198417154 0 0 0
2446 1 2 0 12.580724926120523 9.775810300441833 6.340612664193722 0 0 0
2445 1 2 0 12.129242383461843 9.874939030603569 7.197043180276996 0 0 0
2447 1 2 0 13.289182735247413 9.347563063431519 5.8905211650035625 0 0 0
2105 1 2 0 13.856590790096028 10.387360408605907 4.423243139228907 0 0 0
3154 1 2 0 13.747869461565175 11.351604235969663 6.573400465833903 0 0 0
2336 1 2 0 14.66535818877572 8.703072918402992 4.351658433018111 0 0 0
2145 1 2 0 15.559290158320755 10.149808957346943 5.0848329460819635 0 0 0
2146 1 2 0 15.94643113841276 10.045570018289512 4.201144947937645 0 0 0
2448 1 2 0 13.916079630102265 10.066186586726262 5.916883177970508 0 0 0
2449 1 2 0 14.729503287071388 10.49755556623238 5.580438229820898 0 0 0
3167 1 3 0 14.22210632355899 11.979214017743333 5.926886999348546 0 0 0
3351 1 2 0 15.286296226532041 10.393670502957725 6.732743766661392 0 0 0
3353 1 2 0 15.871373493636833 9.71969323397998 5.964829600011193 0 0 0
3354 1 2 0 14.970958097396073 9.44591301491587 6.261784200096353 0 0 0
2191 1 2 0 17.538826349350582 10.764188577768628 4.457082665712903 -1 0 0
3352 1 2 0 15.879325386671766 10.63349727506039 6.029511341901344 0 0 0
2915 1 2 0 17.15547218760539 10.071632367609938 5.124064342063014 -1 0 0
2932 1 3 0 17.385103831258157 10.799564371899438 5.690330812297593 0 0 0
2933 1 3 0 17.693163298757565 11.641858150829094 5.272278311703291 0 0 0
2190 1 2 0 18.493128586261776 10.708443353911806 4.7342782594352935 -1 0 0
3340 1 2 0 18.184466783161476 8.98598756793017 6.272132266946143 0 0 0
3341 1 2 0 17.663084983072057 9.754420284210642 6.135566579045418 0 0 0
3175 1 2 0 17.947091536404905 11.483813962079582 6.225630721183613 -1 0 0
4187 1 2 0 16.041421985160508 8.998143152466298 6.815016709048027 0 0 0
2386 1 2 0 0.3779072174388442 13.554254237583493 4.337051387274574 0 0 0
2943 1 2 0 0.3806065679435046 11.364060851299422 5.425014532534713 1 0 0
2350 1 2 0 1.6838261701563466 12.25393548078299 5.058149484885625 0 0 0
3386 1 2 0 0.13058004018062866 13.444263751013303 5.410226671201064 0 0 0
3191 1 2 0 1.7566288736711753 13.276704263055292 5.551988548083633 0 0 0
68 1 1 0 0.9791112213664429 13.765397681523133 5.092450069371087 0 0 0
3369 1 2 0 1.8181299880167516 12.478689892103088 6.321344108318769 0 0 0
2351 1 2 0 2.561687127625596 12.362437498440075 5.391631656606886 0 0 0
3368 1 2 0 0.9787627718168829 12.27566978591298 5.925972326332977 0 0 0
4511 1 2 0 1.7281937029901873 13.559575846803215 6.695731222259219 0 0 0
4510 1 2 0 0.9648019228560146 13.72339997731796 6.145086820509844 0 0 0
3190 1 2 0 2.5437410670597593 13.868151534042362 5.742426622885156 0 0 0
3188 1 2 0 4.4608363936267255 13.355184504393527 5.548688288903886 0 0 0
3189 1 2 0 3.4544443040161816 13.503049926525245 5.433271810152227 0 0 0
2269 1 2 0 3.8240917218679917 12.437241423055973 5.7607345748290735 0 0 0
2268 1 2 0 3.843974902878508 13.063043023736764 6.442869099011032 0 0 0
2352 1 2 0 2.796775135365522 12.283997681177237 6.3045675093039 0 0 0
4514 1 2 0 4.0691201113569555 13.188097004382215 7.685700311254846 0 0 0
2267 1 2 0 4.068746266012965 14.010061465980437 6.433355687415506 0 0 0
3414 1 2 0 2.872223563956354 14.768418803912907 6.52349481970172 0 0 0
2353 1 2 0 3.5761598092979288 12.037432721189923 6.740142644133581 0 0 0
4513 1 2 0 3.2311784667625543 13.61364137283048 7.45759268678849 0 0 0
3186 1 2 0 5.36467476346293 12.030776610986466 6.528213284634957 0 0 0
1550 1 3 0 6.468126004918 13.327292826699443 4.613388249479081 0 0 0
3187 1 2 0 4.8030629113909935 12.730330072935374 6.2663667814822945 0 0 0
2031 1 3 0 5.929445943703921 12.431507280627363 5.76867531333647 0 0 0
1551 1 3 0 6.944797058674774 13.259341443206624 5.442812599457596 0 0 0
2030 1 3 0 5.913758375199054 11.45825478045743 5.747895827934743 0 0 0
4516 1 2 0 5.029061372239334 13.20800260827552 7.338167258785735 0 0 0
3185 1 2 0 5.335555882383647 11.996678446273599 7.4965302460792 0 0 0
4517 1 2 0 5.887817106258746 12.986336947850353 7.038081853631095 0 0 0
4518 1 2 0 6.699508059932173 12.470899438310001 7.134503772132117 0 0 0
2286 1 2 0 8.425562768464047 12.004253839898649 6.006380630078568 0 0 0
1377 1 2 0 7.521389995603833 12.717835653437099 4.100502473512839 0 0 0
2453 1 2 0 6.4361043965056135 14.154036034360104 6.833347086608886 0 -1 0
3049 1 2 0 7.909070502141616 11.971356971918997 4.935126430659797 0 0 0
3048 1 2 0 7.285617277166094 11.91162859773607 5.744033267760942 0 0 0
2285 1 2 0 8.343809075806222 12.814696870883386 5.530148490391168 0 0 0
1378 1 2 0 7.570962895543896 13.643523514164219 4.470164053041379 0 0 0
2297 1 3 0 9.128880834934964 12.55222991104631 6.361680428450618 0 0 0
2454 1 2 0 7.285734156285822 14.603908082366093 6.973703107574861 0 -1 0
3320 1 2 0 9.451342669669785 13.715119733544537 4.888828728347751 0 0 0
3248 1 2 0 8.008154154814854 12.746176161792956 6.5188641981734525 0 0 0
3322 1 2 0 9.096909442814795 11.936837924340747 5.197631005709773 0 0 0
3247 1 2 0 8.256667215984375 11.972743318592403 6.997336036149369 0 0 0
3250 1 2 0 8.135807548169211 14.002225251142177 7.2140063514036585 0 0 0
1432 1 2 0 10.44632096655599 13.274060362960295 5.298210338862998 0 0 0
3321 1 2 0 9.410035816695379 12.793382157441782 5.134063506606373 0 0 0
3328 1 3 0 10.552798534128188 12.066745045867368 4.967080720955599 0 0 0
2298 1 3 0 9.97338739266945 12.34855097503671 5.908606696015395 0 0 0
1433 1 2 0 9.99404602648405 13.392092618220424 6.107498726135689 0 0 0
1434 1 2 0 9.339333613342573 13.520903397585178 6.763219746783242 0 0 0
2577 1 2 0 11.67138484272096 13.5691297292826 6.0760768356759955 0 0 0
3430 1 2 0 11.105628031589257 12.66872586651837 5.756673165539044 0 0 0
2578 1 2 0 10.830624318344682 13.65324778672593 6.645907309803454 0 0 0
2302 1 2 0 13.625877904656202 11.593511270280032 4.074875945029318 0 0 0
3431 1 2 0 11.695480982700728 12.46528011307595 5.034320512656677 0 0 0
3297 1 3 0 12.67920218180332 11.914004938635689 6.123520084462631 0 0 0
69 1 1 0 11.550928933311933 13.011509319647596 4.255537340857297 0 0 0
3171 1 3 0 12.775928244700586 12.69357363663128 4.983094397914894 0 0 0
3170 1 3 0 13.45766432358486 12.780323835780885 5.628171939592367 0 0 0
2441 1 2 0 13.636524991433836 12.49117610084488 6.637373458383999 0 0 0
3298 1 3 0 12.264777554743269 12.787418828562993 6.040997439696082 0 0 0
3169 1 3 0 13.943653167254523 12.335642789635065 4.973017038680899 0 0 0
3299 1 3 0 12.893533182502514 13.53112662102262 5.890259910718687 0 0 0
2450 1 2 0 15.23922077421025 11.338002520333431 5.314213492200139 0 0 0
3168 1 3 0 14.658860777241035 12.661783342369175 5.485524886458413 0 0 0
2440 1 2 0 13.955520260890541 13.416604330498345 6.400623697951616 0 0 0
3450 1 2 0 14.425309358141181 13.411413147141756 4.768655467395921 0 0 0
3451 1 2 0 15.337424089615244 13.333192350581488 4.998521926591737 0 0 0
2451 1 2 0 15.508027275631276 12.164288757254116 5.013466931776666 0 0 0
71 1 1 0 16.191546333918613 12.859646156763375 5.0809356191105595 0 0 0
3477 1 2 0 16.2356822765303 13.006998872193565 6.002168790994508 0 0 0
4504 1 2 0 15.091231188334932 13.330401777122077 6.1130932776526254 -1 0 0
3350 1 2 0 15.099608040487235 11.373643886576357 6.672423181420424 0 0 0
2439 1 2 0 14.24922449513124 14.241547624924875 6.678784127853047 0 0 0
4503 1 2 0 15.282634318981815 12.45157234495936 6.344005342190465 -1 0 0
67 1 1 0 18.46937676008941 12.023827281108298 4.403186947638278 -1 0 0
3392 1 2 0 18.051328212013146 12.920971298513013 4.538282098037318 -1 0 0
3367 1 2 0 0.2539159247773965 12.358470902922745 5.251408681246957 0 0 0
4554 1 2 0 16.25491307000378 12.030019038454922 6.250518615870663 0 0 0
3385 1 2 0 0.07285030601650741 12.82175738356422 6.173340010825921 0 0 0
4555 1 2 0 16.710801025913838 11.941708476721749 5.3936333101162175 0 0 0
4556 1 2 0 17.34791917480779 12.384133250211084 5.901391393099025 0 0 0
3384 1 2 0 18.15063002100638 12.344752809762852 6.844498824997101 -1 0 0
4557 1 2 0 17.04765453134581 12.99116829670562 6.6512526419484095 0 0 0
3176 1 2 0 18.240567179949963 11.336135576601018 7.226332118112863 -1 0 0
3383 1 2 0 17.38279690011199 11.95882419683161 7.316629951336487 -1 0 0
4512 1 2 0 2.6661985619034994 13.353925478776183 6.681864046580676 0 0 0
2658 1 2 0 0.6961469291306435 14.60263083973384 4.434776339931714 1 0 0
4575 1 3 0 0.7376448973183085 15.3823909893421 5.155069906331539 1 0 0
3412 1 2 0 1.614821963508779 14.402655142177588 5.413868201682361 0 0 0
4574 1 3 0 0.3541294218617869 14.562360427873665 5.550688238040765 1 0 0
3413 1 2 0 1.9665893156144842 14.583584849056221 6.232104814651901 0 0 0
4573 1 3 0 18.000304646812516 14.233711225318354 5.751294773358725 0 0 0
4576 1 3 0 0.5482126672416947 15.692421393680348 4.22375390610561 1 0 0
1586 1 2 0 3.339291550671419 14.526725358966976 5.222694006414575 0 0 0
1584 1 2 0 2.105924403283044 15.574346158411519 4.517093560472504 0 0 0
1585 1 2 0 2.4961484290691396 15.092799412636941 5.32956578629081 0 0 0
1131 1 2 0 4.130233255152372 15.182369704512773 5.086106461809486 0 0 0
2474 1 2 0 3.0652135890985694 15.886204655760134 5.89606017826929 0 -1 0
41 1 1 0 4.449273629587071 14.489887326657035 5.711502287527689 0 0 0
2473 1 2 0 3.7839856388263273 15.294394330366453 6.193745466639133 0 -1 0
3415 1 2 0 3.591605021316978 14.872183530231897 7.126042966671082 0 0 0
2242 1 2 0 5.044503980275294 15.24749965439027 5.5039000478036195 0 0 0
2452 1 2 0 5.471565192527375 14.140974064723286 7.033285935461493 0 -1 0
1383 1 2 0 5.3607148224116274 13.697054356177656 5.2314138187996635 0 0 0
1382 1 2 0 5.874993969193877 14.296504372895692 5.814356365013605 0 0 0
2318 1 2 0 7.052567100124031 14.268038607812215 5.946227753775247 0 0 0
2243 1 2 0 5.5960196583192605 15.94201230082941 5.024334502544556 0 0 0
1381 1 2 0 6.37024441691924 15.100914112361691 5.513615954712656 0 0 0
3556 1 2 0 6.573277908494085 15.137482191949452 7.471738037599905 0 0 0
3555 1 2 0 6.154009475280374 15.405162237265625 6.650882058854671 0 0 0
2472 1 2 0 4.520949715590751 15.070080408610737 6.791466451411699 0 -1 0
50 1 1 0 5.215958599928352 14.999151886468963 7.471417485464967 0 -1 0
1644 1 2 0 6.513689987018395 16.62303407091192 6.814486481081106 0 -1 0
1389 1 3 0 8.664478459828972 15.923772771501254 4.977917086441999 0 0 0
1388 1 3 0 8.4978445842185 14.982422606560448 5.327905160727077 0 0 0
2319 1 2 0 7.288260154439072 15.20121288993269 6.093589314573885 0 0 0
2455 1 2 0 8.132964722220338 14.83553122846043 6.519895602964606 0 -1 0
2456 1 2 0 8.171281798042807 15.726162265625668 6.144919964474716 0 -1 0
2320 1 2 0 7.373671427457042 15.713334093199945 6.985358402620595 0 0 0
2520 1 2 0 9.232943916136241 15.843150650761542 6.147612377132388 0 -1 0
1648 1 3 0 7.106899544195077 17.203503211698532 4.919400467595317 0 -1 0
3319 1 2 0 9.164470279350155 13.905705019050208 5.804894657560747 0 0 0
2321 1 2 0 8.276544649904215 15.780980001058936 7.322438458974244 0 0 0
1436 1 2 0 9.217133853784366 14.840215406303333 6.55322521533014 0 0 0
2414 1 3 0 10.375559951235761 14.875663468276649 4.642513754142564 0 0 0
2413 1 3 0 11.213311372205057 15.318009118688915 4.344941093110336 0 0 0
2576 1 2 0 11.592636033446409 13.703016219371772 5.12450206084211 0 0 0
2519 1 2 0 9.692992999739582 15.857684570077485 5.292912006638426 0 -1 0
3318 1 2 0 10.025957989756341 14.290157839112922 5.548830073935702 0 0 0
3317 1 2 0 10.957301458181872 14.565971123615286 5.660860820552183 0 0 0
2518 1 2 0 10.533865023174458 16.03385832647628 4.759631658151733 0 -1 0
3445 1 2 0 11.252178553425985 15.58385329735837 6.632110359335695 0 0 0
2588 1 3 0 10.283044704298911 15.264544207879498 6.182925723911382 0 0 0
2587 1 3 0 10.191585235958756 14.344623628110071 6.612356732730613 0 0 0
3316 1 2 0 11.506278228306607 14.559899243758082 6.419030097209243 0 0 0
3446 1 2 0 11.424556077177687 15.4289766221706 5.719869619911989 0 0 0
3449 1 2 0 13.611685147513533 13.800684292584597 4.936068769675734 0 0 0
2436 1 2 0 13.801165534580129 14.923183831969647 4.306295513397214 0 0 0
2412 1 3 0 12.085939651177458 15.588348034210366 4.518137303380916 0 0 0
2398 1 2 0 12.981368069589314 15.479464373652062 4.8717830846148225 0 0 0
3448 1 2 0 12.763835797552101 14.266244464894488 5.015175329094831 0 0 0
2616 1 2 0 13.521306433011372 14.380624141272001 5.783394161644555 0 -1 0
3447 1 2 0 12.156098148563334 14.951818006140611 5.377724798670892 0 0 0
2615 1 2 0 12.806925558732047 14.698533342072274 6.33382591375783 0 -1 0
2397 1 2 0 13.34415119609187 15.44597085691642 5.7287325159623625 0 0 0
2614 1 2 0 12.335528207302305 15.510009595598829 6.349482560017869 0 -1 0
2396 1 2 0 13.338434374035218 15.756376660939367 6.632662624312291 0 0 0
2438 1 2 0 14.168173197469752 15.07992283300399 6.215431014051208 0 0 0
2644 1 2 0 14.14673366618535 16.0385121907074 4.32790298697907 0 0 0
2619 1 2 0 15.72549440418657 15.37957249341409 5.250378311610215 0 -1 0
2437 1 2 0 14.160131530502085 14.981584253689233 5.249438447629511 0 0 0
2617 1 2 0 14.449808974702579 14.059533515645912 5.6333203417045254 0 -1 0
1506 1 3 0 14.961175416061987 15.893253617545492 5.988472473658122 0 -1 0
2618 1 2 0 15.119140856139245 14.742373155400427 5.624010761394969 0 -1 0
2774 1 3 0 15.174317434995853 14.560019622655972 6.673120073658145 0 -1 0
2775 1 3 0 15.689680681210502 15.460851226951682 6.662286569478286 0 -1 0
2776 1 3 0 16.203689902573252 14.9238633977175 6.061630549253362 0 -1 0
4505 1 2 0 15.670159497342727 13.99376491857615 5.848272042774419 -1 0 0
2620 1 2 0 16.548221101517925 15.807957283099633 5.464730702903464 0 -1 0
2661 1 2 0 17.128541377995973 13.181178920233382 5.1158032731508944 0 0 0
2660 1 2 0 17.540731100461084 13.960641792340152 4.779768431367296 0 0 0
4572 1 3 0 17.804665067659595 13.354804006416552 6.16530123398119 0 0 0
2659 1 2 0 18.381547021110592 14.385299958317601 4.754247716160199 0 0 0
2662 1 3 0 18.10097113274903 15.231820040451819 4.998606140535805 0 0 0
2621 1 2 0 17.423044544363563 16.00784255233355 5.06016959148467 0 -1 0
2663 1 3 0 17.252674262925215 14.870992650870441 5.189647429402492 0 0 0
2664 1 3 0 17.224001874867426 14.913991661264594 6.190729732849265 0 0 0
3401 1 2 0 18.111107862874114 15.50618241504256 6.167251285862631 -1 0 0
3402 1 2 0 0.1909713421879423 15.648520456088642 6.881691154127309 0 0 0
1517 1 2 0 2.1877055577105664 18.280409165956737 5.287782298163396 0 0 0
2623 1 2 0 17.53594448605819 17.56702776526851 4.864442681268058 0 -1 0
1745 1 2 0 2.883339247713674 17.421363587361018 4.840904660479864 0 -1 0
2475 1 2 0 3.284401832893903 16.799320929265416 5.702491280578945 0 -1 0
1513 1 2 0 4.515166963561242 16.058098516676587 6.269397664073905 0 0 0
1512 1 2 0 4.392997073716454 16.16713747527199 5.3343448402931575 0 0 0
1140 1 3 0 4.227938008478702 18.006191271469078 4.786622187857472 0 0 0
1744 1 2 0 3.2096037184267536 18.307759127381882 4.920054456783861 0 -1 0
1516 1 2 0 2.7758008829288303 17.82391953408317 5.925021579748028 0 0 0
1515 1 2 0 3.3842667263013126 17.547195233881958 6.635458364853527 0 0 0
1514 1 2 0 3.983780453720671 16.740716198201152 6.565242615467371 0 0 0
2476 1 2 0 4.0022814383659595 17.404489693699258 5.602971079156193 0 -1 0
2477 1 2 0 4.016734217981072 18.33097098840327 5.9535302419460026 0 -1 0
1569 1 2 0 4.2444490379329185 17.74313222330822 7.229928387390702 0 -1 0
1511 1 2 0 4.885985642176286 16.600738787537775 4.600265241147705 0 0 0
1141 1 3 0 5.109386309139187 17.665190894961167 4.914767602482438 0 0 0
3554 1 2 0 5.812558301315782 16.122214837977374 6.182002432873363 0 0 0
3552 1 2 0 4.772766687059387 17.656711315031536 6.181166819590279 0 0 0
3553 1 2 0 5.145564736268289 16.82978719913787 5.87321599484744 0 0 0
1573 1 2 0 6.165352913077485 17.89712030808112 4.797623322742834 0 -1 0
73 1 1 0 5.094010514765029 18.24120069098027 6.874066584230359 0 -1 0
1638 1 2 0 6.928399639975298 18.511265797892566 5.73110549607607 0 -1 0
1572 1 2 0 5.848821420222317 17.57849274575516 5.712351036914831 0 -1 0
1571 1 2 0 5.757820108792003 17.31960777989579 6.64803112394125 0 -1 0
1630 1 2 0 8.52752449018562 0.5758752681420022 5.129660818963242 0 0 0
2458 1 2 0 8.772071254437487 17.406186140302314 5.329742717090366 0 -1 0
1639 1 2 0 7.616957756549343 17.93877025347174 5.509930023257757 0 -1 0
2457 1 2 0 8.335959108028481 16.595374806227813 5.719833997496282 0 -1 0
2521 1 2 0 8.755679262829268 16.546141131524216 6.6753770843271685 0 -1 0
1641 1 2 0 7.352584284727535 17.62473845465401 6.908769276135738 0 -1 0
1640 1 2 0 8.051494182911695 17.64259661258594 6.275126613344245 0 -1 0
1642 1 2 0 7.032919518342911 17.316665405048045 6.099778253714863 0 -1 0
1631 1 2 0 8.35858300434247 0.09460147530697086 5.891176411149041 0 0 0
1647 1 3 0 6.571646400465535 16.601301902466304 5.5074284088023004 0 -1 0
2460 1 2 0 9.409814755028151 0.4646906069019775 6.061126981485574 0 0 0
1649 1 3 0 7.72448949009771 16.492656942393083 4.777856957740656 0 -1 0
2591 1 3 0 9.215094434072054 17.609167087874035 6.39294222786192 0 0 0
2504 1 2 0 9.183775892540021 18.328304200621126 7.195197129670215 0 -1 0
1712 1 2 0 10.201112795932557 18.56557253135995 4.895916467183197 0 0 0
1673 1 2 0 11.558980410249424 0.04453311641135471 5.859170514646992 0 0 0
2589 1 3 0 10.382924476238362 16.279360087144653 6.118816346919403 0 0 0
2459 1 2 0 9.298352851013819 18.238774785345164 5.516041936263476 0 -1 0
2590 1 3 0 9.586433977473321 16.84078741671359 5.926548048797196 0 0 0
1713 1 2 0 10.461454547286468 18.329503515959097 5.879696576894153 0 0 0
1714 1 2 0 10.235683807535516 17.746114737148343 6.608141053847775 0 0 0
28 1 1 0 10.699284423907967 17.023356755072676 5.324843174772963 0 -1 0
1715 1 2 0 9.836160219741139 16.98079485751642 7.027787526189798 0 0 0
1672 1 2 0 11.182586974191741 17.82064520072232 5.487880383233522 0 -1 0
1652 1 2 0 11.516438745475579 16.526265274746105 5.5499101657041745 0 -1 0
2634 1 3 0 11.749669605343579 17.56133432085528 7.484950011763837 0 -1 0
2636 1 3 0 11.066590522755561 16.900411694486234 6.619358277122523 0 -1 0
2514 1 2 0 13.365337499477656 17.9763974799818 4.87855474274354 0 -1 0
2643 1 2 0 13.391996311673184 16.50742360070369 4.731398534129243 0 0 0
1736 1 2 0 12.37937333357776 18.38978919342334 4.792463479138061 0 -1 0
1653 1 2 0 12.383105824382303 16.158348610521525 5.59281426823956 0 -1 0
2613 1 2 0 12.06072401679189 16.358637611857553 6.703061667253487 0 -1 0
2612 1 2 0 12.034692074306932 17.221283248759338 6.232176703174188 0 -1 0
52 1 1 0 12.561910430157369 17.884724785083247 5.637085947956947 0 -1 0
2642 1 2 0 12.737037014740183 17.091998816522693 5.141812070042967 0 0 0
2760 1 2 0 13.332492736574455 17.392632539272732 6.280125500695928 0 -1 0
1654 1 2 0 13.254380186517341 16.46213600738339 5.747976651355429 0 -1 0
2513 1 2 0 13.710137421801477 18.132135189076752 5.78624720545656 0 -1 0
2759 1 2 0 13.999209012042806 16.976913772585323 6.797023144042895 0 -1 0
1505 1 3 0 14.92027665149527 16.177488674372498 5.092326502069285 0 -1 0
2637 1 3 0 16.07410491935195 16.580148776837788 5.666413029529308 0 -1 0
2638 1 3 0 15.550743941912247 17.178356996186057 5.1998044870993985 0 -1 0
1655 1 2 0 13.990776091793691 17.01312439384377 5.517515229049929 0 -1 0
2758 1 2 0 14.575702914453654 17.61658588291889 7.185729997198036 0 -1 0
2641 1 3 0 16.17002764795926 16.44152764999181 6.766233329424161 0 -1 0
2640 1 3 0 15.311151800295033 16.969171006155996 6.882036397828424 0 -1 0
2639 1 3 0 15.012444659433925 16.934608347581634 5.988439576449964 0 -1 0
2724 1 2 0 16.253605861464695 18.34782463931464 4.350108661960392 -1 -1 0
3484 1 2 0 16.015740920366678 15.464852010669714 7.679851152295423 0 0 0
3400 1 2 0 17.33588012925717 16.16895420684018 6.112927481913187 -1 0 0
2622 1 2 0 17.70373444128389 16.665774496863058 4.397847485607997 0 -1 0
3399 1 2 0 17.134353653080396 16.90307721823677 5.566501524226397 -1 0 0
3398 1 2 0 16.744329809143863 16.620432739467443 4.677366539209981 -1 0 0
2665 1 3 0 16.6789260877586 14.684605482663029 6.931147773482329 0 0 0
2728 1 2 0 17.75279035459129 18.38654594060948 6.985906073656753 -1 -1 0
2625 1 2 0 16.71790398498171 18.52411712333849 6.008937930819746 0 -1 0
2624 1 2 0 17.444304820640657 17.930541100453482 5.752752684676937 0 -1 0
2725 1 2 0 16.342826378691697 17.832364070323678 5.192739244298989 -1 -1 0
2727 1 2 0 17.157726315480765 17.694711179903173 6.603242101144442 -1 -1 0
2726 1 2 0 16.334962338624663 17.48392874175295 6.151972184732299 -1 -1 0
2626 1 2 0 16.26992220247221 18.54221335359298 6.902883524074341 0 -1 0
2730 1 2 0 0.5336863258871838 0.8084806663948341 6.7857411264206 0 0 0
2731 1 2 0 0.9398308402521482 1.629254148277951 7.178689082932849 0 0 0
2732 1 2 0 1.586969459887032 2.1262364146707626 7.695374416107555 0 0 0
3512 1 2 0 18.096733233310317 2.373745505840331 6.589033759394948 -1 0 0
3511 1 2 0 0.04186043484352453 2.0694440087217005 7.303888340992266 0 0 0
3510 1 2 0 18.362459538965563 2.5628108424983513 8.124676053852568 -1 0 0
1867 1 2 0 4.753049056405269 2.8382562314705173 6.983453932501967 0 0 0
1471 1 2 0 3.2928114074231685 2.672955949649215 7.616360513265133 0 0 0
1472 1 2 0 3.4249583506724033 1.78812521839553 7.183422897480676 0 0 0
1473 1 2 0 3.7090982740806613 1.338694381267538 7.963047121966586 0 0 0
1478 1 3 0 4.0648525550261105 1.9607356519788988 6.380978968850756 1 1 0
1479 1 3 0 4.571174786352661 1.726535219144945 7.106769004622389 1 1 0
1480 1 3 0 4.356849223382386 0.7389907533674434 7.273858940313273 1 1 0
1826 1 2 0 4.852257159239503 2.70201557745587 9.521629797310617 0 0 0
49 1 1 0 4.554322233245736 0.8549533172398812 8.286701693121985 0 0 0
2690 1 3 0 2.711511436729111 1.7497770700237183 7.959225701057741 0 0 0
2689 1 3 0 2.4543995124348124 1.0317202489540376 8.495612754370281 0 0 0
2480 1 2 0 5.670582283363869 1.2507788138028184 6.760623653162575 0 0 0
1868 1 2 0 4.659479987283115 2.7235226942738078 7.934811950596163 0 0 0
1824 1 2 0 5.068336821936327 1.8703720548823204 8.821732754065163 0 0 0
2508 1 2 0 6.4524741651464765 0.783126823860045 7.769843451600147 0 0 0
3830 1 2 0 6.06425919513293 2.1018355583796526 7.825054511817296 0 0 0
3604 1 3 0 6.713154783118138 1.5019095139107432 9.611266336952932 0 0 0
1823 1 2 0 5.820496725070462 2.4796603987270025 8.808865269081366 0 0 0
1822 1 2 0 6.761781783195219 2.783928070330611 8.825911217454964 0 0 0
2507 1 2 0 6.659470766521922 0.6238291528876984 6.861823176864657 0 0 0
2509 1 2 0 5.751837956159018 0.9627169725414517 8.349277767656131 0 0 0
3831 1 2 0 6.993468871164168 2.2809929946732486 7.96006278531718 0 0 0
3605 1 3 0 6.576925684144142 1.690940408903145 8.726352136991384 0 0 0
3603 1 3 0 6.788886429541178 0.6283567612009481 9.80535976345377 0 0 0
1825 1 2 0 5.460013782154709 1.9577562279313419 9.68189897771302 0 0 0
2485 1 2 0 9.239921963521443 2.258179948256115 7.49954534512111 0 0 0
1633 1 2 0 7.716505189639114 1.108728478699004 6.486366103017011 0 0 0
3917 1 2 0 8.405132772730031 1.4882167662660915 8.159959095848874 0 0 0
79 1 1 0 7.862937471358888 2.334759562559632 8.290309576898455 0 0 0
3887 1 2 0 7.957887095080334 2.38676977611357 9.236272948086247 0 0 0
3596 1 2 0 8.306302406347827 0.7818635194014836 9.023978484416526 0 0 0
3606 1 3 0 7.266548448078647 1.3498427670145423 8.235243765381714 0 0 0
1634 1 2 0 7.590910681244323 0.7696853242134043 7.370764892595093 0 0 0
3918 1 2 0 8.62315971501038 0.5731198317034979 7.9518706785135365 0 0 0
2524 1 2 0 8.835380819820166 18.44030343416073 8.85297763255542 0 -1 0
2462 1 2 0 9.406131483254455 1.2103561584032179 7.8179505426780205 0 0 0
2585 1 3 0 11.413759240564694 1.1234012974250418 6.820484030533691 0 1 0
2463 1 2 0 10.32403094118731 1.0802366826100123 7.613515291766287 0 0 0
2464 1 2 0 10.641592380782537 1.64856295210801 8.308001927017285 0 0 0
3595 1 2 0 9.087917125948776 1.3109464153387356 8.934505166422051 0 0 0
3594 1 2 0 9.869750590806252 0.724034759596931 8.75656996432724 0 0 0
2465 1 2 0 10.82870510249698 1.5653734363125693 9.284990627295997 0 0 0
3593 1 2 0 10.845366996937392 0.6894337348350241 8.568381794158036 0 0 0
2582 1 3 0 11.809798898703715 1.8719965420161992 7.577597836043142 0 1 0
2892 1 2 0 11.691667377602805 0.17443450647319111 7.7108614105891125 0 0 0
3919 1 2 0 9.498222496587474 0.1566880210008814 8.013146466618617 0 0 0
51 1 1 0 13.496345384448254 18.396978855460315 7.6015494052581 0 -1 0
2858 1 2 0 13.73802937455666 1.1715969355121916 7.951457505148431 0 0 0
2563 1 2 0 12.261342026170535 1.0734015007216544 7.81329673794261 0 1 0
3677 1 2 0 11.614873019122014 1.408377814694976 8.713570082742661 0 0 0
2562 1 2 0 12.696148977716506 0.23251939173184918 8.011581449826252 0 1 0
3678 1 2 0 11.462829507193343 2.3298262051953387 8.676524997778095 0 0 0
2564 1 2 0 12.923981022314392 1.6532720185638392 7.371226681260162 0 1 0
2859 1 2 0 14.304087556505621 1.8536334175962779 8.361215605372882 0 0 0
3592 1 2 0 11.5856536189036 0.17421566716244866 8.866230281217298 0 0 0
2471 1 2 0 13.650816862582417 0.0781582311734006 8.493423904901986 0 0 0
3946 1 2 0 14.660529283941319 2.2734682637483408 7.325830091581013 0 0 0
3755 1 3 0 14.65571116870338 0.6614790025840632 8.261200459512933 0 1 0
3945 1 2 0 15.601631490684357 1.9184617952096659 7.170963190574162 0 0 0
3944 1 2 0 16.18608037593828 1.2669429039229672 7.618213947336557 0 0 0
2595 1 2 0 14.75855763033311 1.2186114851471226 7.424214753461086 0 0 0
2596 1 2 0 15.271098529918957 1.5146772322902993 8.120323252291094 0 0 0
2741 1 2 0 14.7691447334614 1.8795419963083395 9.34142705209613 -1 0 0
2597 1 2 0 15.787824279822809 2.3284607998501463 8.137216567063025 0 0 0
3754 1 3 0 14.605177210189042 18.454023886082847 8.891860830514736 0 0 0
471 1 2 0 17.409506794140302 1.1223042330810733 7.403934344656505 -1 0 0
472 1 2 0 17.7323946331276 0.8400113465555715 8.314424478709924 -1 0 0
3770 1 2 0 0.058205581410372416 1.481636952104937 8.32774995267265 0 0 0
2627 1 2 0 15.67523189109741 18.2411016938804 7.562105898677753 0 -1 0
1739 1 2 0 1.5914278813814364 3.303474177350229 6.779566205315491 0 0 0
2749 1 2 0 0.6387286461661312 3.9704738392764423 6.762529445826609 1 0 0
1738 1 2 0 1.0412869884801752 2.879447177499457 7.438551295785283 0 0 0
1737 1 2 0 0.8739330895764984 2.7564844926752885 8.428006653287033 0 0 0
2750 1 2 0 18.288170292685994 4.356988949780808 6.829509031517726 0 0 0
2734 1 2 0 1.727876944715341 3.462350710678839 7.959598016551504 0 0 0
2735 1 2 0 0.8390003335978686 3.6964103517657056 7.993996493367603 0 0 0
1758 1 2 0 0.9822013772455911 5.022704804958685 8.366902322442904 0 0 0
30 1 1 0 0.9546804118153591 3.3617747967822242 9.194574423779121 0 0 0
2736 1 2 0 0.14066579474161903 3.347982589834651 8.543917560934116 0 0 0
3005 1 3 0 2.732701635649886 3.3360589654082586 8.839204977460314 0 0 0
2717 1 3 0 0.0850771025928612 4.252788515300307 9.414159401545453 0 0 0
1757 1 2 0 1.1763480848917447 4.196717332271534 8.922628095492993 0 0 0
2733 1 2 0 2.2016379774813335 2.7370391360385717 8.005984156242599 0 0 0
1470 1 2 0 2.7794959334653795 3.296005028976288 7.145729868126984 0 0 0
3006 1 3 0 2.7216725790754053 3.89471766921417 8.042312890325839 0 0 0
2808 1 2 0 3.9224796131611956 3.4018103264996746 7.293358666971799 0 0 0
2807 1 2 0 3.747187894604993 3.4097815095497497 8.249350933154147 0 0 0
54 1 1 0 4.336265033594551 3.4529350341872433 9.117234234539293 0 0 0
2977 1 2 0 2.342608737775667 4.897287633759876 8.254570307148041 0 0 0
2777 1 2 0 4.212409684836199 4.4172102573793 9.291871968171865 0 0 0
1869 1 2 0 5.2028651065002265 3.366533616017735 8.446831156475417 0 0 0
3827 1 2 0 4.574328835899602 4.277105746231251 8.108919597183124 0 0 0
3829 1 2 0 5.602394925778967 2.8281025498477033 7.589389952632516 0 0 0
3828 1 2 0 5.021405896510774 3.6960795710321306 7.530717544019933 0 0 0
2679 1 2 0 6.047723096219525 4.047154028690426 7.69342549927267 0 0 0
2680 1 2 0 5.693101211308957 4.560225186687979 8.369026409410248 0 0 0
1821 1 2 0 7.137888768073563 3.347811506358671 8.135954688622618 0 0 0
1870 1 2 0 6.068244058097908 3.651204666297907 8.81680747609514 0 0 0
2782 1 2 0 6.888477547914392 4.357697499168961 8.489787368019702 0 0 0
2486 1 2 0 9.545102670569317 2.249807956853689 8.50875890307216 0 0 0
3867 1 2 0 8.25782730823816 2.8298108159278876 7.563068338776388 0 0 0
3868 1 2 0 8.18466648032921 3.683524605696665 7.939731740527265 0 0 0
1820 1 2 0 7.260241730460545 3.7500180743686884 7.276295227086819 0 0 0
2783 1 2 0 7.335139636990759 5.015033210879734 7.924074567440746 0 0 0
3869 1 2 0 8.554492018465863 4.38527696690929 8.455196081977462 0 0 0
2821 1 2 0 8.608518212871672 3.1470289230536115 8.890397776257142 0 0 0
2820 1 2 0 9.06994554223944 3.364602468118395 8.036710518664025 0 0 0
3870 1 2 0 8.908220005940668 4.718511483929013 9.23336700197995 0 0 0
3888 1 2 0 8.245836551946795 3.0125976982920717 9.86061768957219 0 0 0
2819 1 2 0 9.790940463287885 3.1511412461412576 7.4884785820229745 0 0 0
2487 1 2 0 10.053667536097068 3.0893621386037586 8.535704931125853 0 0 0
3123 1 2 0 11.660357865837822 4.012185444783102 8.798887979121938 0 0 0
2890 1 3 0 11.78931681891291 2.899648080094073 6.598991589994102 0 0 0
3679 1 2 0 10.711277123279405 2.5577925685238387 9.28845676838323 0 0 0
2889 1 3 0 11.810033092129771 3.6622432664887663 7.134269939294662 0 0 0
1921 1 3 0 14.163143733067265 3.278972943588552 7.6017536429107535 0 0 0
2888 1 3 0 12.286619007585914 2.9044896806325933 7.506870566497591 0 0 0
1909 1 2 0 11.645453647038485 5.074407482522198 7.512205196985316 0 0 0
1910 1 2 0 11.443226028511056 4.905102988600354 8.472761202294398 0 0 0
2874 1 2 0 13.595340748936461 4.204746497868987 7.19142838536496 0 0 0
3124 1 2 0 12.48801594379014 3.8078681057420463 9.260186571176616 0 0 0
2887 1 3 0 13.086156891564281 3.441014514143275 7.438287659692151 0 0 0
3949 1 2 0 12.604879131468847 2.7570566144613466 8.567193115150397 0 0 0
4921 1 2 0 12.926621104950538 4.188877735049477 8.193392078723983 0 0 0
3948 1 2 0 13.433217533616215 2.632722776161867 8.186250909399831 0 0 0
4920 1 2 0 12.57738247524954 4.90128934406643 8.655477969262755 0 0 0
2875 1 2 0 14.312784820615715 4.237661443326822 7.87572790086275 0 0 0
3947 1 2 0 13.69296508607663 2.317896827197974 7.327006654182482 0 0 0
2598 1 2 0 16.502077178634924 2.1860297927849324 7.533509672386131 0 0 0
2599 1 2 0 17.16469646639849 1.9279326527649392 6.849847503038138 0 0 0
4922 1 2 0 13.605778178454452 3.515615876738203 8.491380840720266 0 0 0
2860 1 2 0 14.864974594540353 2.5786543004956335 8.391258961820819 0 0 0
2877 1 3 0 15.239763936776638 3.263167744129798 7.412014471702435 0 0 0
2861 1 2 0 15.378694813747726 3.399964090672906 8.380491354329793 0 0 0
2862 1 2 0 15.744813601474032 4.228558497624393 8.582604055799054 0 0 0
2863 1 2 0 15.525901450769318 4.4715554153570425 9.497185078287943 0 0 0
3969 1 2 0 14.447043081365912 4.1513366127954425 9.009683800569853 0 0 0
2768 1 3 0 16.74750019907603 3.445620169260901 7.865843306895191 0 0 0
2876 1 2 0 14.95681872574715 4.7402747057911325 8.297026254035757 0 0 0
3968 1 2 0 15.003097897830582 3.616756254472302 9.502343725744892 0 0 0
2600 1 2 0 17.275581098968527 2.0139932430156944 5.908632666221789 0 0 0
3769 1 2 0 17.662473041840624 1.887076314567305 8.070628673876934 -1 0 0
2767 1 3 0 17.44408215153927 2.880154030142886 7.6715991231475975 0 0 0
3768 1 2 0 16.96163591461036 2.33746486053471 8.586496030283811 -1 0 0
2697 1 2 0 18.557470492613483 3.243048801351551 7.307979163687956 -1 0 0
2698 1 2 0 18.004817773220346 3.822491721410007 7.793102194690938 -1 0 0
2737 1 2 0 17.733399407577803 3.2971221783891225 8.662782365186475 -1 0 0
2769 1 3 0 16.75398037486745 4.015029534646782 8.593771905215894 0 0 0
2699 1 2 0 18.059503753093466 4.312171575201591 8.623146205464089 -1 0 0
3767 1 2 0 16.23934651089676 2.8849787024691396 8.791459907826528 -1 0 0
2770 1 3 0 17.37739450890406 3.949685612284533 9.304725710727306 0 0 0
2978 1 2 0 1.8634962506568797 4.970142953901707 7.467023072824833 0 0 0
2979 1 2 0 1.898604888012379 5.926442197155591 7.160479028059435 0 0 0
2952 1 2 0 18.44651036866452 6.343624467201776 8.566102076901412 0 0 0
2766 1 3 0 2.7177949600823754 6.427237190853502 6.688888162773283 1 0 0
2951 1 2 0 0.46838765043525643 7.026793787903826 8.970177844186777 1 0 0
4082 1 3 0 0.9004509833808345 6.003137738590722 8.704115902522425 1 0 0
4083 1 3 0 1.084379306600588 6.023802096479543 7.818201766612785 1 0 0
4090 1 3 0 17.705733415405916 6.578277947711014 7.500751712579702 0 0 0
2922 1 2 0 0.45545012287497716 6.872742661484531 7.815860370380716 0 0 0
2923 1 2 0 1.3560772236290048 7.122983407115554 7.839008317793057 0 0 0
2990 1 2 0 1.9430286603447842 6.132927554808184 9.426110681860864 0 0 0
2950 1 2 0 18.443186978288036 7.768655783834134 8.78796505789491 0 0 0
2851 1 3 0 4.622657528798746 6.233839226067224 7.954751916228857 0 0 0
2764 1 3 0 3.081063631136992 4.711500398754202 7.270352347472348 1 0 0
4027 1 2 0 3.5141188739502467 6.985665977260447 7.609614067116167 0 0 0
2976 1 2 0 3.2588440900356996 4.802096857196955 8.597606647945453 0 0 0
2765 1 3 0 3.238966363491216 5.574117539066067 6.790778451611435 1 0 0
4085 1 3 0 2.761497626540325 5.674532851054089 7.789545774801444 1 0 0
4084 1 3 0 1.9006116852451564 5.911333268764572 8.247972884604508 1 0 0
4028 1 2 0 3.49590336429733 6.47538246477898 8.415002072478766 0 0 0
2925 1 2 0 2.6043168489216626 6.730301725788344 8.81098043636057 0 0 0
4086 1 3 0 3.7131333225982806 5.570915918346415 7.902530150495823 1 0 0
2924 1 2 0 2.380167051758673 7.050012263817641 7.85105937732925 0 0 0
3826 1 2 0 4.681752836284383 5.119326456207868 8.513825903633093 0 0 0
2850 1 3 0 4.538916393858275 7.194769911799823 8.167398590758008 0 0 0
4303 1 2 0 5.353040778369808 7.377504484497485 7.41401952064499 0 0 0
4270 1 2 0 4.588559028402396 6.27514579259488 8.948007931821826 0 0 0
2053 1 2 0 5.489748020312878 5.427832438776884 7.705272580861339 0 0 0
4271 1 2 0 5.452106534370882 6.063721828737395 8.618326079551938 0 0 0
2054 1 2 0 6.216148684431922 5.392278023759826 8.321392298519603 0 0 0
2055 1 2 0 6.564705002747149 6.026644630600841 9.000248283844112 0 0 0
4302 1 2 0 5.513744314345733 6.446521557554561 7.42270246433106 0 0 0
88 1 1 0 6.195564065274637 6.584442904383661 8.151985658402467 0 0 0
2849 1 3 0 5.409770908535766 7.1135412477815985 8.588196910823811 0 0 0
2848 1 3 0 5.982214354462788 6.724062638006485 9.319850253826244 0 0 0
3135 1 2 0 6.877541324964947 6.56074433798173 6.934898607693264 0 0 0
2784 1 2 0 6.626086673426121 4.835820199959138 7.348622549879881 0 0 0
3099 1 2 0 9.076300400833214 6.279058320965004 7.919136310928425 0 0 0
1841 1 2 0 8.321162257274011 5.22510380613025 7.173575856571835 0 0 0
3211 1 2 0 7.167933979211479 6.283014080519551 8.236677395156336 0 0 0
3013 1 2 0 8.47279139995887 5.447947856801813 8.3416905747709 0 0 0
3012 1 2 0 8.252034147874879 6.2048913698324935 8.869391239535508 0 0 0
60 1 1 0 7.854859782667499 6.9849982430161965 8.476150509540993 0 0 0
1840 1 2 0 7.965026625453441 6.021038137021629 7.527560380856625 0 0 0
3210 1 2 0 7.403366332799173 5.509617637025035 8.891493795471803 0 0 0
2056 1 2 0 7.341294822992027 6.528015003962355 9.173662782590757 0 0 0
3098 1 2 0 9.433937341773314 5.70644947390601 8.586050983682151 0 0 0
3014 1 2 0 9.187634449457931 5.079234314055609 7.751768916432594 0 0 0
3132 1 2 0 9.431212403803071 5.775453169087419 6.968339069060435 0 0 0
3131 1 2 0 10.28759341296027 5.979185162501201 7.4467577303929895 0 0 0
3015 1 2 0 9.738989382812 4.232028983042531 7.783466174693621 0 0 0
3122 1 2 0 10.679018040369696 4.197782042616403 8.654077927655337 0 0 0
3097 1 2 0 10.148454943497661 5.146669853753644 9.058634116465289 0 0 0
3031 1 2 0 10.713637313801307 4.703689025945659 7.330014974157603 0 0 0
61 1 1 0 10.496855661270962 5.163805190786818 8.168119335109507 0 0 0
2131 1 2 0 10.670055297133398 6.070364280169543 8.384052231791761 0 0 0
2842 1 2 0 9.791187360232025 6.676113842718974 8.581383831896401 0 0 0
1911 1 2 0 11.309508516044836 5.07984613788659 9.400412409254065 0 0 0
2843 1 2 0 10.184338975615965 6.097587445679649 9.314503730498648 0 0 0
2873 1 2 0 12.631458285269707 4.487031659698608 7.166715645637714 0 0 0
2871 1 2 0 13.078724250963846 6.234010871610742 7.03347657487784 0 0 0
3130 1 2 0 11.2664999168598 6.1371243697983955 7.281715253185882 0 0 0
4180 1 2 0 13.476739001865617 5.1273587920303765 7.7251745777719085 0 0 0
4179 1 2 0 12.605565154390382 5.572539059907485 7.911120821765761 0 0 0
3127 1 2 0 12.769454778173268 5.937652117321033 9.090145383372551 0 0 0
3129 1 2 0 11.849228009967087 6.765415940075986 7.755690772887083 0 0 0
3128 1 2 0 12.609575538536895 6.511119136583005 8.2889107892469 0 0 0
4178 1 2 0 11.810368311209082 5.879190500353561 8.46994721436013 0 0 0
3971 1 2 0 13.697287591427138 5.882927743844257 8.575517068490768 0 0 0
3970 1 2 0 14.047140077974959 5.020384479876585 8.7384609892307 0 0 0
2171 1 2 0 14.979047391129548 6.3144550592700694 7.4214897819796235 0 0 0
2099 1 2 0 15.742333557426463 6.42472481419441 6.683818256848974 0 0 0
2956 1 2 0 16.012730990422035 4.783439829462773 7.459221432540212 0 0 0
3148 1 2 0 14.576661796126395 6.626614343029872 9.043227074968328 0 0 0
3147 1 2 0 14.818886018512472 5.9859678252941375 8.388328154505677 0 0 0
62 1 1 0 15.207168872819446 5.404643467015716 7.690240484730595 0 0 0
4230 1 2 0 14.93346835339686 5.350737961570182 9.158593210521072 0 0 0
4231 1 2 0 15.71443652135915 5.350087478483353 8.60824719486169 0 0 0
2867 1 2 0 15.543713881527637 6.610769365607851 8.489454648841209 0 0 0
2882 1 3 0 16.03664915259012 6.200473750599729 7.773542891492555 0 0 0
2702 1 2 0 16.944629162231173 5.694891130155179 7.117448045015989 -1 0 0
2955 1 2 0 16.942093098204175 4.5966698210707735 7.643524321063245 0 0 0
2954 1 2 0 17.78036069893005 5.007076887052945 7.766912725053295 0 0 0
2953 1 2 0 18.198564284092026 5.412312444190101 8.576405887718296 0 0 0
2701 1 2 0 16.836341974461806 5.462692486209163 8.110439922645728 -1 0 0
4089 1 3 0 16.902034543777447 6.682637900070547 8.047796705795008 0 0 0
2700 1 2 0 17.334847624944235 4.9013848044775346 8.750797772498375 -1 0 0
4232 1 2 0 16.483980487211152 5.932331035363394 8.884172780838076 0 0 0
4088 1 3 0 17.596172025842552 6.965421156289598 8.574157717859102 0 0 0
3192 1 2 0 1.271708335069797 9.244822825244253 7.63255655217098 0 0 0
2987 1 2 0 2.102903716287176 8.430832001751712 7.705426406380168 0 0 0
2921 1 2 0 18.493762506120184 7.676159332481131 7.748789614929229 -1 0 0
2948 1 2 0 0.8749532727959076 9.164597050106101 8.70094905276515 1 0 0
2989 1 2 0 1.612500292254454 6.899353932444706 8.894558097229332 0 0 0
4020 1 2 0 0.5341962915064042 8.504793619067213 7.520315201954487 1 0 0
2947 1 2 0 0.8223786364623472 10.011434528625767 8.229229117740903 1 0 0
4019 1 2 0 18.510224288073264 8.72657715508912 8.291111468659848 0 0 0
2949 1 2 0 0.7492731641965026 8.197695585107345 8.88557544678293 1 0 0
4283 1 2 0 2.28285321989833 9.445428191951956 9.186586312861422 1 0 0
4305 1 2 0 4.433195823882465 7.763508247357358 7.153628997511048 0 0 0
2988 1 2 0 1.8326732166847717 7.7626140351222555 8.475029781184116 0 0 0
2986 1 2 0 2.6474065558414708 8.715529241297832 7.034114398396607 0 0 0
4307 1 2 0 3.0936871886459087 8.204600329914557 7.974861596497 0 0 0
4029 1 2 0 3.611329845327316 6.542409467597901 9.39779345201954 0 0 0
4308 1 2 0 2.9209170016574197 9.119274981606452 8.25432814632192 0 0 0
4306 1 2 0 3.662835190337829 8.347124247117874 7.214537962022969 0 0 0
4309 1 2 0 3.3696186205289034 8.637895385949065 8.979749124758074 0 0 0
3246 1 3 0 2.6877040777416292 9.877820585922622 6.926789860689254 0 0 0
3011 1 3 0 4.247017525778247 8.14319413710237 8.871232508347482 0 0 0
4277 1 3 0 4.030520538626798 9.469337910573563 9.036892707149791 0 0 0
4266 1 2 0 4.884489802467985 9.787514756492195 9.132995038313654 0 0 0
4322 1 2 0 6.63652441820326 7.222811711139056 8.729808786213042 0 0 0
4269 1 2 0 4.563108982203581 7.175195590877496 9.27240057808076 0 0 0
3270 1 3 0 4.858817443507775 9.105044074936163 8.271139469232462 0 0 0
3271 1 3 0 3.9491044977398877 8.92597251742917 8.151014737829334 0 0 0
3136 1 2 0 6.680309019358126 7.208560543885223 7.579074910364158 0 0 0
3269 1 3 0 5.736062441899247 8.850329249868828 7.974698078338801 0 0 0
3137 1 2 0 6.127985645916659 7.841782650265935 8.00420455771287 0 0 0
4323 1 2 0 6.546451964532369 8.194907212186278 8.946518331526795 0 0 0
3138 1 2 0 5.537213929311926 8.097784013256724 8.762753960092708 0 0 0
4324 1 2 0 6.848979862239709 8.612285033464376 9.763882522576605 0 0 0
3096 1 3 0 5.658160708420471 8.300046586631414 7.006159586233784 0 0 0
3220 1 2 0 7.447642593173387 9.13235441476835 6.83612266210868 0 0 0
1839 1 2 0 7.629050695821301 6.974184525097383 7.481417453275114 0 0 0
3062 1 2 0 8.779423675314213 7.085489689454175 8.540595343906315 0 0 0
3076 1 2 0 8.026156422944746 8.166049443616306 7.290250827623139 0 0 0
3043 1 2 0 7.0379896525559005 8.699035706117163 8.046655739247809 0 0 0
3077 1 2 0 8.29535829793289 7.957100416136207 8.213377207510447 0 0 0
3042 1 2 0 7.302401775181623 7.806142849335855 8.207058161424877 0 0 0
2839 1 2 0 8.940677963330439 8.992173840026608 7.873793970170338 0 0 0
3078 1 2 0 8.236552462592456 7.821474564709505 9.13416680797023 0 0 0
2969 1 2 0 7.623289992056614 8.551746003507139 8.969414042794334 0 0 0
3232 1 2 0 8.509318437553878 9.14942346713099 9.17637730579463 0 0 0
4451 1 3 0 9.3765862234196 6.822103962349579 9.704367195312207 0 0 0
3238 1 3 0 10.091881762985192 8.900026344544097 7.079296393498886 0 0 0
3063 1 2 0 9.22778048977412 7.8967606087818165 8.712073939183242 0 0 0
2840 1 2 0 9.327602298904795 8.165514229004362 7.563201813593704 0 0 0
3239 1 3 0 10.370157584726464 8.021107839734823 7.393939796612773 0 0 0
2841 1 2 0 9.836340148593779 7.449535823450497 8.01493920304668 0 0 0
3237 1 3 0 9.645956626797732 9.658924040366218 7.475291411404918 0 0 0
3240 1 3 0 11.14567082332332 7.666781578781956 7.890016430839453 0 0 0
3065 1 2 0 10.83019164622466 8.838519953738475 7.885926268007332 0 0 0
3064 1 2 0 9.913194235090787 8.440279557541281 8.316760238552046 0 0 0
3233 1 2 0 9.462288660393176 9.171846989494858 8.93490657423558 0 0 0
2129 1 2 0 10.736461644787994 7.891591651790761 8.817922593035588 0 0 0
2128 1 2 0 10.653059126240436 8.817917329664356 9.08925831507629 0 0 0
2130 1 2 0 10.917033065199055 6.97293422512929 8.682706506849518 0 0 0
3241 1 3 0 10.847126680780821 7.126716795393356 7.180595372896921 0 0 0
3972 1 2 0 13.916417333125546 6.709173839450759 8.127607159158027 0 0 0
4206 1 2 0 11.979886061129358 8.391487781425806 7.359131349879702 0 0 0
4194 1 3 0 12.918636518075667 7.271920268651203 9.902101173463183 0 0 0
4205 1 2 0 11.793676633900194 8.368917976055345 8.278240767046825 0 0 0
4204 1 2 0 11.592672295788125 8.202166844915586 9.263211697597203 0 0 0
3283 1 2 0 12.112249454359933 8.774229698307906 6.479427041600069 0 0 0
3142 1 3 0 12.057645880891286 7.436215842286696 7.068198321648146 0 0 0
3143 1 3 0 12.75793452352101 7.690721754807736 7.647314039920587 0 0 0
3144 1 3 0 12.870821961260923 8.056242271175856 8.566940651831354 0 0 0
3973 1 2 0 13.767583566576182 7.662320813661269 8.072368409992741 0 0 0
3151 1 2 0 13.890802913462979 9.214712998320968 8.082972058564895 0 0 0
3152 1 2 0 13.890077513487741 9.559890658385452 7.205305919513065 0 0 0
4192 1 3 0 12.00320284231633 6.4749517552229525 9.94357672359084 0 0 0
3145 1 3 0 12.604989873949291 8.731253187139835 9.250481671209064 0 0 0
3150 1 2 0 13.914453960588057 8.492480827505304 8.666526275764603 0 0 0
2884 1 3 0 15.900937189952645 7.7863481274924595 6.83494624853971 0 0 0
2869 1 2 0 14.399300352167067 7.319409296671909 7.254004867209007 0 0 0
2886 1 3 0 14.174198408023287 8.279860649463945 6.742108241848818 0 0 0
2868 1 2 0 14.872479945466845 7.1800182967371935 8.052814677359725 0 0 0
3974 1 2 0 14.57806654254825 8.243726465846807 7.909518446886345 0 0 0
3363 1 3 0 15.556382561721364 7.895776438203137 8.328396060161285 0 0 0
3975 1 2 0 14.872391103126292 8.773030947377503 8.672002685745356 0 0 0
2885 1 3 0 15.141904317105546 8.238931413162405 6.529078553655457 0 0 0
3364 1 3 0 15.310061580506472 7.565954859546477 9.207262362220987 0 0 0
3366 1 3 0 16.245590239918666 7.253640340055659 8.874426043935971 0 0 0
3362 1 3 0 15.557183708390482 8.532282707750063 7.5752404931619015 0 0 0
3976 1 2 0 15.794359683171058 8.936428542781684 8.691853193762137 0 0 0
3149 1 2 0 14.291897968183948 7.590212532130784 8.942120986965968 0 0 0
3980 1 2 0 18.120467909085797 8.365367831935352 7.2032812690237416 0 0 0
3979 1 2 0 17.8667914426047 9.293904787479718 7.291062378404967 0 0 0
3987 1 3 0 16.8254661141302 6.990474787160799 6.726546283947446 0 0 0
2883 1 3 0 15.91147496502987 7.117852256545408 7.5315367304221645 0 0 0
2920 1 2 0 17.654019340061517 8.116180522844212 8.170393842621934 -1 0 0
2918 1 2 0 17.1816253179265 8.779894627840797 6.63741880062658 -1 0 0
3982 1 2 0 16.853352156835232 7.537318824666254 7.473524247471391 0 0 0
3983 1 2 0 16.70187043568447 8.000539139037363 8.248710512250891 0 0 0
2919 1 2 0 17.0076327553318 8.612060989129397 7.566812609665424 -1 0 0
3977 1 2 0 16.664092138063346 9.123051676110437 8.364418944265525 0 0 0
4018 1 2 0 18.058174153099433 8.720738506666498 9.11008605746519 0 0 0
3984 1 2 0 17.103565386744464 8.055471941733984 9.176125147913195 0 0 0
2224 1 3 0 0.2807362521250789 9.749842788316755 7.320592012181927 1 0 0
3193 1 2 0 1.9811119645130195 9.672947550734097 8.134734618516614 0 0 0
2945 1 2 0 0.6291368149653707 11.042281771015924 6.724180142545959 1 0 0
4284 1 2 0 2.061785091715504 10.347512075060523 8.982806297204808 1 0 0
4285 1 2 0 1.5142341252055023 10.951080738181927 8.460688355177341 1 0 0
2946 1 2 0 0.8785489157301987 10.699616412257525 7.567360747318509 1 0 0
4286 1 2 0 1.9872422811476316 10.932882001698049 7.608150157768326 1 0 0
3407 1 2 0 0.6064282145069805 11.525206325842044 8.225114715744569 0 0 0
3374 1 2 0 1.9530642749161573 11.275735846926427 9.380877429343633 0 0 0
5136 1 2 0 18.49626881661301 9.73284194221072 9.680902287499794 -1 0 0
5137 1 2 0 0.4357722869014194 10.565552997276244 9.802919516320484 0 0 0
5138 1 2 0 0.6793720677097863 11.268646813257568 9.24473917642852 0 0 0
3194 1 2 0 2.8194394810617998 10.181416263110647 8.013940691754582 0 0 0
3195 1 2 0 3.6221213341671863 10.847820626555562 8.098538348059035 0 0 0
3196 1 2 0 3.999375117260004 11.027777361877332 8.959189888136896 0 0 0
2291 1 3 0 2.6145378501079213 11.416105069974522 6.921585694317147 0 0 0
3225 1 2 0 3.7975242363532793 10.06155798824642 7.423824469179675 0 0 0
3373 1 2 0 2.639926107200238 11.152936629565044 8.649019766084068 0 0 0
3226 1 2 0 4.580854263823411 10.170606574601058 8.087944014965668 0 0 0
3227 1 2 0 4.870133241859778 10.769018527695064 8.834289816669703 0 0 0
3372 1 2 0 2.9635768363942967 11.633075087536929 7.880803724655291 0 0 0
3183 1 2 0 4.453848541478071 11.691120627656103 8.285581181364352 0 0 0
4279 1 3 0 3.0436660274961285 9.914262664597917 9.865983447283183 0 0 0
4278 1 3 0 3.3019261822466186 10.19197509478594 8.956671328138636 0 0 0
2355 1 2 0 4.651117428412324 10.932575191332031 7.392159540768227 0 0 0
2356 1 2 0 5.200414937509133 10.157819067804308 7.259719111493453 0 0 0
4264 1 2 0 5.613194997914444 10.850788110670074 8.128690238699937 0 0 0
3045 1 2 0 6.1762661819680815 10.18062211928031 7.458683444852917 0 0 0
3046 1 2 0 6.3528587787959925 11.161604771957263 7.190533751016587 0 0 0
3257 1 2 0 6.588377712948558 9.814241435644751 9.070826298225096 0 0 0
4265 1 2 0 5.620552412272774 10.02274886186901 8.491113694727641 0 0 0
3255 1 2 0 6.605010214620531 11.169153395836837 8.486942903380541 0 0 0
2968 1 2 0 7.734544297717625 9.366338834964075 8.452712532991532 0 0 0
3044 1 2 0 6.954427392310274 9.58135357746916 7.679862787923382 0 0 0
3256 1 2 0 6.939706267758423 10.312712640786165 8.357066333835975 0 0 0
2967 1 2 0 8.009470148703512 9.764129666388254 7.63463912437507 0 0 0
4214 1 2 0 7.395838017403113 10.645158465201554 7.438377722882792 0 0 0
4215 1 2 0 8.004300947778566 10.767705564945787 8.099926409210223 0 0 0
2838 1 2 0 8.91711586945203 9.861341673823953 8.273125498157986 0 0 0
4216 1 2 0 8.492982065548368 11.113656838664348 8.848339009957142 0 0 0
3231 1 2 0 8.259112370486607 10.054285089101121 9.292648224215904 0 0 0
3425 1 2 0 8.309691903282394 12.60853958402497 8.8631162151644 0 0 0
3066 1 2 0 11.220556884430366 9.252665259110037 7.073049418223602 0 0 0
3234 1 2 0 10.188961849922288 9.449653832361816 8.432992055417012 0 0 0
2837 1 2 0 9.469661437046138 10.21080869551943 8.995928924439852 0 0 0
3326 1 2 0 9.547448669221746 11.354611582021452 8.370751846968595 0 0 0
3235 1 2 0 10.923373359659076 9.882222876804144 7.843897981106025 0 0 0
2127 1 2 0 11.130404296464157 9.67831883531972 9.099820919948638 0 0 0
3325 1 2 0 8.90472068064414 11.302402242442108 7.6435424457165055 0 0 0
2125 1 2 0 10.39667191180524 10.667187923735534 7.93071104879193 0 0 0
2126 1 2 0 10.979767885170332 10.557137088701296 8.761592715803282 0 0 0
3236 1 2 0 11.279191938637709 10.50684435097983 7.1933326126129735 0 0 0
3432 1 2 0 10.657847357839291 11.628021720653857 8.981242887175378 0 0 0
3309 1 2 0 11.203660282509997 11.546644383104958 7.271953792256847 0 0 0
3361 1 3 0 11.950155853783908 9.557885779717044 8.299511306102252 0 0 0
3360 1 3 0 12.126489897672275 9.638791880150329 9.283465867125118 0 0 0
3282 1 2 0 12.877983591140845 8.977824210058362 7.017239142875969 0 0 0
3359 1 3 0 11.976840369082465 10.55153313332688 8.970992001148948 0 0 0
3281 1 2 0 12.888241114419582 8.85272877001538 7.983217854924582 0 0 0
2444 1 2 0 12.157423546309717 10.656558324462402 7.791625889773472 0 0 0
3278 1 2 0 12.919472141463345 10.58259430058288 7.026974390546005 0 0 0
3279 1 2 0 13.070389696717271 10.030759860970035 7.795836541763703 0 0 0
3280 1 2 0 12.992690970827496 9.53058053650115 8.640597773089853 0 0 0
2443 1 2 0 12.639646806504143 11.582425546885036 7.912390198401836 0 0 0
3357 1 3 0 13.539476833856668 11.491088025164617 8.710987968966396 0 0 0
3358 1 3 0 12.637649205543621 11.270500026999754 8.902554160269911 0 0 0
4390 1 2 0 13.614537548269796 11.19207304619026 7.622480736720529 0 0 0
3153 1 2 0 14.037615356117966 10.495227799530939 6.860974323854628 0 0 0
4391 1 2 0 14.0949317540674 10.366956341449365 7.951807526773356 0 0 0
91 1 1 0 14.917027005813306 10.488898435613672 8.496005628799182 0 0 0
3356 1 2 0 14.858676939604935 9.685044884988919 7.842684373921136 0 0 0
3355 1 2 0 14.998433803215482 9.082155628558658 7.124211357229235 0 0 0
4188 1 2 0 15.935629987882592 9.481718731589716 7.686184578023584 0 0 0
4189 1 2 0 15.866461750974098 10.100650673882065 8.427106162357552 0 0 0
3344 1 2 0 15.541776097761666 10.746052311528905 7.647812889376803 0 0 0
3343 1 2 0 16.288534410678512 10.497028232878723 7.06354081891992 0 0 0
3345 1 2 0 14.726954949024124 11.29591020513662 7.880670602462068 0 0 0
4383 1 2 0 15.298454709204751 10.845773980251083 9.436671100420815 0 0 0
4301 1 2 0 14.32305684823222 10.898103356768726 9.126474036246716 0 0 0
3342 1 2 0 16.894841210375482 9.774860323497569 6.760407665410706 0 0 0
2225 1 3 0 18.043569159310426 10.272736326689337 7.477108492131229 0 0 0
4553 1 2 0 16.66127920799721 11.13615828242521 6.362071622177077 0 0 0
3411 1 2 0 16.408169245285162 11.069834043660256 8.42336929602019 -1 0 0
3978 1 2 0 17.594944019960995 9.38846166585573 8.28181265315141 0 0 0
2226 1 3 0 17.373269489776735 10.699413456092174 6.951085294866216 0 0 0
3408 1 2 0 18.478114900223503 10.890344327211597 8.250128974183697 -1 0 0
3409 1 2 0 17.86923338004747 10.328171474868734 8.773557992728445 -1 0 0
3410 1 2 0 16.968026540718505 10.320563441936098 8.323240776178693 -1 0 0
3380 1 2 0 17.25868133680118 11.972593279231008 9.676369527148408 -1 0 0
3381 1 2 0 17.309879772039665 11.258689449052872 8.924163162435297 -1 0 0
4496 1 3 0 17.428205184456708 9.715821677116743 9.51381004595644 0 0 0
3370 1 2 0 2.0972503875158917 12.432065068935445 7.288766270864733 0 0 0
3371 1 2 0 2.627616081781129 12.511452662924263 8.085373181004732 0 0 0
4287 1 2 0 1.4677826021239833 11.602340695955489 7.181291822650242 1 0 0
3177 1 2 0 18.29980823788774 12.01759311107516 7.901225671692164 -1 0 0
3178 1 2 0 0.13419894315723885 12.768351046267423 8.345617061111199 0 0 0
4288 1 2 0 0.9254700213161795 12.346484726730509 7.059335170590409 1 0 0
3405 1 2 0 1.2454230116985594 13.226019229826193 7.913485498580033 0 0 0
3404 1 2 0 1.025945913954852 14.077943730028387 7.601799501704628 0 0 0
3406 1 2 0 1.2086335811662656 12.201004186521695 8.128589947128969 0 0 0
3179 1 2 0 0.8536656860278913 12.656051892933199 8.970233240102374 0 0 0
3180 1 2 0 1.8229374836529801 12.528565608878385 8.958551364912292 0 0 0
4515 1 2 0 4.749732307845902 12.687757477126182 8.138188611167818 0 0 0
3390 1 3 0 1.9324504355359033 15.102081443975987 7.097588808089521 0 0 0
3387 1 3 0 2.955620106598222 13.338013602225999 8.37761063838702 0 0 0
3389 1 3 0 2.459647403797711 14.322400716097901 7.284425924891753 0 0 0
3388 1 3 0 2.112361983696339 13.624059086010416 7.875822154271506 0 0 0
3576 1 3 0 4.551235585754869 13.718614219997006 8.52622795105666 0 0 0
3182 1 2 0 3.6482975628537346 11.958819988863201 8.690664288179203 0 0 0
3181 1 2 0 2.788942837971294 12.250542299552512 9.116736473740705 0 0 0
4263 1 2 0 5.65286233977053 11.600259529957947 8.733033623513256 0 0 0
3575 1 3 0 4.014167645643118 14.189000244042678 8.00075285785316 0 0 0
3184 1 2 0 4.367147479494665 12.08369975586776 7.382913766734552 0 0 0
3671 1 2 0 5.836107681975185 12.767731714542187 8.856541222684108 0 0 0
3254 1 2 0 6.676521045091689 11.946692023600917 8.991316456810255 0 0 0
3670 1 2 0 5.70606829091868 13.4518436307443 8.117858654880969 0 0 0
2493 1 2 0 5.4267305855629715 13.99045108864727 9.028936738008182 0 -1 0
94 1 1 0 6.087587544983531 12.680462301723042 9.807219584815991 0 0 0
3422 1 2 0 6.5942525255848965 13.914764720745174 8.96726761830209 0 0 0
3253 1 2 0 6.357282557509165 12.154310957887288 8.054597849369328 0 0 0
4637 1 2 0 5.346199368468308 13.32264147357379 9.968968234497627 0 0 0
3423 1 2 0 6.853853907104761 12.985933945258255 9.153081442326258 0 0 0
3249 1 2 0 8.223723239806478 13.713928916020318 6.311121719667183 0 0 0
4519 1 2 0 7.41637543829497 12.021714198728933 7.550873365617347 0 0 0
3426 1 2 0 8.941832372079755 12.992790985691855 8.202078651771894 0 0 0
3427 1 2 0 9.275417508382551 12.574164464222939 7.417182701313558 0 0 0
4520 1 2 0 7.792314736202585 12.867643620382013 7.783466672214684 0 0 0
4521 1 2 0 7.5892905608777275 13.587532871258631 8.401733018430242 0 0 0
3252 1 2 0 6.690079135234358 13.13707213408321 8.092591021176089 0 0 0
3251 1 2 0 7.226122723574429 13.563150889096777 7.446550994856066 0 0 0
3457 1 2 0 9.286214487085179 12.552029830779782 9.268099101708254 0 0 0
3666 1 2 0 8.620464083253001 14.602291187694751 8.322327776792145 0 0 0
3424 1 2 0 7.420838359776251 12.440023924057611 8.653859064222123 0 0 0
93 1 1 0 7.7852578559549395 14.336564459105007 8.9163660986149 0 0 0
3458 1 2 0 8.812073785243225 13.336187486159512 9.297824357064714 0 0 0
1435 1 2 0 9.14107559627058 14.30273962588917 7.322088376707529 0 0 0
3308 1 2 0 11.90236960645994 12.171508493036871 7.002919389405721 0 0 0
3429 1 2 0 10.975968125217996 12.551634671566218 6.726328054723742 0 0 0
70 1 1 0 9.940191304166984 12.205328854310697 8.62038059206166 0 0 0
3428 1 2 0 10.050907387004123 12.787217864357128 6.941363038105326 0 0 0
2581 1 2 0 10.481558539941748 12.926511424150164 8.932309339088576 0 0 0
2580 1 2 0 9.911947432134461 13.455482416773554 8.370397559539922 0 0 0
3310 1 2 0 10.371982471821 11.717376238195788 7.614980187723568 0 0 0
3311 1 2 0 10.873938725525086 12.504765747386257 7.789143325901839 0 0 0
2579 1 2 0 10.326972197747956 13.680277456752581 7.493670885785423 0 0 0
2544 1 2 0 12.125303949073023 12.73374346363048 7.937411934728839 0 0 0
3312 1 2 0 11.321966739028827 13.31968225358894 8.06763909526194 0 0 0
3665 1 2 0 9.371346204884986 14.728695180152918 8.836221400499905 0 0 0
2543 1 2 0 11.876041238790753 13.301577172980483 7.110145871963983 0 0 0
3301 1 3 0 13.104999346172562 13.096296486815422 7.7673604121679425 0 0 0
2442 1 2 0 12.935950279471133 12.159714726316443 7.190500713773203 0 0 0
2545 1 2 0 11.69970387828382 12.454046007470025 8.707796669248435 0 0 0
4389 1 2 0 13.605954572840266 12.067538534413533 7.8709552703756005 0 0 0
3300 1 3 0 12.849401519491737 13.2432964745766 6.8548103519946215 0 0 0
2546 1 2 0 11.76670042730282 11.902420869624017 9.510360281943386 0 0 0
4388 1 2 0 12.988841567777587 12.360380348373047 8.518345694406039 0 0 0
4396 1 3 0 12.749253899056963 13.701467952799032 9.83464092216076 0 0 0
3313 1 2 0 12.039824183454789 13.953445959899526 7.9308312507305665 0 0 0
4411 1 2 0 12.053892069861298 12.88568052493845 10.129218396046777 0 0 0
4402 1 3 0 13.072356010074571 12.839520477427119 10.246408637232662 0 0 0
4384 1 2 0 15.21827918022283 11.693911986873674 8.98906305958504 0 0 0
3348 1 2 0 14.298464826708992 12.834220016240776 7.63232578099911 0 0 0
3501 1 3 0 15.197200628641529 13.288853043686315 9.402330731572125 0 0 0
3349 1 2 0 14.512916770177197 12.083932795593048 7.015686739716149 0 0 0
3346 1 2 0 14.359794397048967 11.93716077172311 8.522149920230104 0 0 0
3347 1 2 0 15.065343538669353 12.281513547714654 7.9768905587260965 0 0 0
4502 1 2 0 15.744644138789871 12.303921643741099 7.2049537524613365 -1 0 0
92 1 1 0 16.118138302869554 11.903570229428807 7.9805630140555195 -1 0 0
3497 1 3 0 14.944086831001318 13.502310368171369 7.121518990845031 0 0 0
4552 1 2 0 16.466200282252448 11.525287864607538 7.1815799955441 0 0 0
3478 1 2 0 15.864240501692569 13.357013650207671 6.801351844669624 0 0 0
3499 1 3 0 14.787373953370293 13.400468216442986 8.497618375086315 0 0 0
3479 1 2 0 15.704681262040461 13.138804395842596 7.7205300171270554 0 0 0
4386 1 2 0 13.812134656073802 12.774298504363559 9.162611512552296 0 0 0
4289 1 2 0 0.47363961823127265 13.273425734206901 6.94068200674408 1 0 0
3382 1 2 0 17.31570419915402 11.241126026910107 7.9217180829629585 -1 0 0
4558 1 2 0 17.59462163779879 13.098435824634663 7.3745319369921525 0 0 0
4559 1 2 0 17.347833731225915 12.676606638625401 8.213476417914684 0 0 0
4290 1 2 0 0.008943402097746403 13.665219960320597 7.782011242674635 1 0 0
4291 1 2 0 18.02121602201593 13.663340654086818 8.571785895056145 0 0 0
4560 1 2 0 16.77794917838414 12.077763137057426 8.736748817998581 0 0 0
4509 1 2 0 0.3304442227606137 14.262766844215015 6.513207551637922 0 0 0
112 1 1 0 17.872183421261166 12.987773815119017 10.118471089569871 -1 0 0
3403 1 2 0 0.42063729989115095 14.854624216186618 7.40603476641859 0 0 0
3391 1 3 0 1.0636748722554605 15.011507391858453 6.61499858897945 0 0 0
3416 1 2 0 2.919275671282345 15.277694635009752 7.761134973596126 0 0 0
3417 1 2 0 2.942683966906557 15.122810069932184 8.695210752174537 0 0 0
3421 1 2 0 6.065349196613055 14.794930758254246 9.022937584217923 0 0 0
3574 1 3 0 4.190387270769192 15.143531124186635 7.9682625027649365 0 0 0
3557 1 2 0 5.990079352842353 15.415292392478706 8.16771820699116 0 0 0
3669 1 2 0 6.228645117519315 14.216611099575717 7.939972966729868 0 0 0
1646 1 2 0 4.86539571049847 15.854763477810966 7.4532073214186685 0 -1 0
2492 1 2 0 5.295810566382237 14.438708993396963 8.22995627905824 0 -1 0
3420 1 2 0 5.312505227620325 15.098346272272286 9.490722234752925 0 0 0
3573 1 3 0 4.895511145607965 15.560949275632964 8.482689703012573 0 0 0
3572 1 3 0 5.500234972342498 16.072834803203055 9.057867457330321 0 0 0
1645 1 2 0 5.755755942619046 16.187423023400672 7.242160911644921 0 -1 0
3419 1 2 0 4.54412608115289 14.617874712127293 9.107094758909946 0 0 0
1643 1 2 0 7.208054939779714 16.352785445245733 6.223132310832182 0 -1 0
3667 1 2 0 7.87509758472846 15.08370337941009 7.970061744362649 0 0 0
3558 1 2 0 6.8911466013473355 15.367886146186628 8.46610404561467 0 0 0
3668 1 2 0 7.126913386996567 14.434921871556867 7.9647835998198735 0 0 0
2500 1 2 0 8.587801319262647 15.569814531700477 8.484961675268162 0 -1 0
2499 1 2 0 7.828870341617406 15.511082240996554 9.178411159208286 0 -1 0
2498 1 2 0 7.34102895295233 15.567648998919111 9.984832764929257 0 -1 0
3571 1 2 0 8.399797703608916 14.356276981111064 9.63649153010748 0 0 0
47 1 1 0 9.149681937261827 15.315492065098146 7.434315831168785 0 0 0
4582 1 2 0 7.13826148902142 14.650148015268666 9.591380114922094 0 0 0
3569 1 2 0 8.565736384690753 16.192706792774235 9.563570401934824 0 0 0
3315 1 2 0 11.18217595335989 14.425871392452505 7.319035025298968 0 0 0
3570 1 2 0 8.806035277670428 15.20505540225213 9.651736941840218 0 0 0
3664 1 2 0 10.3010023354119 14.508110961371543 8.828692328761182 0 0 0
2392 1 2 0 10.074005406653473 15.235273509619981 7.5953191162005815 0 0 0
2393 1 2 0 10.971244845567291 15.388015189617928 7.825320155707992 0 0 0
3442 1 2 0 10.676770907560366 16.35183734544415 8.766686775381887 0 0 0
1716 1 2 0 9.645001625301658 16.027913946075902 7.121639713928714 0 0 0
3443 1 2 0 10.34852436330555 16.582551114122026 7.88264113693538 0 0 0
3332 1 3 0 11.42855721465592 15.277116998955615 8.749634540755794 0 0 0
2542 1 2 0 12.365666455002295 14.118506913477257 7.0209912162231385 0 0 0
2541 1 2 0 13.331201774760654 14.063534612416333 7.238014027810712 0 0 0
2540 1 2 0 13.761702165431437 14.999010635226616 7.48284378912883 0 0 0
2539 1 2 0 13.330286759768478 15.677091929523542 8.00281645646066 0 0 0
4394 1 3 0 12.39685291005084 14.21836430944947 9.002230163330525 0 0 0
4395 1 3 0 12.413056070910002 13.246289997509981 9.028000469198865 0 0 0
2395 1 2 0 12.678901371285713 15.330914207129215 7.277880880114873 0 0 0
2394 1 2 0 11.842676639258553 15.131814920330381 7.594999832332049 0 0 0
3314 1 2 0 11.32855178164638 14.425094703818957 8.316333919360194 0 0 0
3615 1 3 0 11.876900616324022 16.485344552481067 8.66592261093824 0 -1 0
3616 1 3 0 12.17706718179184 16.105535789856976 7.848986387056476 0 -1 0
3333 1 3 0 12.388743089174724 15.371487453685496 8.581987809750503 0 0 0
4506 1 2 0 16.510313158355228 13.933023306826502 6.221601884929081 -1 0 0
2773 1 3 0 14.823280171685346 15.269238276280257 7.235829576481766 0 -1 0
3482 1 2 0 15.830448908740717 14.209693427486425 7.475595391501018 0 0 0
3500 1 3 0 15.564080584827916 13.842628601538962 8.68481517103721 0 0 0
3739 1 2 0 13.900479740503362 16.64330926771158 8.554944444518815 0 0 0
3498 1 3 0 14.50961275739574 14.013303842335391 7.845520564403066 0 0 0
3738 1 2 0 14.472479225335203 15.948987785820579 8.222484655412742 0 0 0
3740 1 2 0 12.91537545965266 16.523401119575816 8.580297422968455 0 0 0
4507 1 2 0 17.302761335376324 13.915937143425527 6.781278299611825 -1 0 0
4292 1 2 0 17.128888201197817 13.676074417151389 8.927646770081411 0 0 0
3480 1 2 0 16.620801027124894 13.129360987378108 7.604774154033542 0 0 0
3481 1 2 0 16.726803578073657 14.032343577389218 7.791983475295119 0 0 0
4508 1 2 0 18.03627983639366 14.573955209998589 6.866434483451241 -1 0 0
2666 1 3 0 16.90940670337485 15.62319302765783 6.9191243019868915 0 0 0
2691 1 3 0 2.2500538028047594 1.3072305863710987 7.162331954692339 0 0 0
1481 1 3 0 3.6515451304042044 0.8907824738898883 6.668277407568357 1 1 0
1570 1 2 0 4.983393461714691 17.009374780713767 7.076680495716328 0 -1 0
3527 1 2 0 5.284647974655056 18.404729485636135 7.805542889781005 0 -1 0
1637 1 2 0 6.340141630626802 18.228426733350098 6.397352180076779 0 -1 0
3528 1 2 0 5.586287826202953 17.551067858237328 8.150162785088622 0 -1 0
3529 1 2 0 5.55337737394022 17.372999714167975 9.134253425955233 0 -1 0
3619 1 3 0 6.433628667829239 16.8367117561102 7.893138690241092 0 -1 0
1636 1 2 0 6.3358708982211835 18.18277152545954 7.350332866986294 0 -1 0
3846 1 2 0 6.155369352900744 18.562991754904246 8.589018663094446 0 -1 0
3618 1 3 0 6.97474755940006 17.554075591643265 8.228480262357483 0 -1 0
1635 1 2 0 7.152250625919692 18.527895215686637 7.569033573084013 0 -1 0
2505 1 2 0 8.167961631467419 18.323803199048278 7.111332974942012 0 -1 0
2506 1 2 0 7.4361110885117006 0.11621770999209054 6.683462698744154 0 0 0
4635 1 3 0 8.04412791725642 16.70326382269566 8.767286765708869 0 0 0
3598 1 2 0 7.940236887383824 17.943087830444238 8.827650123635133 0 -1 0
3620 1 3 0 7.338350457971751 16.412490905927942 7.900643399752376 0 -1 0
3621 1 3 0 7.807929916164631 16.696676422107775 7.077166737993436 0 -1 0
2522 1 2 0 8.714632469133226 17.298614256841137 7.258573716157518 0 -1 0
2523 1 2 0 8.843614079948273 17.88858120189235 8.02830590860078 0 -1 0
4634 1 3 0 8.936863602067845 16.94391076668205 8.974212330001798 0 0 0
3617 1 3 0 7.940449008013444 17.666596146612104 7.941997217092025 0 -1 0
3444 1 2 0 10.646598747162068 16.05422719508796 7.159142921809617 0 0 0
2501 1 2 0 8.737702685271037 16.45499309274413 8.074034826222583 0 -1 0
2894 1 2 0 10.659409198879239 18.363826127658484 9.068211913771995 0 -1 0
2635 1 3 0 10.819002371076072 17.327830152715762 7.4800944482620535 0 -1 0
2502 1 2 0 9.487453229067462 17.03928607834081 8.11345396422346 0 -1 0
4633 1 3 0 9.672900166169917 16.2903871700791 8.86897679108476 0 0 0
2503 1 2 0 9.881544937841117 17.828210414747794 7.680004395028244 0 -1 0
4632 1 3 0 9.997595774519002 17.174672409692846 9.133458576831185 0 0 0
2893 1 2 0 10.956467204364372 18.34319709997325 8.150722781653517 0 -1 0
3920 1 2 0 9.710858660756282 18.007547133886415 8.726967994677377 0 -1 0
3613 1 3 0 11.531768820861151 17.644935936673434 8.832555600069618 0 -1 0
2633 1 3 0 12.569153908462427 17.434504197534128 7.989167816471653 0 -1 0
2761 1 2 0 12.659938653581632 18.036227336452136 6.826866390165171 0 -1 0
2632 1 3 0 12.620513093697143 17.03871861423323 7.133930191576014 0 -1 0
2772 1 3 0 14.455779177816375 16.174282716702105 7.1210282027892005 0 -1 0
3614 1 3 0 12.310604267551307 17.236331649192707 9.184179311192848 0 -1 0
2470 1 2 0 13.131861177339184 18.554625331654137 9.32656797568632 0 -1 0
3612 1 3 0 12.31456141136922 18.158074769708453 8.756061540226998 0 -1 0
2538 1 2 0 13.361371247280918 16.540853991936668 7.588487906455594 0 0 0
2537 1 2 0 13.604447607038027 17.427567120169943 7.69902919033441 0 0 0
3741 1 2 0 13.30374447239468 16.87580951922988 9.438601997390895 0 0 0
3483 1 2 0 15.330679867604895 14.819283250973324 8.05906720491562 0 0 0
3756 1 3 0 14.679054009191818 0.0361500748086059 7.4844151229415 0 1 0
3752 1 3 0 13.335029979397818 17.540969550535255 8.809842967100563 0 0 0
3753 1 3 0 14.204227553364833 17.678648387913007 8.45438787550922 0 0 0
3486 1 2 0 15.202668532628401 16.71314486254956 8.676834085257173 0 0 0
3487 1 2 0 14.761189354261296 17.39899223982322 9.183919507762543 0 0 0
3485 1 2 0 15.692443173708037 16.34314112630187 7.900776748733211 0 0 0
2628 1 2 0 15.210317617405021 17.665824223124815 8.208250900835388 0 -1 0
2629 1 2 0 15.847153976512486 17.571868664629246 8.9586908586263 0 -1 0
3771 1 2 0 1.026533847286527 1.556435548837313 8.424025503351851 0 0 0
3772 1 2 0 1.5434602283255305 2.142924507946881 8.982454600996947 0 0 0
3509 1 2 0 18.09780281781155 2.253597307464527 8.975099292872615 -1 0 0
3773 1 2 0 2.3541830730143065 2.099962321543251 9.515105018390452 0 0 0
3774 1 2 0 2.806101047441251 2.0224887559413323 10.429045206874482 0 0 0
3508 1 2 0 18.44814491821604 1.4431680623719925 9.401564624215586 -1 0 0
2688 1 3 0 3.2109756788142736 1.4391375584428274 8.803884060967166 0 0 0
4815 1 3 0 2.8757207958451576 1.095722240566999 11.001439651653586 0 1 0
3850 1 2 0 4.912385698994236 1.3420080734883482 10.253548251515902 0 0 0
1474 1 2 0 3.136573401821233 0.6171835773242552 7.760631968072643 0 0 0
1476 1 2 0 4.074859853450015 0.06878355269548878 8.614658006570822 0 0 0
1475 1 2 0 3.185776175495593 0.28742263359674963 8.6770128334923 0 0 0
4788 1 3 0 3.3328480668767457 1.1560617768746637 12.029359069247953 0 0 0
4787 1 3 0 4.163132172485083 0.5949705070203366 11.929880878493355 0 0 0
3851 1 2 0 4.2046663993671824 2.0695047273775895 10.084805537513592 0 0 0
4814 1 3 0 3.6382492442200323 0.31234845279325396 11.047120554439049 0 1 0
2823 1 2 0 7.197677759585642 2.7329691601865367 9.788122518203226 0 0 0
3849 1 2 0 4.238429871017959 1.1539165339606634 9.510251008093887 0 0 0
2510 1 2 0 5.901808481882728 1.0257927673256046 9.303454697971354 0 0 0
2826 1 2 0 5.779258427001154 1.9908496658058776 10.933224059660699 0 0 0
2511 1 2 0 5.98112650324717 1.086699664514107 10.315120015543398 0 0 0
74 1 1 0 6.261985378319438 0.7119332826766798 11.175896055674741 0 0 0
2824 1 2 0 6.50469811836073 2.3719883092513556 10.27498428675166 0 0 0
2825 1 2 0 5.734651814079154 2.8347997219696834 10.543939226031585 0 0 0
3909 1 3 0 7.6943355107461 1.3999927117902806 9.891151994406425 0 0 0
3622 1 2 0 6.32982307164345 1.4962525535639428 11.741807849957528 0 0 0
3597 1 2 0 7.755683150636892 0.2803895234686864 8.455896359607975 0 0 0
2525 1 2 0 9.160619027992214 0.40302193102340855 9.560806244464244 0 0 0
3911 1 3 0 7.456122826342361 0.3639231355651239 10.794408721135992 0 0 0
3910 1 3 0 6.99041688320473 1.1944013964709979 10.534896718353638 0 0 0
3908 1 3 0 8.579066093153468 1.679177994870919 9.8527189982581 0 0 0
3843 1 2 0 8.347971561274997 0.5772681961462465 10.24798264299398 0 0 0
3926 1 2 0 6.93824477129449 2.002356925966993 11.165086569265974 0 0 0
3842 1 2 0 8.205853929949678 1.4040725360451074 10.792421017159729 0 0 0
3927 1 2 0 6.984815511111614 2.9555056737323038 10.921247209978343 0 0 0
3841 1 2 0 8.295331131696004 1.9144121677425623 11.625260937249243 0 0 0
3907 1 3 0 8.99748060801685 2.466344887048177 9.600247203357307 0 0 0
3928 1 2 0 7.749300784804395 2.4652480716497265 10.628443165830028 0 0 0
2895 1 2 0 10.453153789152863 0.6110456693310948 9.6592886879706 0 0 0
2526 1 2 0 9.383146566965031 0.8359228399656163 10.375724190555859 0 0 0
2527 1 2 0 9.192736532978136 1.1302994422185735 11.323704646316777 0 0 0
3681 1 2 0 9.807353124822848 1.7580273046009656 10.568363511333288 0 0 0
2896 1 2 0 10.80874938738497 1.3484930205077899 10.236367991969558 0 0 0
3682 1 2 0 10.434903847042284 1.141925529154963 11.224633016379201 0 0 0
3683 1 2 0 10.647908052080727 0.6299086399992263 12.025658150343443 0 0 0
4627 1 2 0 9.990191993871086 0.13519402224082308 11.397910834696932 0 1 0
3880 1 2 0 10.865800059321865 1.9654454801731958 11.216702411892006 0 0 0
2897 1 2 0 10.713138383706392 2.3410671698654015 10.225519109660114 0 0 0
4628 1 2 0 10.036160094538484 18.489544892137207 10.474512487671877 0 0 0
3929 1 2 0 8.809158343724173 2.3479599691235924 10.656825568691055 0 0 0
3879 1 2 0 9.97396170301124 2.4387630894488277 11.36075840172226 0 0 0
2469 1 2 0 12.991450031845499 0.8196094925834282 8.90768132141743 0 0 0
2468 1 2 0 12.84995247717697 1.6896477095357965 8.555712369028306 0 0 0
2466 1 2 0 11.655845558433933 1.9291846285140852 9.649268829928996 0 0 0
3881 1 2 0 11.736163209593853 1.7778795032132964 10.85224705341134 0 0 0
3675 1 2 0 11.340499987715225 0.44932759259999566 10.496367195451706 0 0 0
3676 1 2 0 11.609151380058622 0.8250112645000336 9.557770194378362 0 0 0
2467 1 2 0 12.556429910592216 1.626865195227337 9.461588559399681 0 0 0
3882 1 2 0 12.573967640044032 1.4499170205030953 10.494406541055993 0 0 0
3699 1 2 0 12.614883808853632 0.40950857828331255 10.866514869270548 0 0 0
4925 1 2 0 13.85432641306611 2.1153666322988127 10.703874697973207 0 0 0
3783 1 2 0 13.335612947442709 2.7985774788208553 9.40622501126097 0 0 0
3951 1 2 0 12.48394261500205 2.4949860029769453 10.214463234740911 0 0 0
3883 1 2 0 13.465046561860008 1.2232979854208195 10.10475523734035 0 0 0
77 1 1 0 14.132278682309344 1.141134029908069 9.149786793209202 -1 0 0
3782 1 2 0 13.48953117998712 1.8563981332020842 9.37385212920049 0 0 0
3884 1 2 0 14.365735693847885 1.2715581288582707 10.12552185771417 0 0 0
3469 1 2 0 13.706409442809333 1.1062509155247457 11.201203133330429 0 1 0
3757 1 2 0 14.02759294686262 0.2773026809149946 9.668188397596124 -1 0 0
3885 1 2 0 15.220609512718482 0.9810781500990987 9.778231638842657 0 0 0
3470 1 2 0 14.465557622195973 0.6000575134019684 10.891136139799796 0 1 0
491 1 2 0 15.713790861925633 1.516355275800894 11.26160017689572 0 0 -1
3966 1 3 0 15.322030396171636 1.9370199787531364 10.29021131666688 0 0 0
3471 1 2 0 15.089317596821967 18.49148178860048 10.705833333870718 0 0 0
3504 1 2 0 16.30956223883465 0.16034663733401763 9.025074545773881 -1 0 0
2740 1 2 0 15.728095523251426 1.8576504769969744 9.233144487345266 -1 0 0
3965 1 3 0 14.912924354676456 2.519441634918013 10.857211198816021 0 0 0
490 1 2 0 15.558830935866029 0.5964471315228711 11.512088236173042 0 0 -1
3943 1 2 0 16.45439953930702 1.2062551531372208 8.649757287273161 0 0 0
3886 1 2 0 15.87842419976167 0.7574523082388246 10.505497747089098 0 0 0
473 1 2 0 17.36635795311893 1.3510466264329466 8.981261096751364 -1 0 0
3942 1 2 0 16.515078832236693 1.1834931898146461 9.602062291486671 0 0 0
80 1 1 0 16.66591022051718 1.385682279396353 10.580139814942155 0 0 0
4976 1 2 0 18.197278660201427 0.6350102729507443 11.243471872442683 0 0 0
3507 1 2 0 18.25233402101593 0.9241718912026786 10.136719876114917 -1 0 0
3506 1 2 0 17.45162481072512 0.5314331032166623 10.423004849893417 -1 0 0
3505 1 2 0 16.815402250156282 0.08204294499229767 9.889547040226907 -1 0 0
474 1 2 0 17.655767405613062 1.7897085445852494 9.894541061407203 -1 0 0
3522 1 3 0 18.27264723874854 18.51475644936863 10.430630961769744 -1 0 0
4735 1 3 0 0.12945863290062673 1.9420012086451404 11.508105117066085 1 1 0
476 1 2 0 0.4781275370433887 2.6283617976780143 9.543706153365198 0 0 0
4736 1 3 0 0.8776607168496026 2.483544211643256 11.855040934317403 1 1 0
2993 1 2 0 1.7520968445400857 3.7069871326273867 10.125037990172224 0 0 0
2720 1 3 0 1.7903314273029423 4.484822866456114 11.134010225531224 0 0 0
2994 1 2 0 0.9183679486753952 3.2951529246242117 10.257586178493089 0 0 0
3003 1 3 0 2.709077650568862 3.9680262287071235 10.026750825426776 0 0 0
2995 1 2 0 0.07827160998126638 3.7246229040131773 10.40646727085957 0 0 0
2992 1 2 0 1.9037281138917777 4.632267150830958 10.009945050804415 0 0 0
2718 1 3 0 0.8877875478499612 4.590821015249485 9.823513946874613 0 0 0
2687 1 3 0 3.0550859122965393 2.3729554888928797 8.720330394620838 0 0 0
3004 1 3 0 3.282234030145865 3.891836788359217 9.2753404379411 0 0 0
2686 1 2 0 3.9527766450000583 2.56309196407333 9.043719377817329 0 0 0
4115 1 2 0 2.2273897575212325 2.3192427943104423 11.285804875532362 0 0 0
2685 1 2 0 3.607775566943075 2.983258635600299 9.825874001573391 0 0 0
2684 1 2 0 4.409172839793042 3.3486924304298418 10.223328627311208 0 0 0
4117 1 2 0 3.2294778524268435 3.716774513732307 10.95933082836381 0 0 0
4116 1 2 0 2.488760440531188 3.131454279982688 10.839692804378924 0 0 0
4096 1 3 0 2.510550321950044 5.069141099206229 10.734604669807533 1 0 0
2778 1 2 0 3.957939155813897 4.718198560998285 10.167217910487796 0 0 0
2779 1 2 0 4.923609240086372 4.869176704593192 10.259853432694989 0 0 0
2721 1 3 0 1.473003073569656 3.74249615493794 11.642026949689386 0 0 0
2781 1 2 0 6.273221473011076 4.5720145433912505 9.198434217728774 0 0 0
2681 1 2 0 5.139887053607725 4.170947292792211 9.084079838888126 0 0 0
1871 1 2 0 6.440782551776557 3.467782741338231 9.71089481303963 0 0 0
2683 1 2 0 5.117770760099407 3.866451794108797 10.718464440605288 0 0 0
4118 1 2 0 4.1263469737566965 4.03008957979158 11.183785854208267 0 0 0
3938 1 3 0 5.682450926046041 3.81182788795948 11.697207016682007 0 0 0
2682 1 2 0 5.437678437813658 3.638933076054881 9.837141842430048 0 0 0
2780 1 2 0 5.832497553888861 4.656863425944245 10.130575546980966 0 0 0
3939 1 3 0 5.004339028313794 4.160809781821523 12.206705020996104 0 0 0
3937 1 3 0 6.339435552726792 3.664052994500582 11.042906052315901 0 0 0
2822 1 2 0 7.6826689997001205 3.3606570270386955 9.199212525589207 0 0 0
3889 1 2 0 8.391860132134235 3.9384974495962974 9.729284105496196 0 0 0
2827 1 2 0 7.4964965455919526 4.494188464493158 9.27535328433347 0 0 0
3871 1 2 0 9.207462139022281 5.4951935359913175 9.655211385081284 0 0 0
3207 1 2 0 6.694086709015882 4.578006983525602 10.70750165798841 0 0 0
55 1 1 0 7.222547743786871 3.9579535373758548 10.028252327132558 0 0 0
2491 1 2 0 7.964154129948714 3.8182579398821535 10.641286850823969 0 0 0
2490 1 2 0 8.945988175785578 3.65894239927445 10.55594021173948 0 0 0
3890 1 2 0 8.586394511147502 4.721972202414304 10.40683017088562 0 0 0
3877 1 2 0 8.346220288931685 3.4735431197517945 11.513683766113584 0 0 0
3891 1 2 0 8.719327752658097 4.459622181242777 11.364099141296936 0 0 0
3875 1 2 0 7.7155076121785875 4.768636087010393 11.563143673543484 0 0 0
3876 1 2 0 7.491036904654027 3.8474995007075576 11.603101272254573 0 0 0
3820 1 2 0 6.909722749145023 3.8688116270980437 12.446114296353434 0 0 0
3680 1 2 0 10.006092875427052 2.032186502194898 9.591311069755871 0 0 0
2488 1 2 0 9.69196372587718 3.92384510535143 8.908245339045154 0 0 0
2489 1 2 0 9.281870924842162 3.558095646990461 9.670539222092764 0 0 0
5045 1 2 0 10.37315112337651 3.373953089078313 9.916880578169522 0 0 0
3878 1 2 0 9.25604974387516 3.0849391921295344 11.496412591891456 0 0 0
2898 1 2 0 10.83537617025906 3.095614704239357 10.875413564654373 0 0 0
2899 1 2 0 11.094222483347625 4.026819228614934 10.891042535026282 0 0 0
3930 1 2 0 9.636908679775111 2.7633217200571236 10.442611299929123 0 0 0
3931 1 2 0 9.966315604045917 3.593058558348918 11.006657709670717 0 0 0
5044 1 2 0 10.024885450502868 4.202590263836411 10.193606822426887 0 0 0
3953 1 2 0 11.491866817560824 3.0768919607594993 11.610629378101617 0 0 0
5043 1 2 0 9.72994294610811 5.077149843562865 10.48876873740985 0 0 0
2846 1 2 0 10.706410562980516 4.614815987940968 11.80312685249276 0 0 0
3950 1 2 0 12.140017903237277 2.8593885105257297 9.381905129245142 0 0 0
3125 1 2 0 13.24888327584257 4.38067039386327 9.302955531616611 0 0 0
3962 1 3 0 13.019507867321002 2.3197907762310104 11.270605982893036 0 0 0
3126 1 2 0 13.270282321178284 5.303952796865992 9.484173226113851 0 0 0
3963 1 3 0 13.544950450133896 3.0778590727750883 11.14578089418477 0 0 0
3952 1 2 0 12.164085408984635 2.604156979501866 11.091461716815354 0 0 0
5046 1 2 0 11.22573929428161 3.6819841795489676 9.670924222872385 0 0 0
4917 1 2 0 12.435443088753678 4.016907991157768 11.129702746506299 0 0 0
5047 1 2 0 11.882828760920749 3.3231377892779723 10.374380925633856 0 0 0
5048 1 2 0 12.840939996563693 3.5200989244365535 10.375767139990213 0 0 0
4918 1 2 0 12.187220707564983 4.453234864942336 10.305358492734484 0 0 0
5049 1 2 0 13.253854453761333 4.41253379181861 10.453778691626722 0 0 0
3784 1 2 0 13.760458067137957 3.609738873757047 9.882484124491933 0 0 0
4923 1 2 0 14.218959875583042 3.040566957121595 9.028441155500909 0 0 0
3967 1 2 0 15.361194908809097 2.745416950100652 9.482378534978157 0 0 0
4924 1 2 0 14.312282395237142 2.577337515720633 9.91074814525912 0 0 0
81 1 1 0 15.577008190027545 3.1235256556149116 10.271656730652168 0 0 0
3992 1 2 0 14.700318527773893 3.4627492274219738 10.532839445419532 0 0 0
3765 1 2 0 16.30771660906788 4.076715079287236 10.290357135540477 -1 0 0
3785 1 2 0 14.332683945546432 4.373037397458901 10.014159226505313 0 0 0
3786 1 2 0 15.117473477012583 4.6316046590918685 10.45662069892239 0 0 0
3764 1 2 0 15.900387289329483 3.7631994402508537 11.1042892854437 -1 0 0
3787 1 2 0 15.66959404893604 5.000329993746789 11.150803730661076 0 0 0
4977 1 2 0 17.7277583516465 1.4842796672622613 11.064887952694164 0 0 0
3766 1 2 0 16.36530091735045 3.5088749551556337 9.539951439343488 -1 0 0
2771 1 3 0 17.781715266148684 4.7397627096883435 9.603183729976028 0 0 0
475 1 2 0 18.435131997002635 2.2333739951398917 10.109231894290271 -1 0 0
2739 1 2 0 16.56886970751086 2.200485871340812 9.581015113000774 -1 0 0
2738 1 2 0 17.22470517540745 2.9316834841538464 9.352994347643891 -1 0 0
3781 1 3 0 18.301491916458062 2.8452404679749788 12.232473466122963 -1 0 0
2911 1 2 0 16.47321356683763 2.870844923880412 10.552863182226929 0 0 0
2910 1 2 0 17.209342608273708 3.45474019868285 10.487180738982511 0 0 0
4978 1 2 0 17.24390512966534 2.306549269817564 11.057199173739711 0 0 0
2909 1 2 0 17.672472756411654 4.258812065079545 10.76172550517558 0 0 0
4979 1 2 0 17.377725243841113 3.056785900502818 11.747697802398772 0 0 0
4065 1 2 0 0.13556004838761979 5.509840276861423 9.503292521700907 1 0 0
2719 1 3 0 0.9960287711803535 4.254976253002587 10.732378075723368 0 0 0
4064 1 2 0 1.0822028316326113 5.70545248388409 9.605243901885267 1 0 0
4063 1 2 0 1.6490537825463931 5.745366762655969 10.453465045588443 1 0 0
2997 1 2 0 0.5519549499713543 5.577966754653072 10.433166678803163 0 0 0
2999 1 2 0 1.642845026988796 6.733682079146578 10.516904113859908 0 0 0
2991 1 2 0 2.0109727651037406 5.226789650183234 9.239442127325075 0 0 0
2996 1 2 0 0.011055205914196318 4.73044982259608 10.53487788881423 0 0 0
2998 1 2 0 0.7128452751066313 6.4740956871041275 10.6699476566415 0 0 0
3007 1 3 0 2.966978137202587 6.943041249971354 10.253420763972867 0 0 0
2926 1 2 0 2.7683409101459677 5.744627087335888 8.965011671661616 0 0 0
4094 1 3 0 3.4670269570448307 4.3210031725807685 11.931396185744426 1 0 0
3002 1 3 0 2.213279057326161 4.261929927380317 9.204431368815094 0 0 0
4095 1 3 0 3.3762129432935004 4.8105892747731955 11.11862932012029 1 0 0
2975 1 2 0 3.823736341730597 5.410668406181038 9.09283326792527 0 0 0
2927 1 2 0 2.928465501403433 5.183051222098348 9.68353501161847 0 0 0
3001 1 2 0 2.600045231301275 5.659901298660129 11.516061670002317 0 0 0
2928 1 2 0 3.1341490006768136 5.736601551682261 10.509185512015787 0 0 0
3000 1 2 0 2.5114247784624513 6.438528185543856 10.927054174906365 0 0 0
2929 1 2 0 3.717442076896138 5.913255245601603 11.179944384594604 0 0 0
2930 1 2 0 3.507019412161451 6.814682727561751 11.417593700369666 0 0 0
3825 1 2 0 5.259486316348265 5.185176774982448 9.213467775649217 0 0 0
3206 1 2 0 5.876890589169368 4.65585690750816 11.186470378784302 0 0 0
4119 1 2 0 4.449566023176013 4.931536003964773 11.27928185113239 0 0 0
2974 1 2 0 4.474015767998203 5.637900713451489 9.768137891198018 0 0 0
2973 1 2 0 5.046737137618859 6.414464721532775 9.878678968522312 0 0 0
3824 1 2 0 5.827722056475218 5.68462744323531 9.856637567938272 0 0 0
3823 1 2 0 6.331340605524334 5.608941541970375 10.613628322155039 0 0 0
2847 1 3 0 6.598596610100085 6.37808526540057 9.94174703997152 0 0 0
4120 1 2 0 5.113381388222563 5.6214399809051825 11.180313779108781 0 0 0
3832 1 3 0 5.762492568983117 6.366795606645429 10.836638212163503 0 0 0
5303 1 2 0 5.594664642430271 7.132399060556036 11.45768281198973 0 0 0
4121 1 2 0 5.550895139749299 6.181917762304257 11.82549638124112 0 0 0
3822 1 2 0 6.857845854550842 5.315187624938386 11.377282596243303 0 0 0
2828 1 2 0 6.922151642449476 5.118617994282938 9.687586284040455 0 0 0
2829 1 2 0 7.3512427036622805 5.764462471189726 10.379996342463802 0 0 0
3209 1 2 0 7.963524929879437 5.337277392027013 9.745643336200438 0 0 0
3208 1 2 0 7.570355493541502 4.841394141202392 10.448042839788076 0 0 0
3873 1 2 0 8.918829913773674 5.44577685947669 11.075686099983301 0 0 0
3874 1 2 0 8.019643667615616 5.654695668910453 11.452360977858284 0 0 0
2830 1 2 0 8.15606187695984 6.254711485947311 10.476938423128143 0 0 0
2831 1 2 0 8.530957746529152 6.491869457923304 11.269454379818878 0 0 0
3080 1 2 0 7.407939636331262 6.904161190746745 10.224563971081736 0 0 0
3081 1 2 0 7.355684310055445 6.540380999992546 11.1419939486951 0 0 0
5061 1 3 0 8.575710192867387 6.1705496666088875 12.301412328982845 0 0 0
3872 1 2 0 9.169700586337092 6.0614820452365805 10.37881449889126 0 0 0
5221 1 3 0 9.903073192445168 5.969196673615506 11.094042798388495 0 0 0
5042 1 2 0 9.774681645603858 4.9794128714536825 11.387271049400205 0 0 0
4176 1 2 0 10.870992494175862 6.876269291218903 9.831356370854206 0 0 0
5057 1 3 0 10.224445796982824 6.204933378935842 12.183242703929082 0 0 0
5220 1 3 0 10.597761563275995 6.631789411259433 11.11903540533114 0 0 0
5219 1 3 0 11.38920006694424 6.246144594329198 10.832996434206025 0 0 0
2844 1 2 0 10.467279833634532 5.512285851938629 10.038610448205338 0 0 0
2845 1 2 0 10.756974554930592 5.077008264506746 10.902107082849996 0 0 0
4177 1 2 0 11.373996635182644 6.231012290824448 9.271607445177915 0 0 0
4919 1 2 0 12.331487453014397 4.944772610655088 9.56582158929999 0 0 0
2900 1 2 0 11.737747342300867 4.632977740957767 11.32946241186767 0 0 0
1912 1 2 0 11.69234219469405 5.502808639679659 10.234188933267328 0 0 0
4228 1 2 0 13.554938038905895 6.197022271823545 10.064306882630186 0 0 0
1914 1 2 0 12.534525350101804 5.51165884877194 11.576119200194569 0 0 0
1913 1 2 0 12.553513198488181 5.451135876825464 10.590900324655376 0 0 0
4226 1 2 0 12.4979349360343 6.532380616798696 11.569090359548815 0 0 0
4227 1 2 0 12.89547067138422 6.4210646283477155 10.686472410325953 0 0 0
5050 1 2 0 13.635093269594137 5.206292880542064 10.581366149757265 0 0 0
5051 1 2 0 13.531853762265973 5.819827115093617 11.338079504216594 0 0 0
2866 1 2 0 15.54152051142202 6.178596831717051 9.328451364975475 0 0 0
4229 1 2 0 14.422453878026054 5.888558047077131 9.83412680369053 0 0 0
2864 1 2 0 16.48446862339208 4.836803858874533 9.45172376488689 0 0 0
2865 1 2 0 15.863890233190128 5.487369084811138 9.82439981242534 0 0 0
5226 1 3 0 14.521251874017327 6.254508651412135 11.061561761762569 0 0 0
5225 1 3 0 15.231421396037929 5.760415412663754 10.630668986721625 0 0 0
5224 1 3 0 15.274300209001092 6.682001028766663 10.431539841899932 0 0 0
4069 1 2 0 16.795001409167625 4.463290262617994 11.173007977676393 0 0 0
4196 1 3 0 14.123019247945994 7.050954904161981 9.964043128901798 0 0 0
5223 1 3 0 15.44516789723679 7.013212178382543 11.405794655667101 0 0 0
4068 1 2 0 16.525091154658863 5.197409893308865 10.573787211260084 0 0 0
4486 1 3 0 16.41428409747011 6.305644354264932 10.346727994240446 0 0 0
4485 1 3 0 16.18121732070093 7.149230172554007 9.98179753989533 0 0 0
2908 1 2 0 17.562771696224438 5.2106485107099605 10.881336994437772 0 0 0
4066 1 2 0 17.88819226581952 5.963470440518731 9.455540321225655 0 0 0
4067 1 2 0 17.109272485039597 5.711731439623605 10.000722378239368 0 0 0
5105 1 2 0 18.319045708144536 5.989112605332001 11.228233676918862 -1 0 0
4087 1 3 0 18.01524462331323 6.914343757577981 9.431541445625646 0 0 0
5104 1 2 0 17.65404729340587 6.369340080619891 10.653672704656346 -1 0 0
4954 1 2 0 18.480491450099425 4.38622106632005 11.50924047325967 -1 0 0
4233 1 2 0 16.938910956896724 6.596729755267702 9.412485585340102 0 0 0
5131 1 2 0 18.329014944926044 7.623772484477466 10.879205797100424 -1 0 0
5130 1 2 0 18.188474877326673 6.935762653227716 11.483646728068875 -1 0 0
5135 1 2 0 0.32802379600141796 9.571514894497493 10.546772977429848 0 0 0
2958 1 3 0 0.6345593406014985 7.470912301987876 10.28165587471444 1 0 0
4282 1 2 0 2.3601157132452437 8.560887655522386 9.554199190959457 1 0 0
2957 1 3 0 1.2695403634124884 7.950318202049173 9.631042828002395 1 0 0
4097 1 3 0 1.3885723191923052 7.557976217779398 11.331652485929991 1 0 0
4098 1 3 0 1.6954891292264744 8.097839793336888 10.573610435184984 1 0 0
3008 1 3 0 2.254812857152681 7.110015466403754 9.635658540075998 0 0 0
5134 1 2 0 0.9968258324785242 9.12859797287376 9.893766216387196 0 0 0
5132 1 2 0 18.211235830041087 7.906953195922913 9.95690587098836 -1 0 0
4015 1 2 0 18.526851662063432 8.70610197210539 11.721174633345779 0 0 0
2959 1 3 0 0.6536007178217409 8.236375037638153 10.926668215419944 1 0 0
3010 1 3 0 3.6331085780128363 7.411333881839849 8.734176712264619 0 0 0
3009 1 3 0 2.7122882515080238 7.7786786187857935 9.016449047448619 0 0 0
4030 1 2 0 3.9977634426286683 6.92799876308753 10.143007685024505 0 0 0
4031 1 2 0 3.5897755205118287 7.790256226879657 9.779458282995341 0 0 0
87 1 1 0 2.71644781535893 7.893207412360447 10.186699417375955 0 0 0
5301 1 2 0 3.9907468624482694 7.656708902261212 10.827226647682584 0 0 0
5300 1 2 0 3.187940195425861 8.014047676110902 11.288655272541954 0 0 0
4310 1 2 0 3.347245429234253 8.931844717624376 9.909038585231263 0 0 0
4252 1 2 0 2.389317300291972 7.444632713480344 10.96087313754619 0 0 0
5302 1 2 0 4.802511000838813 7.222880967431891 10.927637799716411 0 0 0
2972 1 2 0 5.571663415658624 7.219884777228283 10.126869673594333 0 0 0
4267 1 2 0 4.686297065084864 8.906125811776409 9.586319567439054 0 0 0
4268 1 2 0 4.64388569433972 7.963337930674917 9.831817197571619 0 0 0
3200 1 2 0 5.222407729309313 8.263228768012812 11.28850411716169 0 0 0
3267 1 3 0 5.709430283713561 9.630208378353034 9.711610891035896 0 0 0
3139 1 2 0 5.737435973251408 8.399640548286 9.64005599876859 0 0 0
3140 1 2 0 6.007653457798426 8.227627831176656 10.546233986191266 0 0 0
3833 1 3 0 6.437441601313044 7.143780867736977 10.76738428369743 0 0 0
3141 1 2 0 6.24118293164717 7.889879870481268 11.414851363242196 0 0 0
2971 1 2 0 6.435987253658833 7.568810025829723 9.746583077723445 0 0 0
4325 1 2 0 7.166472355673335 8.856018185572882 10.64554597198487 0 0 0
3260 1 2 0 6.243175093748063 8.899462213034104 11.316054013198293 0 0 0
2970 1 2 0 7.265128334033966 7.681220459509252 9.35294821398697 0 0 0
3079 1 2 0 8.166003692901167 6.957371730876815 9.615507142703654 0 0 0
3834 1 3 0 7.053187866546128 7.88095289551252 10.835600212113048 0 0 0
4172 1 2 0 7.867336466744382 7.470566283776765 11.208935210951012 0 0 0
3835 1 3 0 7.780511003101686 7.789812432334637 10.155475692074619 0 0 0
3836 1 3 0 8.148597239266334 8.433805855135667 10.81226879822038 0 0 0
5185 1 2 0 8.821983814618367 8.925714485426598 10.274503779017891 0 0 0
4173 1 2 0 8.603974930007254 7.297803457741921 10.590919139799265 0 0 0
4450 1 3 0 9.276824665887872 7.730390222792711 9.900957094229776 0 0 0
2832 1 2 0 8.732212216936164 7.307939340537573 11.666698982968635 0 0 0
2833 1 2 0 8.635670282772454 8.298519785049248 11.68700088097293 0 0 0
4175 1 2 0 10.20329362944358 7.25808139814582 10.356427771306352 0 0 0
4448 1 3 0 9.97432268915144 8.76270042070798 10.073339059519755 0 0 0
4449 1 3 0 10.015359615881062 8.047100281706678 9.45153254972244 0 0 0
4174 1 2 0 9.51431215199319 7.249120903258769 10.971275719804446 0 0 0
5184 1 2 0 9.333345741211938 8.395807708177237 10.907902693887097 0 0 0
4201 1 2 0 10.233268772847413 9.008232047162831 11.043626088656412 0 0 0
4202 1 2 0 10.680132432085665 8.237418059226098 10.787991392505527 0 0 0
964 1 2 0 11.440740343079892 7.183842809823671 11.300681734306973 0 0 0
4203 1 2 0 11.009725440242459 7.951631649750005 9.966119495957855 0 0 0
5183 1 2 0 9.675527312839124 7.931540802881153 11.683820863608565 0 0 0
4193 1 3 0 12.404893559753052 6.9543138586268105 9.23082055230776 0 0 0
4195 1 3 0 13.497275087432065 6.840485886322397 9.266194700398225 0 0 0
3146 1 3 0 13.419851282862234 8.19171003747695 9.547499673265127 0 0 0
965 1 2 0 12.322037649748788 7.409118356916572 10.978433777987334 0 0 0
4400 1 3 0 11.898751184098217 8.407545333149892 10.72379781238269 0 0 0
5206 1 2 0 13.70425678285381 8.31647108394294 10.982291585142796 0 0 0
966 1 2 0 13.309123294720827 7.421931246863752 11.194614525569051 0 0 0
4401 1 3 0 12.730505754340173 8.740729744608371 10.425987173769725 0 0 0
5205 1 2 0 12.940195335038526 8.43186127778246 11.629203649745465 0 0 0
4483 1 3 0 14.588794868027517 7.9661758820449435 10.176700612835708 0 0 0
4482 1 3 0 14.311021678363613 8.838829882668247 9.883296979594887 0 0 0
3365 1 3 0 16.082652611530655 8.050345186612454 9.400002075297731 0 0 0
4484 1 3 0 15.462719383634834 7.686758823881381 10.361395292678612 0 0 0
86 1 1 0 15.34396697652796 8.799029670102486 10.792284696297056 0 0 0
5222 1 3 0 14.596380446546695 7.232898103702546 10.926030621582235 0 0 0
3986 1 2 0 16.21801156974411 8.544552325095305 10.282961932937264 0 0 0
4222 1 2 0 14.503639077389932 8.833776602422 11.314087889657692 0 0 0
5207 1 2 0 14.264267467000325 7.772773730277301 11.627707674581153 0 0 0
3985 1 2 0 16.712614166313127 8.885013174241989 9.482620544539234 0 0 0
5101 1 2 0 16.367745154186405 8.599228697869147 11.258060583858855 -1 0 0
5103 1 2 0 17.137607832206616 7.120727231589681 10.967882309437305 -1 0 0
5133 1 2 0 0.2907913557854746 8.57036918782717 10.008444503730818 0 0 0
5102 1 2 0 16.399679189303797 7.692436838225559 10.94527545275697 -1 0 0
4234 1 2 0 17.26908437193503 7.2840522745702545 9.969737691341264 0 0 0
4235 1 2 0 17.28232683893514 8.068108328146746 10.5021447981136 0 0 0
4016 1 2 0 18.149915697360814 9.006844259302916 10.908700397210303 0 0 0
4017 1 2 0 17.813696199368533 8.909702407519502 10.00516184758995 0 0 0
4033 1 3 0 16.718587320945158 9.624093868589497 10.41538246169975 0 0 0
4281 1 3 0 1.760630213547785 10.518715652320477 10.721633650959944 0 0 0
3377 1 2 0 0.38277105234796516 10.79896111046823 10.999009381833968 0 0 0
4099 1 3 0 1.9834822183283782 8.38958741376102 11.48309955013864 1 0 0
3375 1 2 0 1.3589752025077044 11.859019272352652 9.815708585297909 0 0 0
2960 1 3 0 0.9788297553027152 9.09165208118395 11.267692109419228 1 0 0
3376 1 2 0 0.7364865631529371 11.563880885016141 10.504235519283512 0 0 0
2961 1 3 0 1.6377229793506003 9.448168548038348 10.741567147518326 1 0 0
4101 1 3 0 2.651081349812871 8.806543056397699 10.772310159842144 1 0 0
4311 1 2 0 3.865016122106342 8.7728419833543 10.686383063383337 0 0 0
4100 1 3 0 2.3480282441602114 9.306563917585706 11.530324411235178 1 0 0
4280 1 3 0 2.3492180893540655 10.527675310893184 9.960510963428524 0 0 0
3215 1 3 0 3.414897030257825 10.821228204689561 10.770317060517216 0 0 0
3214 1 3 0 2.829112756189342 10.117961134755193 10.823065968954486 0 0 0
3197 1 2 0 3.932428290301418 10.36272301736776 9.704815888588882 0 0 0
3213 1 3 0 3.4861604627195235 9.568103525942556 11.209454181493179 0 0 0
3198 1 2 0 4.462622568481549 9.745316505718714 10.271198679496017 0 0 0
4312 1 2 0 4.277095269603223 8.820045807441991 11.52742487666149 0 0 0
3212 1 3 0 4.253478754234494 10.124219039389505 11.061681357868622 0 0 0
4364 1 3 0 4.639347413534447 10.916980960221714 10.626450236566955 0 0 0
3268 1 3 0 5.738718725521012 9.141848665827721 8.894384652295045 0 0 0
3259 1 2 0 6.228166194918906 9.289968520964084 10.475644753005847 0 0 0
3199 1 2 0 4.958085769716414 9.053562880973672 10.756801404054222 0 0 0
3228 1 2 0 5.692568787098198 10.677372798353172 9.36947019609241 0 0 0
3258 1 2 0 6.75546734326154 9.94875734866858 9.948013054761825 0 0 0
4161 1 2 0 5.571211238348622 10.12200835478658 10.707866428142555 0 0 0
4162 1 2 0 6.065221696381129 11.078972987033376 10.590622223271371 0 0 0
4317 1 2 0 6.924789436591114 11.091360775987765 11.3482391713979 0 0 0
3229 1 2 0 6.589688950952521 10.842145165140973 9.586729185250412 0 0 0
5188 1 2 0 6.844478891066588 9.755539452548605 11.402010896133456 0 0 0
4318 1 2 0 7.260400300936888 11.369812521923473 10.493777204288673 0 0 0
4326 1 2 0 7.58186393694248 8.773743025270777 11.500524772395083 0 0 0
5186 1 2 0 7.9225740364491894 9.203421068437873 10.106930646064422 0 0 0
2834 1 2 0 8.709535794996947 9.21310389095772 11.362206935878135 0 0 0
3230 1 2 0 7.509575300458727 10.67710144044036 9.47570438312553 0 0 0
5187 1 2 0 7.649956581033956 9.809225268941265 10.857887529983191 0 0 0
90 1 1 0 9.043090388825627 11.261258478072305 9.68355048977049 0 0 0
2836 1 2 0 9.307025157486667 9.776039289646915 9.83691172468007 0 0 0
4327 1 2 0 7.897751594149381 9.578976226490438 11.961131708545224 0 0 0
4351 1 2 0 7.952125078949553 11.360177739231649 11.774173706004577 0 0 0
4352 1 2 0 8.753538332305038 11.057230464539822 11.394128154296428 0 0 0
2835 1 2 0 9.33664420942579 9.803393832835525 10.815342554531266 0 0 0
4427 1 2 0 9.254927923163354 10.77058404981707 10.463470222662751 0 0 0
4447 1 3 0 10.635771546645682 9.468000914300983 10.118642751591768 0 0 0
4429 1 2 0 10.31633284290812 10.186286715215168 11.135630255798644 0 0 0
4428 1 2 0 10.079417608140437 10.315906884178656 10.1923032176006 0 0 0
3433 1 2 0 11.181896894471182 11.091384836164577 9.682155082930741 0 0 0
4420 1 2 0 10.278084313507119 11.237115730224348 11.312144713919654 0 0 0
4407 1 2 0 9.902683492147567 11.117796797280958 9.354285367115004 0 0 0
4452 1 3 0 11.418584097982807 9.680356206804044 10.991936184075639 0 0 0
4419 1 2 0 11.039896892571672 10.740001936549357 11.651798980393432 0 0 0
3434 1 2 0 11.303565061440215 11.24041168409581 10.739942945023964 0 0 0
4399 1 3 0 11.76414657380567 9.096501120883895 10.078931749875306 0 0 0
3302 1 3 0 13.331454202852626 10.422245340567994 8.708110140254606 0 0 0
3303 1 3 0 12.914918816751568 10.142722419012596 9.612125590732859 0 0 0
4398 1 3 0 11.660201505431594 10.059926484240636 10.103619455250298 0 0 0
4397 1 3 0 12.14544225219127 10.831121966699023 10.253801123144106 0 0 0
4380 1 2 0 13.081160523520486 11.016098557439316 10.2632340775357 0 0 0
4565 1 2 0 13.377542202991174 11.520195371025618 11.321620419251479 0 0 0
4379 1 2 0 12.593957395243596 11.856760529254567 10.328286109689708 0 0 0
3304 1 3 0 12.688817705596556 9.840941140755163 10.469432845498169 0 0 0
4453 1 3 0 12.104463888048764 9.25933529157157 11.577832288964753 0 0 0
4463 1 2 0 13.664867455192809 9.46667279388844 9.570168054073074 0 0 0
4564 1 2 0 14.127790579915603 11.151780779025426 10.993403938727601 0 0 0
4462 1 2 0 14.267602338403593 9.816452847577652 8.897657967909268 0 0 0
4381 1 2 0 13.835649017787134 10.48921310955144 10.035742885657399 0 0 0
4190 1 2 0 15.340644357669007 9.739004881549135 9.211047347445286 0 0 0
4191 1 2 0 15.588422791971952 9.351475543711272 10.086568233677335 0 0 0
4382 1 2 0 14.795142037673877 10.255955224829103 9.936480930379647 0 0 0
4464 1 2 0 14.112519711737544 9.635210980439384 10.57095103479566 0 0 0
4563 1 2 0 14.927372274474966 11.028352171517076 10.503513699478308 0 0 0
4300 1 2 0 13.92766322060329 11.615713293727959 9.783276672017445 0 0 0
4562 1 2 0 15.593246911955813 11.580794226648958 10.091951138646948 0 0 0
4468 1 2 0 14.789439355954496 11.871466067133502 11.364301444501242 0 0 0
4469 1 2 0 15.680260556296897 11.648608662866776 11.82239558703775 0 0 0
4034 1 3 0 15.999711115461588 10.28292619670147 9.97414129494907 0 0 0
4495 1 3 0 17.71515145122935 10.022587470395262 10.307805129539812 0 0 0
3378 1 2 0 18.153230842398337 11.277401735740845 10.747150442684173 -1 0 0
4492 1 3 0 17.085779971322193 10.936924049360147 12.326959448981732 0 0 0
4494 1 3 0 17.350131304228697 10.327871200682669 11.167549569096396 0 0 0
4493 1 3 0 17.74548905812135 10.28118635235672 11.99838287383958 0 0 0
4032 1 3 0 17.234278826948408 9.165120420723637 11.103789989769927 0 0 0
4561 1 2 0 16.20918300374838 11.577660978329664 9.325968031918789 0 0 0
4035 1 3 0 16.27787511647477 10.473781027227336 10.925728607940824 0 0 0
5141 1 2 0 18.345013010558535 12.741636780468662 9.311646342377701 -1 0 0
5139 1 2 0 18.363589466310046 11.608248578011564 9.081181177563824 -1 0 0
5140 1 2 0 18.48863357336287 12.03899245301635 9.922977607528846 -1 0 0
3216 1 3 0 2.873229929258383 11.031919740041625 11.508100941124454 0 0 0
4366 1 3 0 3.147818569938071 11.137870429518987 9.551425498632259 0 0 0
4365 1 3 0 3.970077017022129 11.349238730791019 10.06890986400033 0 0 0
4260 1 2 0 4.358776844295346 11.990688537010358 11.23527144901766 0 0 0
1091 1 3 0 5.100204849224924 13.012655121061057 12.435649360349124 0 0 0
4363 1 3 0 5.127326493180034 11.19558557799634 11.485196351248195 0 0 0
4638 1 2 0 4.811016171299085 14.096434681850532 10.03484059111005 0 0 0
4262 1 2 0 5.304565055453626 11.719041226145972 9.579482295125583 0 0 0
4362 1 3 0 5.289634138836609 12.179218950436178 11.506673115402318 0 0 0
4163 1 2 0 6.415753297811819 11.911729482162887 10.99712090380249 0 0 0
4261 1 2 0 5.040305799297452 11.77603311532105 10.540523875731038 0 0 0
4612 1 2 0 6.912400373174232 12.776058175120848 10.3088272904029 0 0 0
4613 1 2 0 6.529116769017721 13.246665493448678 11.067284430464877 0 0 0
2495 1 2 0 6.834573371137058 13.884078728338269 10.162522521219486 0 -1 0
4164 1 2 0 7.168121514823951 12.3682398399707 11.382133594585014 0 0 0
2494 1 2 0 5.9810248571812386 14.09324421355055 9.727357837821879 0 -1 0
4614 1 2 0 7.0051690257177315 13.8951073597575 11.587685370123301 0 0 0
1090 1 3 0 4.526830088180514 12.241672902899989 12.287858400792107 0 0 0
4372 1 2 0 8.74377469143658 11.893485881103306 10.437860090561538 0 0 0
4615 1 2 0 7.3142261687402375 13.835933613435722 12.555009920532502 0 0 0
4319 1 2 0 7.586186653092509 11.939286865741918 9.723098167821197 0 0 0
4320 1 2 0 8.080628767801665 12.735741793927975 9.908459325866913 0 0 0
4321 1 2 0 7.73720419849219 13.507142120861499 9.451274591346184 0 0 0
3459 1 2 0 8.600686422683847 13.53402176171134 10.272447174800549 0 0 0
4373 1 2 0 8.449339898026233 12.616869261056651 10.88809886796196 0 0 0
4374 1 2 0 9.069399855046871 13.129248693078779 11.322927125870617 0 0 0
4165 1 2 0 7.796713159261363 13.087062270219713 11.464796430028178 0 0 0
4409 1 2 0 10.51955806427681 12.290757192242946 9.693827094724785 0 0 0
4408 1 2 0 10.315706014325167 11.44764389909603 10.120324623884228 0 0 0
4421 1 2 0 9.566082752396591 11.757339314287 10.98871046957508 0 0 0
2548 1 2 0 10.527922523930028 12.338702231008307 10.882141421709255 0 0 0
2549 1 2 0 9.848296046437213 12.523730436894391 11.61806314660307 0 0 0
4422 1 2 0 9.719439587077241 12.506260892266363 10.347933308956316 0 0 0
4375 1 2 0 9.882180495247665 13.273153235687207 10.91441005366603 0 0 0
4376 1 2 0 10.760354306428898 13.372847235718702 10.653173386671423 0 0 0
4423 1 2 0 9.909877290894991 13.287317949796712 9.88583328090085 0 0 0
4410 1 2 0 11.160217097141576 13.027089465825302 9.751807304782483 0 0 0
2547 1 2 0 11.270723444184805 12.105860447952054 10.309864308840048 0 0 0
3661 1 2 0 9.994996828076514 14.449873331298804 11.398616956491086 0 0 0
4392 1 3 0 11.46006161758639 14.01651326121838 10.435987099269108 0 0 0
4387 1 2 0 12.993533066245538 12.288944208085594 9.472847616548222 0 0 0
3435 1 2 0 11.338974680461117 11.768579793595771 11.522510523994784 0 0 0
4377 1 2 0 11.456469309565517 12.855551596905883 11.0315959830734 0 0 0
4378 1 2 0 12.162694395115102 12.271819051622616 11.004907150645442 0 0 0
4412 1 2 0 12.329401121587724 13.395981992043913 10.840000992396233 0 0 0
4413 1 2 0 12.24085332155532 13.26754727419494 11.759730700865452 0 0 0
4404 1 3 0 13.03395003843768 12.722250003458255 11.200558468897604 0 0 0
4405 1 3 0 13.32161467535155 13.01377883375106 12.080182863347137 0 0 0
4414 1 2 0 12.1148842246723 12.511357769427864 12.31446336967658 0 0 0
4522 1 2 0 15.88121799440092 12.639878101376324 8.637093553158884 -1 0 0
4385 1 2 0 14.662094340426991 12.329015183071455 9.426163343473142 0 0 0
4299 1 2 0 13.74173245953263 12.098805559925149 10.554290969319185 0 0 0
4488 1 3 0 14.307135154070128 12.998177884891376 10.173711755739605 0 0 0
4487 1 3 0 14.812900275283045 12.200731982769621 10.525632038843508 0 0 0
4523 1 2 0 16.373872449380666 12.789661812755853 9.45382269721106 -1 0 0
4489 1 3 0 14.008983759531882 13.688250422593228 9.563947701851443 0 0 0
4296 1 2 0 15.452051198347954 13.485965093077953 10.61937588440166 0 0 0
4403 1 3 0 13.556775266030485 13.428501324302525 10.843099039103434 0 0 0
4298 1 2 0 14.093454329410703 12.495347302719141 11.309338425709536 0 0 0
4297 1 2 0 14.688973148633435 13.240903935322953 11.245797027058794 0 0 0
3379 1 2 0 17.60866352631142 11.172249205075584 9.96085085995696 -1 0 0
4579 1 3 0 15.852760605572914 12.491062161585972 10.599267724070483 0 0 0
4577 1 3 0 16.578434687068633 11.171796986897581 10.145037117945389 0 0 0
4578 1 3 0 16.554975686039093 11.880153158594474 10.791765829693986 0 0 0
4524 1 2 0 16.552456769423877 13.290958115150392 10.212979986550861 -1 0 0
3418 1 2 0 3.80128929539701 15.208815488083866 9.10255825414236 0 0 0
4641 1 2 0 4.311051654757311 15.615803337335992 11.940454706536256 0 0 0
4640 1 2 0 4.196696711043906 15.006737292387422 11.204296877999177 0 0 0
4639 1 2 0 4.38461703156669 14.97626372230459 10.247602383188243 0 0 0
3560 1 2 0 5.96197736552666 16.086551695011664 9.924180187254455 0 0 0
4585 1 2 0 5.1133537551356145 14.754068344528658 11.457869266901783 0 0 0
4584 1 2 0 5.5551442371626445 14.913897318323166 10.590941041056329 0 0 0
4583 1 2 0 6.383513708895722 15.006897746356275 10.139970566159116 0 0 0
3561 1 2 0 6.186401523693869 15.92514410086691 10.87353045288102 0 0 0
3532 1 2 0 5.112929552258367 15.873570124217105 10.924941904425632 0 -1 0
3531 1 2 0 4.839984925409428 15.983048926594732 9.977811275910078 0 -1 0
3530 1 2 0 5.158824487852531 16.90466877810987 9.95980241320875 0 -1 0
3656 1 2 0 6.9662698401741565 15.599092096329752 11.866655478672051 0 0 0
3559 1 2 0 6.61680285082751 15.781887772658406 9.320503231684118 0 0 0
3659 1 2 0 9.002383416895652 15.015425666850517 11.679067626362286 0 0 0
3660 1 2 0 9.28665372533254 14.135075926205323 11.867965141244031 0 0 0
3637 1 2 0 7.193701503001609 15.006306644123393 11.005702737541675 0 -1 0
3638 1 2 0 6.335580087521316 14.971086867340865 11.368239675007109 0 -1 0
2496 1 2 0 7.6136893181049965 13.91421822104884 10.702968266231888 0 -1 0
4636 1 3 0 7.155502347756027 16.697115806342744 9.16701166141224 0 0 0
3636 1 2 0 8.057185343420247 15.312825964052012 11.386565276442111 0 -1 0
3460 1 2 0 8.881524071525915 14.316361304804 10.79525231032569 0 0 0
2497 1 2 0 7.89348905322176 14.869370141505277 10.334327080746199 0 -1 0
3586 1 2 0 8.531811636618134 15.75604373848595 10.51644960370812 0 -1 0
3461 1 2 0 9.449056293706203 15.08008288336453 10.665901281650784 0 0 0
4771 1 2 0 7.2609971388348375 16.081915684864406 10.93312268360451 0 -1 0
4426 1 2 0 10.962934758410777 15.08400178768205 9.663657361415437 0 0 0
3635 1 2 0 8.805536938192452 16.033267878526658 11.505664559510043 0 -1 0
3663 1 2 0 10.556533248046295 14.091406882250505 9.660817855440529 0 0 0
4425 1 2 0 10.024656274440318 15.053623929241137 9.80254966544293 0 0 0
4424 1 2 0 9.521153666443725 14.089442347627063 9.601189663754605 0 0 0
3441 1 2 0 10.402572427904989 16.154147314507714 9.71417977064536 0 0 0
3662 1 2 0 10.065851599156696 14.240325293178158 10.475277520855803 0 0 0
3462 1 2 0 9.94080780530071 15.836737368827304 10.98363874387192 0 0 0
3440 1 2 0 10.846204551520588 15.903744409250592 10.53775907374384 0 0 0
3439 1 2 0 10.967515416016779 14.955412110263202 10.828995902232975 0 0 0
3587 1 2 0 9.370141316666162 16.08653142671472 10.158518326151494 0 -1 0
3463 1 2 0 10.220046873356045 16.60756544351454 11.506002093521625 0 0 0
3438 1 2 0 11.101668822987596 14.29295068088922 11.457272214163114 0 0 0
3334 1 3 0 12.837765943223536 14.631021362677394 8.209335716406304 0 0 0
3475 1 2 0 13.421405222515773 15.721657125199465 9.232216184911886 0 0 0
3476 1 2 0 12.705157033665078 15.159979978815857 9.565649394412869 0 0 0
95 1 1 0 11.815943466947935 15.457323217296105 9.869704918422872 0 0 0
4393 1 3 0 11.576468311646403 14.08369183121509 9.47056733684094 0 0 0
4662 1 2 0 11.993081975765444 14.902754518568207 10.640477427419002 0 0 0
3744 1 2 0 13.044654964238715 15.562847096627513 11.081940029478986 0 0 0
4491 1 3 0 13.066578396335172 14.45081604941813 10.505812543692882 0 0 0
4663 1 2 0 12.158152969036156 14.357763375385092 11.479358927005858 0 0 0
3743 1 2 0 13.141103135034188 16.07045079132373 10.333239383782466 0 0 0
3737 1 2 0 14.713660654525912 15.28937769050472 8.904265202535859 0 0 0
3335 1 3 0 13.524466890135384 13.875561303650448 8.333388480413618 0 0 0
4293 1 2 0 16.67287655375904 14.430612241445978 9.335415144248735 0 0 0
3336 1 3 0 13.907132696681206 14.737771541214718 8.534547502659619 0 0 0
3736 1 2 0 14.777474981282491 14.412274755819217 9.44387442341153 0 0 0
4490 1 3 0 13.642906362009725 14.568052751525661 9.728422570466144 0 0 0
4295 1 2 0 15.623999939078326 14.33284735442442 10.067564345228474 0 0 0
4294 1 2 0 15.899590798430491 14.938835549440507 9.449695591716377 0 0 0
3733 1 2 0 15.020747572139681 15.079728183955359 10.775826501011004 0 0 0
3735 1 2 0 14.63876446161899 14.119575117761736 10.31291027422119 0 0 0
4525 1 2 0 16.458930583155865 14.085777940387944 10.7141968986493 -1 0 0
4791 1 3 0 1.7103732577171262 0.1985263594036164 13.449336747200626 0 0 0
4752 1 2 0 1.2533666904353022 17.35069481866858 11.571149818751609 0 0 0
4751 1 2 0 0.5734248936886618 16.733362019000353 12.01059810559328 0 0 0
4816 1 3 0 3.2147460986268745 1.1068443921643414 10.125161179448439 0 1 0
4813 1 3 0 2.987555752434059 18.206915179285875 11.290014096740276 0 0 0
4812 1 3 0 2.255856907370509 17.639653292344043 11.362129154553648 0 0 0
3578 1 3 0 4.572414408979571 18.068751723475437 10.488045884537847 0 0 0
4775 1 2 0 5.3244285643095814 0.13986270422824654 10.764534044605496 0 0 0
3581 1 3 0 3.295062713628393 16.875510086671188 10.988455110260935 0 0 0
3652 1 2 0 6.8148687253289655 0.16540269330344382 11.670372460018022 0 1 0
3848 1 2 0 4.877864801789017 0.4728344507897945 9.68219953156021 0 0 0
4772 1 2 0 6.8852185556612175 16.61029047823072 10.204834483032005 0 -1 0
3582 1 2 0 6.437362072636695 18.55640824334918 10.56730389710597 0 -1 0
3602 1 3 0 6.074060223356949 18.54857219648106 9.619536037947027 0 -1 0
3847 1 2 0 5.1820589659629395 0.16235478064367975 8.841840054791628 0 0 0
3577 1 3 0 5.041318943843148 17.359024384768293 10.986587257022602 0 0 0
4774 1 2 0 5.653765214861645 17.963828834137782 10.326922567637613 0 -1 0
4773 1 2 0 6.124438523268566 17.168546014660954 10.039977599513193 0 -1 0
3562 1 2 0 5.751181297784658 16.76022068795611 11.093239431702766 0 0 0
3563 1 2 0 6.349483419961542 17.4979003456999 11.070482579912337 0 0 0
3654 1 2 0 6.0266663593136744 17.235873051753348 12.03373772300538 0 0 0
3844 1 2 0 7.6474131493591715 0.11982913034236455 9.766102646922516 0 0 0
3923 1 2 0 8.94156042041617 0.05901066480014673 11.25113788935566 0 0 0
3583 1 2 0 6.922216801399865 17.91979858984699 10.114189835465494 0 -1 0
3568 1 2 0 8.802223848838308 17.01225720829824 9.948326205084491 0 0 0
3845 1 2 0 7.003077679382682 18.408505424552615 9.115386852723338 0 -1 0
3599 1 2 0 8.392981788997544 17.92324403080791 9.64355108953627 0 -1 0
3584 1 2 0 7.652148665370467 17.254593262773973 10.042078718876033 0 -1 0
3585 1 2 0 8.0696856760309 16.540978822288466 10.421046412148591 0 -1 0
3600 1 2 0 8.007061432155364 18.10573485984048 10.540694831635426 0 -1 0
3566 1 2 0 8.21502502815582 17.23594156910982 11.32252701293519 0 0 0
3601 1 2 0 7.8656072446901435 18.279089716939627 11.544623007347662 0 -1 0
3565 1 2 0 7.37503949539105 17.489658157020198 11.0279414892985 0 0 0
3567 1 2 0 8.967992635330424 16.85119999000647 10.845601345882061 0 0 0
3922 1 2 0 9.113466909961547 18.012510955469093 10.532362715224444 0 -1 0
4630 1 2 0 10.844814319694853 17.05904084293635 9.538522569970812 0 0 0
3674 1 2 0 10.912007805533662 18.335891995240395 11.063841872697214 0 -1 0
3921 1 2 0 9.459204561499854 17.998533652425767 9.644597152463524 0 -1 0
4631 1 2 0 11.473626142150941 16.359139870971863 9.776822205786369 0 0 0
3588 1 2 0 9.924041033393888 16.831757807591334 10.379606415762723 0 -1 0
4629 1 2 0 10.43028587148274 17.78042296666344 9.984762224100825 0 0 0
3589 1 2 0 10.876219017502338 16.949416472781667 10.64797370031948 0 -1 0
3673 1 2 0 10.257441046515073 17.57166099216921 11.101837645453191 0 -1 0
3672 1 2 0 9.319429206324726 17.69999373672691 11.453476452571788 0 -1 0
3607 1 3 0 11.247525138153497 17.226184071694313 11.488996380490896 0 -1 0
3742 1 2 0 12.595842405872968 16.31052069576287 9.659687871421504 0 0 0
3591 1 2 0 11.73001154354234 18.30085307913297 9.766829916323559 0 -1 0
3590 1 2 0 11.391330489918106 17.724207704183627 10.409208657223674 0 -1 0
3702 1 2 0 11.7470975985068 16.61668715610226 10.903227881571382 0 -1 0
3490 1 2 0 13.108575551254743 17.02202023368658 10.756900759158224 0 0 0
3714 1 2 0 12.30046445152992 17.82924246907665 11.545221338117297 0 -1 0
3700 1 2 0 12.358094007872568 18.08776337097063 10.525608391429953 0 -1 0
3701 1 2 0 12.20152161930995 17.14482553114715 10.302927015011738 0 -1 0
3489 1 2 0 13.150932576452826 17.721965135852116 10.008680333343095 0 0 0
3488 1 2 0 14.094579956848033 17.807934773107267 9.629781638450474 0 0 0
3503 1 2 0 15.809135660587247 18.374383894456383 9.72362713599877 -1 -1 0
3732 1 2 0 14.424714966320593 15.816373107907658 10.44297574324617 0 0 0
3758 1 2 0 13.653097871859167 0.09469289610313421 10.46175751564621 -1 0 0
3759 1 2 0 13.977815970662354 18.292065635795225 11.376879905096134 -1 -1 0
3712 1 2 0 14.014155123624462 17.26639181062346 11.45776885976585 0 -1 0
3474 1 2 0 14.278744983847897 16.218760743617672 9.397676945288518 0 0 0
3473 1 2 0 14.278272276971894 16.842739520830545 10.103563082831364 0 0 0
3472 1 2 0 14.826803313069721 17.59422824406839 10.413989601574052 0 0 0
76 1 1 0 14.62256022132812 16.59480460240958 11.076575300459387 0 -1 0
2631 1 2 0 15.399684011187746 16.41562181153725 10.504008929508947 0 -1 0
2630 1 2 0 15.539657695783601 16.919083902088747 9.690541124979331 0 -1 0
72 1 1 0 16.696676374669075 17.090628491335096 9.800373543010444 -1 -1 0
3502 1 2 0 16.09114199010316 17.627048942955593 10.220265971546231 -1 -1 0
4940 1 2 0 15.569383119278731 17.620596196926275 12.437696023343127 0 0 0
4941 1 2 0 16.350602824149806 17.285250611911206 11.981454659197132 0 0 0
4114 1 2 0 2.049763539319232 1.561366677283878 11.84023113611739 0 0 0
4734 1 3 0 0.4085907211073829 1.0697567414981826 11.754060745584963 1 1 0
4755 1 2 0 0.6185749358228733 0.7308257006512093 13.229001700647562 0 1 0
4113 1 2 0 1.3440299658847603 1.4910340940923976 12.502746576475877 0 0 0
4754 1 2 0 0.9558171325698577 0.20010049116019238 12.458526514515148 0 1 0
4112 1 2 0 1.5882695008383525 1.3111686070160424 13.420419133745787 0 0 0
4950 1 2 0 1.0478110499134443 2.1357927576567497 13.569128096787773 0 0 0
4975 1 2 0 18.50582088272495 0.1957525680981003 12.06565287015076 0 0 0
4756 1 2 0 0.4132929716681458 1.2407607842311792 13.982663692523975 0 1 0
4534 1 2 0 0.5744603744390104 18.434538773674177 13.736223382396135 0 0 0
4790 1 3 0 1.9588156039403 0.36465554085031066 12.488964755543437 0 0 0
3523 1 3 0 0.11498523757088741 18.106590582215436 11.201806770511496 0 0 0
3775 1 2 0 3.2160382248252426 2.044509814162784 11.387794006071058 0 0 0
3776 1 2 0 4.009102864678489 1.5944175397164775 11.155291746898822 0 0 0
4789 1 3 0 2.817266678506128 0.3242488907778111 12.085410212366815 0 0 0
3797 1 2 0 2.744279379875659 0.5844198902293972 13.167187646241274 0 0 0
4778 1 2 0 3.8533887199787085 0.52575456645015 13.103208958282952 0 0 0
3796 1 2 0 2.620534681956394 1.4296590645440546 12.741522727262769 0 0 0
3857 1 3 0 4.142655135985447 2.2514948231546117 12.07969492645662 0 0 0
4779 1 2 0 4.052618020818879 1.3279060846026074 13.678326372927586 0 0 0
4780 1 2 0 4.207306576194517 2.104399176838957 14.271420775664593 0 0 0
3798 1 2 0 3.141358620459978 0.04033543499690061 13.878968572378964 0 0 0
3858 1 3 0 3.6478369683182468 1.7148459332834107 12.766152170828333 0 0 0
3859 1 3 0 3.188776130801065 1.8363918669440347 13.56792735901448 0 0 0
78 1 1 0 4.763547676254079 2.169540801105532 11.066699472605777 0 0 0
3812 1 2 0 5.127970303054445 1.3782287945872669 11.457059837137274 0 0 0
3623 1 2 0 6.1700547379299175 2.14652685305281 12.437280313109683 0 0 0
3624 1 2 0 6.392006163094719 1.4799222750142778 13.111540043663874 0 0 0
4819 1 3 0 5.436292802505485 0.41905548649190755 13.47525076626584 0 1 0
4820 1 3 0 5.2249091886529015 1.3144505419054517 13.193586335576802 0 1 0
4818 1 3 0 5.305317692015508 18.021540519636645 13.62936291854704 0 0 0
4821 1 3 0 4.566052658982176 1.323978723263359 12.563522704876274 0 1 0
3837 1 2 0 4.958250254341058 2.674929429931898 11.86795563385576 0 0 0
3838 1 2 0 5.917110497631948 2.808146363398296 11.667831439993105 0 0 0
3642 1 3 0 5.428413384743595 2.359217259351391 13.012646692150902 0 0 0
4864 1 3 0 5.800792238341305 1.4070248314754992 14.27203326676122 0 0 0
3924 1 2 0 8.218830297726038 0.6306786570129043 11.514276309627038 0 0 0
3925 1 2 0 7.363121401333231 1.2104550014088609 11.477923402984002 0 0 0
3817 1 2 0 7.306761249231738 2.0019942926233436 12.364863936698981 0 0 0
3862 1 3 0 8.735356969181613 2.4658083035576586 12.277486911036666 0 0 0
3863 1 3 0 8.101956409732894 2.9652697143212645 12.757953608821074 0 0 0
2559 1 3 0 7.542543868443792 0.3830474718569613 13.409537187895218 0 0 0
3816 1 2 0 7.749964675724372 1.2071043818619258 12.446498001371994 0 0 0
3840 1 2 0 7.705665746916995 2.6676864158663 11.729961090099664 0 0 0
2561 1 3 0 8.578559838426061 1.0123198081224165 13.990978860747948 0 0 0
3651 1 3 0 8.727072780703564 0.5030537076342971 12.583677120093057 0 0 0
3866 1 3 0 7.783675828158648 1.902981862560024 13.960364691753934 0 0 0
3815 1 2 0 6.906653896075351 0.7719316448925913 12.500785155711442 0 0 0
3865 1 3 0 8.296737560328499 1.7121195716697026 13.197259451264868 0 0 0
3864 1 3 0 8.480891503780164 2.6504602023556925 13.618291829230587 0 0 0
2528 1 2 0 9.672390522952487 1.2679702067810945 12.185920540261373 0 0 0
3694 1 2 0 9.562941263666957 0.976802823387845 13.266667216906985 0 0 0
4901 1 3 0 9.730198681209362 1.950211994401463 12.920059391887191 0 1 0
3695 1 2 0 10.538494938000184 1.2338852420428756 13.206067897204216 0 0 0
2529 1 2 0 10.601354409037404 1.632260108839965 12.295400695583334 0 0 0
4626 1 2 0 10.420169572217317 18.151266728081247 12.065919170450425 0 0 0
3715 1 2 0 11.790410606688537 0.03512092331907072 11.571242109897696 0 0 0
3698 1 2 0 12.601082845391623 1.1782788888546174 11.473680428373864 0 0 0
3716 1 2 0 11.554292923840318 1.0132067513782517 11.51227255100107 0 0 0
3684 1 2 0 11.18877698308253 0.43486144934324633 12.805365473632326 0 0 0
3696 1 2 0 11.390207122530208 1.3943704962404118 12.777043263526018 0 0 0
3685 1 2 0 11.940192021709155 0.7076672667115275 13.405919777830363 0 0 0
331 1 2 0 13.118117745488147 1.7483896302849171 12.194892108440628 0 0 -1
330 1 2 0 13.142835360609286 0.8556557523544314 12.605911451168135 0 0 -1
3697 1 2 0 12.193004432600661 1.0384973224443284 12.34206031869039 0 0 0
3686 1 2 0 12.646854610322835 1.2664866554029177 13.460980401028477 0 0 0
329 1 2 0 12.919618606199952 0.2861300232676739 13.369496720405879 0 0 -1
3717 1 2 0 11.6143828649619 1.899022492773544 11.910071996764964 0 0 0
3468 1 2 0 13.284021653783741 0.3775166449004153 11.72531811272896 0 1 0
651 1 2 0 14.165866979920546 0.7468457636528397 12.87408504204828 0 0 0
4926 1 2 0 14.04223619623892 2.096560392594076 11.684969657065924 0 0 0
105 1 1 0 14.120269278146038 1.7232274696820333 12.567783020945 0 0 0
3761 1 2 0 14.878642867895786 1.3710534644125019 11.889563614704237 -1 0 0
5032 1 2 0 14.651548059680465 2.4564521974910143 12.83279905370986 0 0 0
3689 1 2 0 15.324844487999128 1.3988276172970024 12.923075847837199 0 0 0
3690 1 2 0 16.173974958949564 1.29249021009545 12.434088667849194 0 0 0
3760 1 2 0 14.37443928783492 0.5229588184378648 11.971685523556525 -1 0 0
489 1 2 0 15.276904377851878 0.5492195068845224 12.428573291009574 0 0 -1
3777 1 3 0 15.77150408550704 2.32061083467467 12.8377669012437 -1 0 0
488 1 2 0 14.984875874011871 0.3899283765840469 13.3239833676694 0 0 -1
4740 1 3 0 16.757960873556613 0.23055651394592921 11.319321345550657 0 1 0
4741 1 3 0 16.01497228810789 18.31777985648734 11.55497859591258 0 0 0
3691 1 2 0 16.671341672416435 1.265710650240602 11.605433725745653 0 0 0
4737 1 3 0 17.61600865458068 1.5291279976282797 13.15182759601168 0 1 0
3778 1 3 0 16.65755245932726 2.154512646973638 13.220363006406188 -1 0 0
4738 1 3 0 17.95256780549129 0.7339850158953438 12.647938055560196 0 1 0
4739 1 3 0 17.350609429510683 0.6067161009280546 11.941077083302408 0 1 0
4974 1 2 0 18.123253870785394 18.251909713939064 12.829905780247303 0 -1 0
5083 1 3 0 16.97582902183842 0.5947912607919852 12.910660709928246 0 0 0
5082 1 3 0 17.094587762736328 0.9398729573180366 13.797702516945083 0 0 0
3726 1 2 0 16.103929404991067 18.278381180391175 13.27115679960912 0 -1 0
5084 1 3 0 16.32321819160507 0.1715542787316712 12.407545279307714 0 0 0
4532 1 2 0 17.858675193513875 18.21696396374923 14.11996144648999 -1 0 0
4953 1 2 0 0.2711518492427006 3.5181978399827294 11.6002594522562 0 0 0
4733 1 3 0 0.16264536236944785 1.4701974318844855 12.594940505832486 1 1 0
4732 1 3 0 18.55193870858932 2.0854630297741488 13.296726536551994 0 1 0
4952 1 2 0 0.5696420324203794 3.41655390215282 12.493838886447353 0 0 0
3792 1 2 0 0.6903199501901487 4.371437981676135 13.872492064978273 0 0 0
3793 1 2 0 1.2746536717691335 3.6864961966062637 13.479280252322132 0 0 0
4951 1 2 0 1.144255278587827 2.744559626612589 12.788941519605457 0 0 0
3794 1 2 0 1.7682201949486835 2.8725481942731252 13.70829073044328 0 0 0
4072 1 2 0 0.1294941381316751 4.466102742116697 12.60621159505532 1 0 0
3795 1 2 0 2.0522745371521984 2.171368608294893 13.145417646545836 0 0 0
3852 1 2 0 3.7575644462135247 2.6207764596177654 10.750106654235346 0 0 0
4130 1 2 0 2.1761653314770877 2.8808168069082645 12.335595635481166 0 0 0
4131 1 2 0 2.9826082793407336 2.7275795187737657 12.75952968218253 0 0 0
4132 1 2 0 3.683168659278048 2.8695637631888973 13.456576369087129 0 0 0
4129 1 2 0 2.5661089206032544 3.5891063096198814 11.840126326518995 0 0 0
3855 1 2 0 3.3698192683755632 3.6907478847875392 12.929591701691105 0 0 0
3853 1 2 0 3.4263536637038525 2.9915848630299338 11.593344604489491 0 0 0
3854 1 2 0 3.9927628516015923 3.5039391889112865 12.205799583050434 0 0 0
3940 1 3 0 5.185067854238095 3.8352101129343 13.212180433232438 0 0 0
3941 1 3 0 4.739685634925357 3.096941404205222 12.873223625893255 0 0 0
3643 1 3 0 5.967706535242102 3.0749130539864273 12.91253254272536 0 0 0
3644 1 3 0 5.7600321226680595 3.237527699993557 13.852954841933347 0 0 0
3819 1 2 0 6.8166766250642175 3.6249620379604637 13.351560383756727 0 0 0
3821 1 2 0 6.65373259716611 4.526174288327588 11.83761689400095 0 0 0
3645 1 3 0 5.9540535309528835 3.133952207333933 14.804746025035989 0 0 0
4866 1 3 0 4.748344290292149 2.923175616032166 13.927361993993614 0 0 0
3818 1 2 0 7.038646849955125 2.7979097376079913 12.927726047728253 0 0 0
5251 1 3 0 8.332992980963638 4.1559580675581085 12.4311579816803 0 0 0
3839 1 2 0 6.815362399453718 2.9281178451416356 11.997007649820786 0 0 0
3958 1 2 0 7.607959541407571 4.19730636695111 13.243352937403467 0 0 0
3957 1 2 0 8.372832056798131 3.7167563237927843 13.448917930640473 0 0 0
5250 1 3 0 9.127050589630928 4.369976852468617 12.938671199391987 0 0 0
3956 1 2 0 9.076593002011265 3.340136383910596 12.93968120546391 0 0 0
56 1 1 0 11.246848805286684 3.9089215754088658 12.132347419193895 0 0 0
5249 1 3 0 9.92933879090736 4.845064989249685 13.304928261603408 0 0 0
3932 1 2 0 9.65013309428925 4.046342466065231 11.816678947501789 0 0 0
4900 1 3 0 9.678855207365471 2.6176306745133053 13.678335784591683 0 1 0
3954 1 2 0 10.620688435781092 3.054603784067882 11.916408157986991 0 0 0
2530 1 2 0 10.660133150779295 2.493736614938329 12.862227797188007 0 0 0
3955 1 2 0 9.861486829567802 3.176631653876665 12.446526918545562 0 0 0
3933 1 2 0 10.187751628791576 4.115698568647365 12.634765578266869 0 0 0
3934 1 2 0 10.39537656970153 3.441868368208264 13.359594747440529 0 0 0
2531 1 2 0 11.35154727605789 3.2112678851102308 12.873212022610952 0 0 0
911 1 2 0 11.674486296221781 3.981994037415322 13.792512263571371 0 0 -1
5248 1 3 0 10.489672708375563 5.445219699269768 13.902843644752199 0 0 0
4899 1 3 0 10.266887907684678 2.84854510501744 14.294218370722174 0 1 0
3935 1 2 0 9.574542167556585 3.8649087997196596 13.671748825702362 0 0 0
1916 1 2 0 12.078236142535786 4.252269567904743 12.384320205088562 0 0 0
4916 1 2 0 12.600918851264325 3.368294401610688 11.811313331656825 0 0 0
4914 1 2 0 12.904174877766087 2.3127382599903537 13.117959256108083 0 0 0
332 1 2 0 13.438794097707543 2.6764131527237036 12.328409264883867 0 0 -1
3994 1 2 0 13.970833042083974 3.7922758414014393 11.939147406654888 0 0 0
3718 1 2 0 12.021059781129935 2.2763378210248693 12.699367376270825 0 0 0
4915 1 2 0 12.526812711453056 3.148729992148817 12.786888266875293 0 0 0
3995 1 2 0 13.271556203855415 4.00599342323169 12.592078845103174 0 0 0
3996 1 2 0 12.732263001301831 4.377739484221137 13.350040713074002 0 0 0
3719 1 2 0 12.06589963996633 2.5013556956083294 13.633777657326279 0 0 0
334 1 2 0 13.096195978826454 3.5806470936382824 13.795388356404313 0 0 -1
333 1 2 0 13.667752418094874 3.246789268710912 13.084305281804518 0 0 -1
1915 1 2 0 12.80125329439352 4.709349563880359 11.967759298919095 0 0 0
3720 1 2 0 12.818305378525801 2.647135705665709 14.202626667367374 0 0 0
3964 1 3 0 14.421198871975227 2.985387093603929 11.497120671326341 0 0 0
492 1 2 0 16.278293167034217 2.287981325275201 11.521839361049773 0 0 -1
3762 1 2 0 15.396793670362614 2.251925228887913 11.976998725730379 -1 0 0
3993 1 2 0 14.147988992222263 4.075144926268258 11.016946752584195 0 0 0
1924 1 3 0 14.32833769594867 4.1457011840495985 12.850088422940964 0 0 0
3763 1 2 0 15.44861569665835 3.1010276131935965 11.631450426181 -1 0 0
494 1 2 0 16.049968280960233 3.398475820854003 13.108641809119701 0 0 -1
5033 1 2 0 14.81337861148729 3.309508256940443 13.27305296245346 0 0 0
5034 1 2 0 14.256557215923593 3.8723836985154096 13.875115137578486 0 0 0
1925 1 3 0 15.035733208536065 3.8965042464141795 12.28820636374074 0 0 0
493 1 2 0 16.22730800577059 3.0019655445868847 12.222488841887628 0 0 -1
1926 1 3 0 16.047441422236016 4.175671076628659 12.38565466544601 0 0 0
3780 1 3 0 17.95714358207008 1.9331195585426142 12.25027755548645 -1 0 0
4723 1 2 0 17.48344223558784 2.4437030114518916 13.629166302833312 0 0 0
3791 1 2 0 18.404117056699533 4.592703422280894 13.522853257106169 0 0 0
3779 1 3 0 16.99778950121313 1.9997220388132155 12.34611669708717 -1 0 0
4722 1 2 0 18.168437730693732 3.0042942087865976 13.175968908593944 0 0 0
4071 1 2 0 17.963652575190935 3.8886290317059093 12.452243172686035 0 0 0
4980 1 2 0 17.21456545969306 3.158907504868443 12.70886389608053 0 0 0
4981 1 2 0 17.502670844711204 3.815507222684681 13.368442369036641 0 0 0
4070 1 2 0 17.078557279738376 4.239154726943868 12.103016434295292 0 0 0
3790 1 2 0 17.617498894627612 4.8090975827455065 13.001221321873828 0 0 0
3789 1 2 0 16.714276719829023 5.122584558102182 12.716740731904242 0 0 0
4982 1 2 0 16.764925588372858 3.722685820048358 14.010335662255393 0 0 0
5106 1 2 0 0.24868771887770277 5.461908453041984 11.775301122972936 0 0 0
4062 1 2 0 1.5666575484812297 5.63801196227699 11.438489913815328 1 0 0
5107 1 2 0 0.9062366458676708 4.759768592267488 11.993616291144129 0 0 0
5109 1 2 0 1.3688638334987977 5.239502215255556 13.652301633538304 0 0 0
5108 1 2 0 1.264048420251184 4.622696130019445 12.857596260454741 0 0 0
4092 1 3 0 2.0431023338672136 5.231627003430475 12.32475286177897 1 0 0
4074 1 2 0 1.1801178365471958 5.7363324201689 12.480657693637173 1 0 0
4042 1 2 0 2.3281681818138305 6.048719437294224 12.944290968957375 0 0 0
4073 1 2 0 0.35649506203446085 5.356788507377274 12.872476179194862 1 0 0
82 1 1 0 1.9014332409394759 6.29454656808259 12.043001783648096 0 0 0
5128 1 2 0 0.596616014397633 6.531503910930041 12.896734219035245 0 0 0
4075 1 2 0 0.7821078532985228 6.356006983488077 11.809458958291051 1 0 0
5127 1 2 0 1.0461640595968928 6.201944966194822 13.666645667314198 0 0 0
5129 1 2 0 18.511471037436916 6.6570040445729015 12.279768469972659 -1 0 0
4093 1 3 0 2.5555969039773814 4.667434219553055 11.753423067917334 1 0 0
4103 1 2 0 4.289276965163755 4.357411387006263 12.983682447263131 0 0 0
4128 1 2 0 2.2511141754413657 3.964334758480229 12.659775358790803 0 0 0
83 1 1 0 3.2245407373694124 5.486553219037099 12.24323979747501 0 0 0
4102 1 2 0 4.064387383093742 5.1066019059154435 12.33254824862446 0 0 0
4127 1 2 0 2.87133063162075 4.688692705683689 12.751329485647531 0 0 0
4155 1 2 0 3.3941624664171868 6.440562694379269 13.117597581395778 0 0 0
4156 1 2 0 3.8020492316111487 7.229802111938953 12.78925042303427 0 0 0
4136 1 2 0 4.259680400734709 6.278438194750133 13.689032620635128 0 0 0
4104 1 2 0 4.780133125522267 4.779622174971601 13.698487878744155 0 0 0
3904 1 2 0 5.901077564404499 4.414766856028302 13.710579301058388 0 0 0
3205 1 2 0 5.565757590731831 5.043848339927105 11.999031178254699 0 0 0
3204 1 2 0 5.115678302265075 5.491617011835452 12.703502315275198 0 0 0
3906 1 2 0 6.414524725767254 5.654798682105529 12.509907202678482 0 0 0
3905 1 2 0 6.27415553360449 4.7904233015819 12.951571073953255 0 0 0
5159 1 2 0 5.939395810446552 5.669030187107276 13.501962693638887 0 0 0
84 1 1 0 6.579376671229071 6.253170986400828 11.70854651109905 0 0 0
3203 1 2 0 4.59035959970207 6.2752788170260745 12.554206456925353 0 0 0
5160 1 2 0 5.220858421521387 6.148141554293738 13.885951930399228 0 0 0
5059 1 3 0 8.536930506805895 7.035057055563824 12.820369796251239 0 0 0
3913 1 3 0 8.631804986870291 4.8841541451827615 13.785849983298569 0 0 0
3912 1 3 0 8.334946248303885 5.261818289366409 12.962417977923357 0 0 0
5158 1 2 0 6.895607125950635 5.88729094614387 13.46448712729953 0 0 0
5060 1 3 0 8.568056490446706 6.2093136809943035 13.288938988275502 0 0 0
3960 1 2 0 7.5975218718657125 5.827622147027767 12.458111175900067 0 0 0
3959 1 2 0 7.374717246962686 4.902824447001271 12.556992507925408 0 0 0
5157 1 2 0 7.640496823785622 6.481152578295507 13.47961516206737 0 0 0
3961 1 2 0 7.610168329579423 6.724600181799383 12.12372167482767 0 0 0
3892 1 2 0 8.793459248675134 5.104689437685815 12.113296523508883 0 0 0
5041 1 2 0 10.130390997173482 5.161038181202148 12.301565217396318 0 0 0
5218 1 3 0 11.222974935394406 5.948440101812028 11.748286940361139 0 0 0
5217 1 3 0 11.54107619525489 6.823573258325143 12.254785078490292 0 0 0
5058 1 3 0 9.429256010116346 6.729866080964812 12.512626326152864 0 0 0
5039 1 2 0 11.67669206431948 5.212450188884452 13.339924271953853 0 0 0
5040 1 2 0 10.950930694754721 4.990523235235733 12.7676970527064 0 0 0
3894 1 2 0 9.346396010694056 5.720964764688965 13.820196310299465 0 0 0
3893 1 2 0 9.28644782366934 5.584274376486969 12.834178364591283 0 0 0
5247 1 3 0 10.736217570983317 6.049661445889759 13.177949523462324 0 0 0
5242 1 2 0 11.5609000117602 6.396112099513792 13.52435585927535 0 0 0
5243 1 2 0 12.274668500204466 6.631300349170252 14.125220054046622 0 0 0
5241 1 2 0 11.46895919732881 5.8172145733880125 14.248208855063112 0 0 0
2901 1 2 0 11.7655773818817 5.2217595534817045 12.18352612249039 0 0 0
5096 1 3 0 14.49247391123233 5.229785905060325 11.149635572045117 0 0 0
110 1 1 0 13.79287785859809 6.730372146153321 11.618984783146523 0 0 0
1923 1 3 0 13.830024262899787 4.857529179152001 12.410807674167085 0 0 0
4225 1 2 0 12.770354999700427 7.335211047632455 12.10586643006286 0 0 0
1922 1 3 0 13.615945932413485 4.839717914411176 11.462972273849259 0 0 0
5037 1 2 0 13.257913110979425 5.718876831481715 13.359184663052966 0 0 0
5038 1 2 0 12.456812992754372 5.589040878929558 13.797019149469515 0 0 0
2902 1 2 0 12.3890197138166 5.754940294573263 12.577267906859145 0 0 0
2903 1 2 0 13.261820406705642 5.737719727010796 12.270114971322847 0 0 0
5244 1 2 0 12.566355474513557 6.727473962877467 13.20529257869165 0 0 0
5227 1 2 0 14.606914063080021 6.840572052198852 12.065966895790666 0 0 0
2906 1 2 0 16.01212569333136 6.058279025389605 11.378530671002963 0 0 0
5095 1 3 0 14.828171730813262 4.817637643175353 11.932832429283108 0 0 0
5094 1 3 0 15.379507720587014 4.895472261718435 12.78189128279325 0 0 0
5093 1 3 0 15.361050774349982 4.127670789053646 13.373845713236237 0 0 0
2904 1 2 0 14.255063719520674 5.802572171011361 12.197433665566638 0 0 0
2905 1 2 0 15.16818919842045 5.83312574103037 11.826023202232815 0 0 0
5052 1 3 0 14.73329867705236 5.184099565669903 13.678362830624858 0 0 0
3788 1 2 0 16.066099527946488 5.154015487223984 12.011205542344413 0 0 0
5145 1 3 0 15.76235682572264 6.415335603227352 12.56439215333208 -1 0 0
5143 1 3 0 16.756030632460458 6.177492376184475 12.428949554226168 -1 0 0
2907 1 2 0 16.848630185558587 5.707895770759116 11.38327676745391 0 0 0
3802 1 3 0 17.381542765721765 5.621729323646753 13.428964391990823 0 0 0
4956 1 2 0 17.97259817250741 5.8514761648651925 12.533980120248478 -1 0 0
5142 1 3 0 17.40315444994856 6.487297953534029 11.759144597605827 -1 0 0
4955 1 2 0 17.88797179434773 4.977759393165839 12.034608301186777 -1 0 0
4240 1 2 0 16.742927196310998 6.736301740169099 13.847430984090126 0 0 0
5144 1 3 0 16.342079356712052 5.9420217119834104 13.238282941098694 -1 0 0
4957 1 2 0 17.634911749651607 6.673324525790796 12.928616164869029 -1 0 0
3803 1 3 0 18.132606150259175 6.158286504918181 13.615366548113037 0 0 0
4076 1 2 0 0.5918075789856772 7.290363155012844 11.719135809833315 1 0 0
4012 1 2 0 1.4835206888176389 7.101047014569461 12.314278637369222 1 0 0
4013 1 2 0 1.5965667709375133 8.058428129480157 12.502839160787008 1 0 0
4959 1 2 0 0.7192750923461526 7.59005716519456 12.82150330659359 0 0 0
4014 1 2 0 0.7558172980708621 8.341421661407734 12.097544337077078 1 0 0
4077 1 2 0 18.418510632319254 7.7216517024434665 12.20178300795452 0 0 0
717 1 3 0 17.88904368228435 8.345436626444085 13.231833221355526 -1 0 0
719 1 3 0 0.37337934751547264 9.64639592095295 12.892681117402812 0 0 0
5297 1 2 0 3.156530552921918 9.405027701795278 13.668438984374744 0 0 0
720 1 3 0 0.9957084245658131 9.414401296806677 12.190029756344929 0 0 0
4960 1 2 0 0.9813855224712814 8.197841080769521 13.480012720112432 0 0 0
2931 1 2 0 2.8888304802280262 6.533158721298076 12.087980789359644 0 0 0
3202 1 2 0 4.712113650080175 7.089295217386521 11.986826901464461 0 0 0
5298 1 2 0 2.8912751488117543 9.051739369886032 12.807818739901816 0 0 0
5274 1 2 0 2.338911768990884 6.872206974649691 13.653040392906442 0 0 0
4157 1 2 0 4.446943778234226 7.944667062952206 13.117048929935935 0 0 0
4253 1 2 0 2.476849216375262 7.4857593722762985 11.873184119207929 0 0 0
4158 1 2 0 5.234325554032606 8.501264021840086 13.236703138483934 0 0 0
4254 1 2 0 2.7765654276327454 7.558094225618028 12.840296975941431 0 0 0
4159 1 2 0 5.3285184606190015 8.855150547323177 12.296924365284125 0 0 0
4255 1 2 0 3.317111321420379 8.229867827944334 13.230685349389194 0 0 0
5273 1 2 0 3.0846474205971255 7.436166364556258 13.93856762579143 0 0 0
5292 1 3 0 3.8343427448551437 7.991467039331284 14.105350651187461 0 0 0
5293 1 3 0 4.310722246436615 8.82566609031485 13.977688213743395 0 0 0
3201 1 2 0 4.658278023703487 8.046813320687388 12.092568685976017 0 0 0
4148 1 2 0 6.313225369193326 7.136464804313252 13.337412056035001 0 0 0
5304 1 2 0 5.880506391057132 7.307926990683432 12.375626285494729 0 0 0
3261 1 2 0 6.664195828997476 8.63791483505408 12.073173002264323 0 0 0
5305 1 2 0 5.637993348713434 6.513872547732882 12.89484075725677 0 0 0
3273 1 3 0 6.565825136898518 8.153330954462952 13.649839429019643 0 0 0
3272 1 3 0 6.706636056877864 7.919511677604564 12.694928605720586 0 0 0
5306 1 2 0 5.125079059939388 7.062255424660257 13.410750030985291 0 0 0
4147 1 2 0 6.70896826731314 6.64430977746763 12.575828565508099 0 0 0
3262 1 2 0 7.143024559109707 8.866272267795797 12.91976091118737 0 0 0
3274 1 3 0 5.737490164676168 8.388740925134341 14.14101170475657 0 0 0
4459 1 3 0 6.811366597116224 9.533103883680045 14.07700667676339 0 0 0
85 1 1 0 7.04335276929914 7.3576575215147235 11.739756335964051 0 0 0
960 1 2 0 9.022623582324805 6.925128541973396 13.972184520058018 0 0 0
4197 1 2 0 7.6687928432761305 7.7065646962735395 12.400493666099232 0 0 0
4169 1 3 0 7.872688827740118 8.762635459958009 13.73443987491116 0 0 0
4198 1 2 0 8.308309896447224 8.374439158092041 12.687097699918453 0 0 0
4433 1 2 0 8.963631616896038 8.856665040124543 13.617962606000233 0 0 0
4199 1 2 0 8.97692676272594 9.075598562428116 12.465018166843707 0 0 0
3263 1 2 0 7.5045876770277005 9.750448636453946 13.089578962144131 0 0 0
959 1 2 0 8.560824296446668 7.588201676982965 14.649759738996904 0 0 0
4168 1 3 0 7.579224310669874 7.876642387487957 13.456734660028188 0 0 0
963 1 2 0 10.747278296515624 7.405913293390374 11.976402724551622 0 0 0
962 1 2 0 10.478122287259696 7.040061349706804 12.799089082714993 0 0 0
961 1 2 0 9.880398364914083 6.965007195053972 13.572205932416399 0 0 0
4200 1 2 0 9.671403662375056 9.20083615144619 11.77997218111355 0 0 0
5182 1 2 0 9.277645115229307 7.920617720946174 12.578599039676828 0 0 0
5181 1 2 0 9.527103226876928 8.02570955171621 13.531730039672857 0 0 0
4432 1 2 0 9.791927460645676 8.931061127714683 13.083228408343382 0 0 0
4245 1 3 0 11.030071044838161 8.429299926070293 11.989712283016491 0 0 0
4246 1 3 0 10.409432702800673 8.09262694439357 12.630891531288487 0 0 0
4244 1 3 0 11.426313613931264 9.14218703379766 12.567732481008 0 0 0
4220 1 3 0 11.044807563767277 8.92987803011403 13.751626423404874 0 0 0
4221 1 3 0 10.788932068933537 8.057654114380943 13.827518619549835 0 0 0
5198 1 2 0 13.980302353004884 6.594842529071507 13.554954869674212 0 0 0
5202 1 2 0 11.866837198890485 7.541448698724945 13.634213394806656 0 0 0
5203 1 2 0 11.672075452299477 7.702209745361135 12.67995583431872 0 0 0
5204 1 2 0 12.071923254961106 7.94125117291554 11.76763960663425 0 0 0
4224 1 2 0 13.358744257489436 7.949417630238022 12.460847316527127 0 0 0
4223 1 2 0 13.847788547053002 8.64865139233477 12.03831689584782 0 0 0
4242 1 3 0 12.513627757952108 8.287566361467775 12.833165680419437 0 0 0
5245 1 2 0 13.09995443536123 7.443950381943986 13.518672055876314 0 0 0
5246 1 2 0 13.442829982275748 8.131615700296626 13.969807450677374 0 0 0
4243 1 3 0 12.07720375811418 8.963072687508252 13.2731537333276 0 0 0
4456 1 3 0 14.160850110818718 8.945114597591838 13.181193948692144 0 0 0
5197 1 2 0 13.795186956689129 6.853929646202112 12.627939406741367 0 0 0
5209 1 2 0 15.277323281386307 8.31176618257693 13.095417751713905 0 0 0
4081 1 2 0 15.356820537927575 8.11948771933831 11.477110205700502 0 0 0
5208 1 2 0 14.647369218011422 8.11328267515258 12.385856058920126 0 0 0
5228 1 2 0 14.795686993484615 7.233354076481456 12.889501386331416 0 0 0
5230 1 2 0 15.659460389995546 7.815656043179736 14.059731461554778 0 0 0
5229 1 2 0 15.626512762509718 7.26792800927493 13.272537476249536 0 0 0
5099 1 2 0 16.275746412888648 9.274818271156285 12.55631637326801 -1 0 0
5098 1 2 0 16.925155570376745 9.148365960070503 13.294572304710877 -1 0 0
3305 1 3 0 13.28647087210322 10.397645206273262 11.017787955391956 0 0 0
5100 1 2 0 15.750964415678085 9.058597469910548 11.797307033256853 -1 0 0
5210 1 2 0 14.475076533243373 7.961827000429118 13.512532926000757 0 0 0
5146 1 3 0 15.008185722960446 5.885087263101061 12.94870291695699 -1 0 0
5232 1 2 0 15.518539393817125 9.435174207940324 14.689864042750882 0 0 0
4236 1 2 0 17.581213826638624 8.083014063991852 11.461471149219134 0 0 0
718 1 3 0 0.14728356993754693 8.712934343404301 13.098466336312095 0 0 0
4080 1 2 0 16.065831054243656 8.000984560778196 12.139611424912696 0 0 0
4238 1 2 0 16.703692334989626 8.18613097547303 12.886748132614187 0 0 0
4239 1 2 0 16.71046317812704 7.255174057878973 13.007713309687214 0 0 0
4958 1 2 0 18.457037038206934 7.285121751513939 13.120681184168374 -1 0 0
4079 1 2 0 16.789849237731424 7.432565765304403 11.88718486334622 0 0 0
4078 1 2 0 17.54518637196628 7.6356513106474 12.499535100108224 0 0 0
4237 1 2 0 17.120150926310508 8.516420214074685 12.168121590617542 0 0 0
4341 1 2 0 2.0468910943335277 9.251955694945316 13.488805302158003 0 0 0
4274 1 3 0 2.1884432774856792 10.339972695933564 11.690488293360557 0 0 0
4275 1 3 0 1.2050463717698756 10.22506895581312 11.479442858940066 0 0 0
4276 1 3 0 0.9877083959797582 10.482404468541556 12.357042971290333 0 0 0
4606 1 3 0 2.658603984633106 10.452324645957974 13.543464583880592 0 0 0
4273 1 3 0 2.2140967292506506 9.862527962364915 12.5713416442241 0 0 0
5374 1 2 0 1.7222703644115727 10.871831031899987 13.098624027288714 0 0 0
5373 1 2 0 2.5581137670985834 10.910433642733453 12.607877563610053 0 0 0
5299 1 2 0 2.932136707828059 8.521578614454011 12.00281458448496 0 0 0
4313 1 2 0 4.557135897111707 9.591802646551127 12.059754364031315 0 0 0
4256 1 2 0 3.8797952356594934 8.90944038252575 12.839108763362066 0 0 0
4272 1 3 0 3.0098683522733984 10.039876821683473 12.130092227561233 0 0 0
4258 1 2 0 3.867473086773733 10.490194597514396 12.082502483696963 0 0 0
4257 1 2 0 3.950769064955824 9.85677094157118 12.847065213479848 0 0 0
5372 1 2 0 3.5221978672510263 11.05957531110062 13.048048106894688 0 0 0
5371 1 2 0 3.6036522616533224 11.234388644186703 13.977559436016094 0 0 0
4368 1 3 0 4.883749196875401 10.64055109077601 12.43546526628811 0 0 0
5296 1 3 0 3.7186681020030177 10.149710873438545 13.986200036998323 0 0 0
4369 1 3 0 4.485311455076466 10.760577957761535 13.246800779204154 0 0 0
4370 1 3 0 4.486479402548542 10.864440154051042 14.278298832025145 0 0 0
4160 1 2 0 5.525685142790006 9.525187856015624 11.577929935045567 0 0 0
3275 1 3 0 5.511697177529543 9.220181960157552 14.426853105614178 0 0 0
4314 1 2 0 5.049452053838655 9.684060565501056 12.87248636302384 0 0 0
5189 1 2 0 6.810586527073592 9.614376427834076 12.35266906700027 0 0 0
4316 1 2 0 6.182762231228246 10.571379327622546 11.63009470842322 0 0 0
4315 1 2 0 5.79980210535375 10.042436318459163 12.397292916921662 0 0 0
5190 1 2 0 6.304580755308382 9.518438239583139 13.196213917740279 0 0 0
4329 1 2 0 6.704951502545204 10.605730213234644 12.868502005104533 0 0 0
5191 1 2 0 5.939697086850959 10.303888164803313 13.675092842294267 0 0 0
4330 1 2 0 6.374905501648336 11.422853634195457 13.36057953178846 0 0 0
4457 1 3 0 7.582817525743692 10.372753317955661 14.609600794021906 0 0 0
4328 1 2 0 7.356709183631948 10.400470511663345 12.062967576369587 0 0 0
3264 1 2 0 8.445514466727348 9.8572085817945 13.004045575878273 0 0 0
4439 1 2 0 8.913066797738805 11.095085865517872 12.50142743410018 0 0 0
4438 1 2 0 8.025232975658595 10.777737722877026 12.744117148899692 0 0 0
4350 1 2 0 7.316981370356851 11.60075103578165 12.434858290410773 0 0 0
4353 1 2 0 9.140907932160935 10.266916356581156 11.761380124650223 0 0 0
3265 1 2 0 8.907289988212012 10.634667374069814 13.294390007839104 0 0 0
4217 1 3 0 9.410444032584513 9.827767195362606 12.792748384689137 0 0 0
4171 1 3 0 8.36781652398449 9.77075126301573 15.275468154457627 0 0 0
3266 1 2 0 8.810744914884003 11.539904536751514 13.547406739587492 0 0 0
4458 1 3 0 6.954644951148183 10.46774244121204 13.924575428202115 0 0 0
4437 1 2 0 7.9044603376873415 10.581679027937946 13.735284890176667 0 0 0
4430 1 2 0 10.796127450033582 9.64162409503433 11.738900463755884 0 0 0
4431 1 2 0 10.389317141469375 9.230389866198971 12.480696210147299 0 0 0
4355 1 2 0 10.650644866115 10.17546392199604 12.804840900035265 0 0 0
4354 1 2 0 9.884540456215587 10.540067754898955 12.238504218439662 0 0 0
4218 1 3 0 9.797368691353094 9.927511518166066 13.630170087605883 0 0 0
4568 1 2 0 11.311231584622883 10.964972208643248 12.990958916839398 0 0 0
4356 1 2 0 11.411985838788057 9.966784733180397 13.411332701557626 0 0 0
4219 1 3 0 10.263709063291497 9.305321409842753 14.254870468868063 0 0 0
5445 1 3 0 9.862280108047855 10.959041718691497 13.297780324171432 0 0 0
5446 1 3 0 10.403259742501085 10.66484250202573 14.018801766991404 0 0 0
4566 1 2 0 12.43850736254456 11.34230045097175 11.531285127554463 0 0 0
4418 1 2 0 11.918394557444582 10.45436722562788 11.537551197500147 0 0 0
4454 1 3 0 12.646904401082976 9.31035517163535 12.375914888865779 0 0 0
4455 1 3 0 13.193922618424942 9.021730128959492 13.08481596625536 0 0 0
4417 1 2 0 12.714302198530898 10.251903790585656 12.043010335115232 0 0 0
4567 1 2 0 11.907100516825764 11.140284375280705 12.310715527330549 0 0 0
4416 1 2 0 13.04940088347634 11.10234410527356 12.387107609635834 0 0 0
3306 1 3 0 13.42139091688633 9.62502754483167 11.609975703322489 0 0 0
4465 1 2 0 14.741382279523231 9.957641231993982 11.17855789823684 0 0 0
4466 1 2 0 14.670891632996687 10.568834205083322 11.964445778923281 0 0 0
4474 1 2 0 15.279678300119727 10.541004310920803 13.330178097857342 0 0 0
4470 1 2 0 16.1945401197656 10.844971753728181 12.085898974469835 0 0 0
4471 1 2 0 15.618484561295482 10.016311775992028 12.30634920259593 0 0 0
4472 1 2 0 16.30374175235972 10.295187998093635 12.990964057814761 0 0 0
4497 1 3 0 14.843763715844174 9.650638246588628 12.643458290060366 0 0 0
4473 1 2 0 15.655194692838748 9.667283264035998 13.501588156575652 0 0 0
4467 1 2 0 14.194556217820386 11.423380859655499 12.033323844396818 0 0 0
4247 1 3 0 17.865687384728812 9.098468321707163 12.32559660009781 0 0 0
721 1 3 0 0.24714708894040463 9.799635118276722 11.6830510191922 0 0 0
4036 1 3 0 16.4904117912587 9.852391864496767 11.679744685060433 0 0 0
4248 1 3 0 17.780466043258244 9.775837506682704 12.999046519622391 0 0 0
4603 1 3 0 3.257460799475403 13.074060073970827 13.607113766605256 0 0 0
5390 1 3 0 3.423713019445073 12.478619089788225 11.655613951803591 0 0 0
5388 1 3 0 3.5092457730302438 12.11643464989019 13.238767657025099 0 0 0
5389 1 3 0 3.6604279617911035 12.773482354542292 12.573746744498605 0 0 0
4259 1 2 0 4.082765479940948 11.15833907526462 11.522352825825385 0 0 0
5391 1 3 0 2.799358570861163 13.005415324225389 12.105585289994245 0 0 0
5387 1 3 0 3.247696441980257 11.704067580704747 12.398643345205631 0 0 0
4605 1 3 0 2.694942168412879 11.513463609413526 13.538534129068283 0 0 0
4604 1 3 0 2.603104849452099 12.425327135814014 13.336052319811278 0 0 0
4602 1 3 0 2.6248786514925575 13.666609334875337 13.217396396695191 0 0 0
3551 1 3 0 4.237289538634026 12.68129913142842 13.504568537915336 0 0 0
3550 1 3 0 4.016999328113722 13.68153972266667 13.398547925522129 0 0 0
4349 1 2 0 6.4410558393287225 11.713547930984733 12.052660843258064 0 0 0
1088 1 3 0 5.1982041509229555 12.347081984228758 13.521650445177034 0 0 0
4367 1 3 0 5.544893243342049 11.273364219967483 12.51057520558103 0 0 0
4348 1 2 0 5.895224512758456 12.150317784853387 12.689170295647477 0 0 0
1089 1 3 0 4.697215309063356 11.723971750460924 13.058585909973244 0 0 0
4347 1 2 0 5.983088190644016 12.799430414680485 11.877971534739498 0 0 0
4346 1 2 0 6.780192407254635 12.747715402744154 12.404001218311388 0 0 0
4609 1 3 0 7.574346611165944 11.973014431093922 13.70225496308577 0 0 0
4608 1 3 0 6.746124450517763 12.294380360688557 13.35203934574022 0 0 0
4607 1 3 0 6.244403078194443 12.321906932159505 14.180587003785629 0 0 0
4703 1 2 0 5.08390686233466 14.276306655452013 13.739675891521495 0 -1 0
4610 1 3 0 7.580714473247812 11.40041055262636 14.461448277811806 0 0 0
4345 1 2 0 7.681340556902938 12.89659909146744 12.80318547416386 0 0 0
4344 1 2 0 8.539464742420357 12.918271857763639 13.311001590202514 0 0 0
89 1 1 0 8.410014280548864 11.861584279000718 12.7707405284157 0 0 0
4166 1 2 0 8.25338395405915 12.409281194729754 11.965369467420862 0 0 0
4342 1 2 0 9.268157817633853 12.206904055217466 12.896050775788499 0 0 0
4343 1 2 0 8.910159223460619 13.022737725860608 12.451103842845157 0 0 0
17 1 1 0 6.537688653215518 13.3986193445107 13.506147745494335 0 0 -1
1112 1 2 0 7.362211607914778 13.180801434014688 13.989738329380232 0 0 -1
5444 1 3 0 9.693579254610638 11.54432827334659 14.10905612199955 0 0 0
4440 1 2 0 9.614123601242149 11.569701910588668 11.975805822169377 0 0 0
4441 1 2 0 10.583993753490354 11.492216012539819 12.337026629653513 0 0 0
5443 1 3 0 10.127856162899374 11.905618151510916 13.337826234197609 0 0 0
4569 1 2 0 11.002202464368098 11.478609067142566 13.760964551767314 0 0 0
5442 1 3 0 10.574385041275853 12.73949677695931 13.04079883357915 0 0 0
5426 1 2 0 10.613927507802929 13.640616398997201 13.565652179407827 0 0 0
2550 1 2 0 9.903698952773246 13.21226560076649 12.218341326944858 0 0 0
5427 1 2 0 11.231048709467645 13.47673997144641 12.803999055733296 0 0 0
4664 1 2 0 13.061479654192398 14.191036721942599 11.828146540348992 0 0 0
4444 1 2 0 12.685400877104271 11.084542252919611 13.424122330956399 0 0 0
4442 1 2 0 11.350801197788375 11.93847497682057 12.721231906760803 0 0 0
4415 1 2 0 12.896799818267024 12.031924755981963 12.200361473640656 0 0 0
3437 1 2 0 10.891921301566098 13.43189148971107 11.839841728446643 0 0 0
3436 1 2 0 10.810785682431085 12.509340932841216 11.921058851225547 0 0 0
5428 1 2 0 11.594298541122026 12.845250852089352 13.413015358573782 0 0 0
4443 1 2 0 12.10522536054711 11.806152999962592 13.263165506870815 0 0 0
5429 1 2 0 12.521710328490324 12.893001223410051 13.299747612171101 0 0 0
173 1 2 0 13.482053916293111 13.182490456887358 13.23998222199547 0 -1 -1
4932 1 2 0 12.083238576998646 13.956687012775543 13.826158190499635 0 0 0
4406 1 3 0 13.940185024930182 12.412659863537879 12.571978770888567 0 0 0
4580 1 3 0 16.024864392632466 12.66248875664064 11.529374152879933 0 0 0
5430 1 2 0 13.155154765402195 12.108741826934981 13.268999184246555 0 0 0
172 1 2 0 14.415498839650883 13.34376157769175 12.962705097366204 0 -1 -1
5431 1 2 0 14.079116909009846 12.216961572834004 13.570889294157642 0 0 0
4581 1 3 0 15.229547109853163 12.701660105524194 12.012501114924952 0 0 0
4498 1 3 0 13.93876515225458 9.985345739792256 12.807783850478327 0 0 0
4499 1 3 0 13.982919378236994 10.774261419441483 13.38588684880684 0 0 0
4500 1 3 0 14.681801225239813 11.350834603117233 13.524321124469209 0 0 0
4587 1 2 0 3.6126716197110835 13.908082367932586 12.24606897441383 0 0 0
4589 1 2 0 2.7565047734530843 14.991843381707621 13.597362332656255 0 0 0
4588 1 2 0 3.1952047697276016 14.414291191261935 12.960384188190574 0 0 0
4700 1 2 0 3.539366153133609 15.501028215261513 12.76749973007209 0 -1 0
3548 1 3 0 3.8265743122181215 14.771236247978806 13.65290924603242 0 0 0
4586 1 2 0 4.382892435984219 14.10660384832325 11.746923807163983 0 0 0
4701 1 2 0 4.159579155583057 14.814390571708993 12.55831648023344 0 -1 0
3549 1 3 0 3.418509218084795 13.993234031668015 14.083275835813698 0 0 0
3533 1 2 0 5.502867227889694 15.67364060561615 11.754042200862214 0 -1 0
4642 1 2 0 4.788103827150151 16.492124363151156 11.776079758123762 0 0 0
3640 1 2 0 5.94524544892274 14.394992560603944 13.011938327051972 0 -1 0
3639 1 2 0 5.827309809289316 14.520497145082059 12.114985829690822 0 -1 0
3547 1 3 0 4.657757228591176 15.202479398972553 13.409481305351111 0 0 0
4702 1 2 0 4.937946710392686 14.25200191226893 12.823169995482472 0 -1 0
3535 1 2 0 6.17965149587539 15.414285876958902 12.55259884858227 0 -1 0
3641 1 2 0 5.931578849719217 15.056261628585784 13.776288743307724 0 -1 0
3534 1 2 0 5.230808341505801 15.247174809704928 12.56947633876888 0 -1 0
3811 1 3 0 5.31233735929662 15.980062761646153 13.278318053283165 0 -1 0
4596 1 2 0 6.590764195557645 15.834211095563028 13.695355637392725 0 0 0
3658 1 2 0 8.23723787538563 14.36451244419908 11.811711273921468 0 0 0
4617 1 2 0 8.264514882608829 14.274683548049246 13.016959667659501 0 0 0
4618 1 2 0 9.230193065684377 14.126721361406059 13.196269869368345 0 0 0
4616 1 2 0 7.425129574573226 14.109579576963142 13.460117971382513 0 0 0
3536 1 2 0 7.094794014868137 15.386155955635353 12.986401077457133 0 -1 0
3657 1 2 0 7.417693879740353 14.74894434145631 12.203704094595734 0 0 0
2554 1 2 0 8.293813635761168 15.376800587076243 12.359788767868658 0 0 0
3537 1 2 0 7.898618338288721 15.2558440537206 13.438587092553922 0 -1 0
3632 1 2 0 8.489553526607002 15.95337451798439 13.615470162473212 0 -1 0
2555 1 2 0 8.200794815048132 16.29384809226291 12.66758254391456 0 0 0
2553 1 2 0 9.119290159745885 15.392821987446021 12.899697789448325 0 0 0
4597 1 2 0 6.96919349071492 15.089937826156856 14.19750290319747 0 0 0
4768 1 2 0 7.526082059781315 16.336172130282733 13.524852297950853 0 -1 0
3634 1 2 0 9.470158448556164 16.379964562652486 12.130151946061574 0 -1 0
3496 1 2 0 11.131546198241619 14.327997112632344 13.986543335227923 0 0 0
2551 1 2 0 10.250170937761743 14.041745061205631 12.462192751123442 0 0 0
4619 1 2 0 9.743193036077756 14.725476266546908 13.738468385693201 0 0 0
3704 1 2 0 10.472801674399802 15.465250074703919 11.914862380020597 0 -1 0
2552 1 2 0 9.88551453975195 14.9298073368354 12.50890703938029 0 0 0
1401 1 2 0 11.175082836421172 16.56931105679133 13.015155185061417 0 0 -1
3705 1 2 0 10.26359154421934 15.97365837743654 12.716183396273928 0 -1 0
3706 1 2 0 9.816431409068716 16.02311458020842 13.62666592994026 0 -1 0
4621 1 2 0 10.769045111400391 16.029014546921825 14.138172213163935 0 0 0
4620 1 2 0 10.38196672479159 15.096057170845217 14.307556758105859 0 0 0
3703 1 2 0 11.200665333953264 16.153661402452137 11.645943297234805 0 -1 0
3493 1 2 0 11.600512261020675 15.209661771744639 11.613623476394894 0 0 0
4933 1 2 0 12.355030246911912 14.231247504488175 12.924494692927867 0 0 0
3495 1 2 0 10.816278170285342 15.002404088390527 13.283756497730415 0 0 0
3494 1 2 0 11.45508491951599 15.129747688190697 12.591629168252934 0 0 0
4934 1 2 0 12.56711989587223 15.05477871846591 13.312768612338902 0 0 0
4935 1 2 0 12.556569013218315 15.096481052113372 12.32771347043739 0 0 0
4665 1 2 0 13.551496996835988 13.970945817616977 12.62246807802684 0 0 0
1402 1 2 0 11.840293653091361 15.996041344113708 13.31093720587918 0 0 -1
3748 1 2 0 13.100101312697287 15.530011393707658 14.190390532114568 0 0 0
1403 1 2 0 11.681049966530272 15.214926008165293 13.839554094242619 0 0 -1
4666 1 2 0 14.173005863134534 14.231930106473724 13.337910003825725 0 0 0
3745 1 2 0 13.774723944017358 15.207760798452398 11.660954228107801 0 0 0
3734 1 2 0 14.423035911679444 14.476740898655395 11.210741254333309 0 0 0
4937 1 2 0 13.971761970225803 16.372907733746924 12.126336128186619 0 0 0
171 1 2 0 15.260613504744601 13.763150426888544 13.194558320167495 0 -1 -1
3747 1 2 0 13.773790994755238 15.193496575763614 13.55536612500575 0 0 0
3746 1 2 0 13.769280447295108 15.0277601793753 12.64443055168637 0 0 0
170 1 2 0 15.579251219423188 14.22986399577933 13.986229255743275 0 -1 -1
4542 1 3 0 16.0813374853717 14.36293327184439 12.439847288360642 0 0 0
4543 1 3 0 15.47416745793374 13.738830816077538 11.907313694302061 0 0 0
4544 1 3 0 14.731419753921472 14.070861658258154 12.364244925584194 0 0 0
4546 1 3 0 14.670428056432348 15.658218263149966 12.296721797367855 0 0 0
4526 1 2 0 15.964595769056777 14.864687060824863 11.155606511014161 -1 0 0
4551 1 3 0 17.171210865986403 13.285794624925717 12.550343890171357 0 0 0
4545 1 3 0 14.978262605466751 14.877841380479072 12.886396323597172 0 0 0
4527 1 2 0 15.913531233373412 15.207605303048236 12.067831344711637 -1 0 0
4550 1 3 0 16.185524578669472 13.241056192047294 12.674905459900794 0 0 0
4548 1 3 0 16.879427826174762 13.400616620902149 13.570152438157958 0 0 0
4549 1 3 0 16.327559597295043 12.611470267110832 13.387177368928219 0 0 0
4547 1 3 0 17.463071249380512 14.163616730663211 13.551048719867932 0 0 0
4905 1 3 0 16.094101972972993 15.339362906685086 13.143276655179971 0 0 0
4904 1 3 0 16.37712782085684 15.861716148427812 13.875516092589757 0 0 0
4539 1 2 0 17.888397704982616 15.036545425017268 13.738082146693012 -1 0 0
4753 1 2 0 1.2654451618925473 18.319700572419745 11.639769872029108 0 0 0
4973 1 2 0 0.09845741819537421 17.638617460521782 13.367501014882277 1 -1 0
3526 1 3 0 1.7049600274662307 18.03804820584107 12.796849397202473 0 0 0
4535 1 2 0 1.2513373805886396 17.763744407792984 13.6005183636094 0 0 0
3525 1 3 0 0.9225405041842644 17.544440634603646 12.675283411567639 0 0 0
4801 1 2 0 1.7354175715331073 16.241584298290253 12.84303571349694 0 0 0
4750 1 2 0 18.36622936587979 16.45876231866875 12.509122529940202 -1 0 0
3524 1 3 0 0.17831213807710242 17.73915925291671 12.077028120742682 0 0 0
4537 1 2 0 0.6253807401145367 16.04875948374381 13.06690842461161 0 0 0
4972 1 2 0 0.2372535626053564 17.504088575627822 14.248573555516494 1 -1 0
4536 1 2 0 0.7835747372286694 16.888140281843313 13.553481586103386 0 0 0
3579 1 3 0 4.146791761662921 17.98578137678889 11.314245480431143 0 0 0
4777 1 2 0 4.598006454494086 0.032132034914327035 12.57427970883864 0 0 0
4803 1 2 0 3.009827255101665 17.252428330185616 11.888980461769242 0 0 0
4699 1 2 0 2.885310423440164 16.164738767943273 13.082631499625233 0 -1 0
3809 1 3 0 3.771425986110833 16.523477969618344 12.369041115225373 0 -1 0
3580 1 3 0 4.016993962092488 17.10977121041518 11.482519281382112 0 0 0
4802 1 2 0 2.2812641930404727 16.806862751339736 12.255160668418416 0 0 0
4697 1 2 0 2.263172970203922 17.852223439681957 13.794152216488849 0 -1 0
4698 1 2 0 2.319570114266078 16.954200949515545 13.456532658214078 0 -1 0
3808 1 3 0 3.272696457204527 17.15523331484848 12.922084581141432 0 -1 0
4804 1 2 0 3.6178498925441605 17.939293733447105 12.181417394825814 0 0 0
3807 1 3 0 3.395285850952938 18.11899735056479 13.097400632577813 0 -1 0
4776 1 2 0 5.049963044790445 18.486921179496203 11.660027128274 0 -1 0
3653 1 2 0 6.090555272801561 18.16381286542808 11.958264189632008 0 0 0
3813 1 2 0 5.342864471257987 0.7898697528521372 12.14193112724137 0 0 0
3810 1 3 0 4.435540867646176 16.251481442505913 12.98693685615061 0 -1 0
4805 1 2 0 4.292758128489262 17.469569654904692 12.745705228999178 0 0 0
3655 1 2 0 6.379491382832808 16.33995137825435 11.894910854986744 0 0 0
4643 1 2 0 5.306081059914084 16.7872079791462 12.529275408157382 0 0 0
4644 1 2 0 6.121419290069215 16.642778007766147 13.007165810177446 0 0 0
4645 1 2 0 6.767362029335769 17.456940634309127 13.121326928516474 0 0 0
3814 1 2 0 6.0571169831167015 0.4414139636418922 12.597748692495777 0 0 0
3633 1 2 0 9.111706599796708 16.435669112074976 13.072327237208011 0 -1 0
3564 1 2 0 6.950880214645722 17.590575295944845 11.927403010402886 0 0 0
4770 1 2 0 7.642376042937248 16.459381116032073 11.749874257470704 0 -1 0
75 1 1 0 8.581160006773894 18.072739254274577 12.020409198778319 0 -1 0
4769 1 2 0 7.199125200072472 16.46677411629085 12.601315153972816 0 -1 0
4646 1 2 0 7.479936087278222 17.884138928827475 13.626275483056071 0 0 0
3692 1 2 0 8.687483702729752 18.094931578943992 12.962869043306727 0 -1 0
2556 1 2 0 8.557697176787153 17.12451236501729 12.256811590673593 0 0 0
2557 1 3 0 7.7619143101758885 17.56735678336821 12.671641159881396 0 -1 0
2558 1 3 0 7.454452938170116 18.464381648820684 12.623048412021742 0 -1 0
3647 1 3 0 9.06934625814427 16.846082224195026 13.952031497537105 0 -1 0
4625 1 2 0 10.24959640491247 18.377719554069458 12.968948359056505 0 0 0
3693 1 2 0 9.206852005130342 0.11263095424937593 13.556390792140444 0 0 0
3650 1 3 0 9.509851135787386 0.0498649868265599 12.243991332456199 0 0 0
1400 1 2 0 10.30073284852435 16.93966363375782 13.261709917655265 0 0 -1
3649 1 3 0 9.570674780015041 17.619517489042565 12.53179870006922 0 -1 0
3464 1 2 0 10.458581087303303 17.20354701353236 12.204969075247527 0 0 0
3648 1 3 0 9.427241990152783 17.592917982648114 13.491314631593813 0 -1 0
4624 1 2 0 10.40963510259937 17.88338192476439 13.702898284473516 0 0 0
3465 1 2 0 11.126383112592324 17.570369961071016 12.842512231166301 0 0 0
1399 1 2 0 10.206919961223203 16.978399360886787 14.184780692255096 0 0 -1
3492 1 2 0 12.149169860787673 16.001677182394108 11.868898296661275 0 0 0
3491 1 2 0 12.865050189146015 16.574118020441098 11.535925949216212 0 0 0
3713 1 2 0 13.18119680124857 17.695952981570567 11.785660637028023 0 -1 0
4622 1 2 0 11.298115315539127 16.615719539231158 14.692624863086845 0 0 0
4623 1 2 0 11.147762856396993 17.23032806351059 13.898229336851099 0 0 0
3467 1 2 0 12.535470027981743 0.11653576462661874 12.2420271584286 0 1 0
350 1 3 0 14.291662975719003 16.708121506659758 13.08556225086676 0 0 -1
3466 1 2 0 11.850388443003572 18.254571257772096 12.868825948103312 0 0 0
351 1 3 0 13.351198160419052 16.75401057808212 13.264327239928296 0 0 -1
3609 1 3 0 12.567144996004027 16.732111351608 12.712159209909599 0 -1 0
3608 1 3 0 11.932406534450397 17.105498233372316 12.11626672561512 0 -1 0
4006 1 2 0 12.192880730199564 18.136801527098797 13.968714158845234 0 -1 0
347 1 3 0 13.483254603383589 18.387040859513988 12.648449956552216 0 0 -1
4007 1 2 0 12.957866950295399 17.6590195551266 13.566007746219022 0 -1 0
3610 1 3 0 12.070450832557563 17.24741258023741 13.384855129599195 0 -1 0
3611 1 3 0 12.215399008005956 16.799526416192574 14.198377079767216 0 -1 0
4936 1 2 0 13.174804162664707 15.874950652701132 12.388264447161937 0 0 0
349 1 3 0 14.161930570248236 17.384134899980594 12.462033612928167 0 0 -1
4008 1 2 0 13.908701951732896 17.64731822018029 13.362060733580337 0 -1 0
348 1 3 0 14.429208543147189 18.251437491180663 12.787966076236492 0 0 -1
3729 1 2 0 14.763706208290111 15.82571204965255 13.437175588837077 0 -1 0
4938 1 2 0 14.825081845734784 16.77981198719343 12.05633548941002 0 0 0
4939 1 2 0 15.034888666071804 17.651158091201285 11.663335455114975 0 0 0
3728 1 2 0 15.318038159740627 16.669233673398583 13.131580636833663 0 -1 0
3727 1 2 0 15.54205787608643 17.541597313889653 13.561519391163985 0 -1 0
4906 1 3 0 16.49054000062007 14.490629690588767 13.440414756505533 0 0 0
4749 1 2 0 17.72194650301475 16.13870858008089 13.19546237788507 -1 0 0
5085 1 3 0 17.07508695384235 18.14990533455719 12.435373176769659 0 -1 0
4528 1 2 0 15.641262946304401 16.08676167568697 12.427390806036666 -1 0 0
5086 1 3 0 17.518654501425562 18.150992690112936 11.552125867749426 0 -1 0
4944 1 2 0 18.25631409712445 16.692325589250245 13.769753513070693 0 0 0
4942 1 2 0 17.30092525060512 17.23291151276413 12.24482135819966 0 0 0
4529 1 2 0 16.32202431024322 16.612698430723846 12.869791032124287 -1 0 0
4943 1 2 0 17.752602290688877 17.24872725822435 13.14597450148675 0 0 0
4530 1 2 0 16.73344651341801 17.446321064308247 13.228969172280419 -1 0 0
4903 1 3 0 16.246350327772742 16.798643870452782 14.075631298922033 0 0 0
4748 1 2 0 17.261993285574373 16.605853233242108 14.010861230674287 -1 0 0
4949 1 2 0 1.3378321213822533 1.6820528057122555 14.331397359863894 0 0 0
4948 1 2 0 1.2480288329820588 0.8827573416330882 14.941088405929603 0 0 0
4533 1 2 0 18.305826084436774 0.3145056465037481 13.596366903286587 -1 1 0
4947 1 2 0 0.8737236946993767 0.05299871374839365 14.67984109029306 0 0 0
5088 1 3 0 0.7420986573438283 2.8860483750634103 14.285419014341453 1 0 0
4696 1 2 0 1.932743398553793 18.52634621522314 14.516140991818821 0 -1 0
4707 1 3 0 1.8821477620033131 0.022379556821378446 15.48789895155736 0 1 0
4757 1 2 0 18.421457636799012 0.8071131916451072 14.666189817351604 -1 1 0
523 1 3 0 17.946968752013895 1.9991694662719142 15.761191352762378 0 0 0
5089 1 3 0 1.450902782915515 2.6069591216056853 14.968978318747098 1 0 0
4111 1 2 0 2.208117657116217 1.1305204707097734 14.114863706297355 0 0 0
5091 1 3 0 2.631508451934355 2.908765977089743 15.325530761972377 1 0 0
4110 1 2 0 3.153428877791269 1.0932306776168292 14.416537655586986 0 0 0
1322 1 2 0 3.7946741117574674 0.269940418619698 15.097037612273247 0 1 -1
1321 1 2 0 3.123819080987058 0.3779033896461501 15.803794706308047 0 1 -1
4109 1 2 0 4.089546029245339 1.2154572342451202 14.740493707270426 0 0 0
5003 1 2 0 3.6574553251841158 1.401363621693331 15.73903760381755 0 0 0
3861 1 3 0 2.484603333776359 1.7954839199703152 15.092750789712207 0 0 0
3860 1 3 0 2.8845031694850234 2.3643726513470305 14.337558760649625 0 0 0
4695 1 2 0 2.7571693921449416 0.17742601352424622 14.897511911732732 0 0 0
222 1 2 0 4.289267828185129 1.975127740638517 16.3799105652517 0 0 -1
3625 1 2 0 6.487939972651034 0.6813786923851973 13.626046878844813 0 0 0
4122 1 3 0 4.874727164708939 0.8029614695566237 14.334739969423957 0 0 0
4108 1 2 0 4.685522203792977 1.6480477345921751 15.35435260725976 0 0 0
242 1 2 0 4.64874956318038 0.5862234097475525 15.715078907298514 0 1 -1
4829 1 2 0 5.824026501776633 1.3875516995705273 15.321212254524639 0 0 0
4123 1 3 0 5.716883922598677 0.29678472857298016 14.399819085016938 0 0 0
4124 1 3 0 6.6097526640120785 0.4474336030586523 14.644184177160318 0 0 0
4828 1 2 0 5.745735637245725 0.4006287285905314 15.444734832712932 0 0 0
2 1 1 0 4.756728020386869 1.12847543560669 16.458899074816614 0 0 -1
2560 1 3 0 7.951934933743184 0.3915869109098192 14.307459556438902 0 0 0
4863 1 3 0 6.41403940448241 2.1869285687062012 13.878747562109279 0 0 0
4857 1 2 0 7.012242016749013 1.2090181617827942 15.250716348932539 0 0 0
4858 1 2 0 7.942049231500816 1.1089190066031056 15.08118456599702 0 0 0
4862 1 3 0 6.875619441463172 1.4983775862570203 14.349474982612982 0 0 0
4859 1 2 0 8.677568680252069 1.236512174568297 15.692514221803162 0 0 0
642 1 2 0 7.963695311442424 0.22434947720812623 15.814751209304026 0 0 0
377 1 2 0 8.553537027958084 2.015510911224507 14.854287285809885 0 0 -1
376 1 2 0 9.186194204065258 1.8669385298652663 14.072970665320387 0 0 -1
4125 1 3 0 7.147088496184476 18.235035313701186 14.599108043131253 0 -1 0
378 1 2 0 7.975535462362956 1.9945201251629174 15.756592825320316 0 0 -1
4871 1 3 0 9.201693404108427 18.178561035596196 17.484250969943847 0 -1 0
4860 1 2 0 9.508367213427093 1.4265843849652022 15.174699651483952 0 0 0
4867 1 3 0 9.558744272615407 0.7985171513089103 14.439390194018277 0 0 0
4004 1 2 0 10.888982221257745 0.7969263050558745 14.379713372023382 0 0 0
373 1 2 0 11.596586796217053 1.8215179917004047 14.755145903744255 0 0 -1
4003 1 2 0 10.546413203472053 1.4753082312312722 14.892983787077531 0 0 0
374 1 2 0 11.040700957859858 1.9210095813729595 13.965271539090265 0 0 -1
4002 1 2 0 10.698528593010725 2.3654789174109374 15.125396430910047 0 0 0
1160 1 2 0 11.134331125014427 0.5308110691899188 15.388349755428553 0 1 -1
591 1 2 0 10.169051469765542 1.5248017004204542 15.905028058067924 0 0 0
4868 1 3 0 9.648453190524855 0.46061402108315014 15.309702668892639 0 0 0
590 1 2 0 9.427887553951193 2.021126781746897 16.09371033855292 0 0 0
592 1 2 0 11.110527083169888 1.768471620229185 15.97632408437032 0 0 0
3687 1 2 0 13.583640480277879 1.1269429363589722 13.640792213736209 0 0 0
4913 1 2 0 13.697504135308002 2.111620056193279 13.636114390044701 0 0 0
372 1 2 0 12.15737149548541 1.6554917507058446 15.493130053673784 0 0 -1
622 1 2 0 12.534290173908714 1.624323100013113 14.501152775224964 0 0 -1
328 1 2 0 13.023958763475813 0.4744924471360917 14.35552499470067 0 0 -1
621 1 2 0 12.012812476642518 0.8642602062435429 14.461093388161936 0 0 -1
327 1 2 0 12.919347914301984 0.926479977311124 15.25286803997833 0 0 -1
4 1 1 0 12.960458012317167 1.5047330867996227 16.03974994617125 0 0 -1
4911 1 2 0 13.933542568670598 1.3640811376925854 15.255884587412044 0 0 0
4912 1 2 0 14.052141867327121 1.7231089031628657 14.419526507820024 0 0 0
620 1 2 0 12.05857797768613 0.055176015932966296 14.964524541558342 0 0 -1
1159 1 2 0 11.99298710296883 0.7817599824734669 15.758264612091272 0 1 -1
352 1 2 0 13.618870085057663 2.1793770071427403 16.00738602379907 0 0 -1
3688 1 2 0 14.473886118657326 1.4393919501257042 13.50510142636485 0 0 0
3724 1 2 0 15.408367312003616 1.1166875640146026 13.91433848039619 0 0 0
3725 1 2 0 16.078972771656407 0.7156218109619432 13.329996377766117 0 0 0
1667 1 2 0 13.80709000656116 0.2823064983911215 15.600831806179519 0 0 -1
4885 1 2 0 15.071878986557412 1.8414446529175539 14.912753308328965 0 0 0
4884 1 2 0 14.380675456911208 2.444286423559177 15.169821292708082 0 0 0
1666 1 2 0 14.664984883259388 0.7527412211097286 15.811070233457203 0 0 -1
487 1 2 0 14.600028483916827 0.5461425457167586 14.219017102302065 0 0 -1
4886 1 2 0 15.352041839266585 0.8665248163166316 14.869566121187297 0 0 0
526 1 3 0 16.368286488185657 1.7781355273815214 16.66674249781692 0 0 0
4727 1 2 0 16.204793258586953 0.7661961923316497 16.045837542030977 0 0 0
353 1 2 0 14.482189597004204 1.7357582330358303 16.077460359675108 0 0 -1
4726 1 2 0 16.173562242839623 1.548950375637996 15.57825005823441 0 0 0
5063 1 2 0 17.931739877451545 1.5791321006032568 14.121396623214252 0 0 0
4725 1 2 0 16.101406402189774 1.6609341691969322 14.66173108890115 0 0 0
5062 1 2 0 17.392620900600154 1.0501425829144144 14.714528818053234 0 0 0
4991 1 2 0 17.096924459483784 0.014535851361841767 16.200012327534782 0 0 0
4758 1 2 0 18.225823877060837 18.525888927206303 15.129625253166164 -1 0 0
106 1 1 0 17.051691675532144 0.5291132945321015 15.393340837330587 0 0 0
4011 1 2 0 16.228516415397483 0.33596600422931533 14.722997762609891 0 0 0
525 1 3 0 17.129526951762653 1.5096880006784745 16.08575188406049 0 0 0
4721 1 2 0 0.09901694612407652 3.5664087942085163 13.776965410559837 1 0 0
140 1 2 0 1.2709056585349832 2.355900671406412 16.163535985633693 0 0 -1
5087 1 3 0 0.4758599454387079 2.0861788805487143 14.762216454371462 1 0 0
5064 1 2 0 18.29394138507863 2.431019929922904 14.314104687905123 0 0 0
5090 1 3 0 1.738274014629727 3.251077230218089 15.560933535865168 1 0 0
4045 1 2 0 2.0401851104644413 3.7903777597089996 14.38391664059535 0 0 0
4046 1 2 0 1.2005013263012752 3.7836311130686693 14.849582628539387 0 0 0
4047 1 2 0 0.5651117979186648 3.2336515088705595 15.416367778095328 0 0 0
497 1 2 0 0.9568536342251015 4.452347502593359 15.572692889630355 0 0 0
4720 1 2 0 0.12251825523022568 3.948639052306966 14.682902329474683 1 0 0
4719 1 2 0 18.407870301942108 4.078085027966841 15.577816221904975 0 0 0
5111 1 2 0 1.8134807433197664 4.736974738153662 15.012948556983666 0 0 0
4133 1 2 0 4.103223097964927 3.701483625631954 13.705619464965963 0 0 0
4134 1 2 0 3.6405752663028697 4.5755198780749975 13.772321980527034 0 0 0
3856 1 2 0 3.02901544075394 3.792597517486603 13.87008664768284 0 0 0
5004 1 2 0 3.6848039420049274 2.3606426983218647 15.438163066555802 0 0 0
103 1 1 0 3.413829136990286 3.768109211079126 14.772293226857308 0 0 0
729 1 2 0 4.766804814047212 4.679790172810911 15.950459700955095 0 0 -1
4992 1 2 0 4.189618046185693 3.9135140137924167 15.364339107328348 0 0 0
4781 1 2 0 3.9362653489421975 2.996744588678142 14.506075779812713 0 0 0
728 1 2 0 3.936316201013316 5.159767185348496 15.755859680644958 0 0 -1
3646 1 3 0 6.277631722825314 3.3258613027403934 15.683131029095156 0 0 0
4865 1 3 0 5.394848987148969 2.285922003513095 14.278819484736877 0 0 0
4107 1 2 0 4.680413200058832 2.6245731460016284 15.15868945035102 0 0 0
4993 1 2 0 4.5574789841498475 3.333330517800808 16.032452483333806 0 0 0
4830 1 2 0 6.296403073847045 2.1555566292346384 14.931327322194301 0 0 0
4106 1 2 0 5.083655320475742 3.465384187495032 15.059851551758072 0 0 0
4994 1 2 0 5.392247256042367 2.877347441733004 16.2182413646171 0 0 0
3902 1 2 0 6.103148714325343 4.690439931482959 15.58522895226935 0 0 0
3914 1 3 0 9.197093272823754 4.523525059171559 14.533552900505102 0 0 0
4831 1 2 0 7.081094603245114 2.5877025918899355 14.57214433057022 0 0 0
5015 1 2 0 6.9997717230469005 4.843330111879667 13.823691326122127 0 0 0
5014 1 2 0 7.079445334711531 4.209289858390965 14.626659952041004 0 0 0
4832 1 2 0 7.770339339996282 3.117032646199595 14.165843110502639 0 0 0
5012 1 2 0 8.181960179705735 2.945331359638402 15.266410390601456 0 0 0
5013 1 2 0 7.491001969144672 3.5978320738188785 15.276177140759478 0 0 0
4833 1 2 0 8.255866782335788 3.892257463913438 14.521733126426954 0 0 0
4834 1 2 0 8.652173045884354 4.13872226718348 15.334300244558998 0 0 0
375 1 2 0 10.100516067196862 1.7494841623384711 13.971440511690972 0 0 -1
104 1 1 0 9.160759487694266 3.059197065883307 15.342099436929464 0 0 0
4861 1 2 0 9.548298963741098 2.3153071733312833 14.93094128235436 0 0 0
4001 1 2 0 10.530684648126176 3.2380289932654005 15.519499792553962 0 0 0
3936 1 2 0 9.298823143347995 3.3531475349197986 14.44168447495795 0 0 0
4898 1 3 0 11.294203922870345 2.933635188910593 14.205846910306189 0 1 0
3999 1 2 0 11.27095915477396 4.775964831227996 15.376995414409942 0 0 0
4000 1 2 0 10.984736519080853 3.982924496540836 15.904805424855017 0 0 0
4835 1 2 0 9.47706916863959 4.077878537839159 15.840141012290873 0 0 0
4879 1 2 0 11.312906428337278 2.9122207048341138 16.216215625941455 0 0 0
606 1 2 0 9.743474593162361 3.0503234715035368 16.085723311087207 0 0 0
4878 1 2 0 10.512954457475233 2.4073986290444904 16.454753883394964 0 0 0
912 1 2 0 12.13142490224435 3.3849072793917627 14.329557638578136 0 0 -1
4897 1 3 0 11.471094795556207 3.3881504293215747 15.04637955138528 0 1 0
913 1 2 0 12.13739496358438 2.7079184635177564 15.00768729869708 0 0 -1
915 1 2 0 12.628876557762592 2.7065428535715697 16.858812540216384 0 0 -1
623 1 2 0 13.106366151736049 2.0951856474963395 15.129942712833808 0 0 -1
914 1 2 0 12.543014544712562 2.499396658050417 15.888670221482112 0 0 -1
335 1 2 0 13.18530995554063 3.7893209846432594 14.695819410095568 0 0 -1
4880 1 2 0 12.021673395636133 3.4638603602276556 15.838528247459758 0 0 0
624 1 2 0 13.35957888113395 2.973478034066205 15.284971461624542 0 0 -1
336 1 2 0 12.914695529069164 4.362885296998799 15.383211777201105 0 0 -1
625 1 2 0 13.803752345279523 3.8662798177104873 15.436283575628876 0 0 -1
3721 1 2 0 13.80122627431233 2.959140252257997 14.320722677392606 0 0 0
627 1 3 0 13.561856195979022 4.383787314567026 16.24263394985587 0 0 -1
3723 1 2 0 15.332130976612167 2.049475454709818 13.871877877743405 0 0 0
3722 1 2 0 14.631814891644979 2.6375587918693904 14.010141569865011 0 0 0
4883 1 2 0 14.690306967259206 3.0336159092654507 15.902015932714832 0 0 0
495 1 2 0 15.711480551679417 3.523589721033601 14.060650086832782 0 0 -1
4052 1 2 0 14.529465919108501 3.424567373788252 14.88162823562143 0 0 0
4051 1 2 0 15.349931494790376 2.963470830930117 15.117184732107045 -1 0 0
9 1 1 0 15.442686253486986 3.721782729497542 15.805372923874751 0 0 -1
496 1 2 0 15.37238282137031 4.027925579075662 14.875108583970468 0 0 -1
4053 1 2 0 14.441247923576698 4.410958440185369 14.753632409294507 0 0 0
411 1 2 0 15.771973945000306 3.0099479510562714 16.257120061618476 0 0 -1
626 1 2 0 14.602774181793663 4.268871599919809 15.852537623807661 0 0 -1
4724 1 2 0 16.907370049608772 2.057509541812037 14.271517137830303 0 0 0
4050 1 2 0 16.422640438276616 2.791609792700271 15.118542466456944 -1 0 0
4983 1 2 0 16.42396582512954 4.292087432629568 14.750917951311585 0 0 0
4984 1 2 0 16.30814727104268 4.279677483259586 15.73227033085966 0 0 0
5066 1 2 0 17.75265164030402 4.25585227222177 14.369035726118177 0 0 0
4049 1 2 0 17.406162606022395 2.473153722053676 14.994348011342622 -1 0 0
4048 1 2 0 18.2161207709635 2.963859572302708 15.238949588286616 -1 0 0
5065 1 2 0 17.79288987623896 3.2754571302328968 14.31914695373254 0 0 0
5079 1 2 0 17.896147711068018 2.8879442090306786 16.23712847242393 0 0 0
5080 1 2 0 17.418024512210106 3.615682155783199 15.790517446711245 0 0 0
5067 1 2 0 17.050504018537637 4.8187226707764985 14.073563526432942 0 0 0
5081 1 2 0 17.435147426134588 4.53102049889102 15.394594574763978 0 0 0
4043 1 2 0 2.4929637207925204 5.313669015276036 13.590111137910405 0 0 0
5126 1 2 0 1.209804127874579 7.097793631856768 13.789768375783463 0 0 0
5112 1 2 0 2.108800764537406 4.474307988840506 15.922294214751297 0 0 0
5110 1 2 0 1.4768615834983432 5.5223824879978824 14.57105685026435 0 0 0
5254 1 2 0 0.7309612632942059 6.3706513578827995 14.684991025363164 1 0 0
5253 1 2 0 0.2443791847249964 5.717389340756605 14.28091510020486 1 0 0
752 1 2 0 1.7509097054393783 5.638461310661172 15.557729624429296 1 0 -1
753 1 2 0 0.8987381439879707 5.682371571072109 15.95388658521346 1 0 -1
498 1 2 0 0.7132705489580898 4.802665122988593 14.760707971862155 0 0 0
3804 1 3 0 17.820540973572054 6.948396143344963 14.290234551317392 0 0 0
5278 1 2 0 2.4477954555113017 6.485638009449303 16.03502168036265 0 0 0
4044 1 2 0 2.0534924610282728 4.4903668319968775 13.613068208651304 0 0 0
4135 1 2 0 3.9397567616655027 5.431500359746232 13.412338548393981 0 0 0
10 1 1 0 2.6002866559031474 5.754273295079176 15.22573682942519 0 0 -1
4154 1 2 0 3.197117955098478 6.255651322983663 14.00952663228147 0 0 0
4137 1 2 0 4.038753636270293 6.909773834876109 14.38487427285093 0 0 0
727 1 2 0 2.9455899524476115 5.036202113039976 15.688107469928392 0 0 -1
697 1 2 0 3.338681993257849 6.337511944441251 15.15111808597501 0 0 -1
5009 1 2 0 3.1653540069276875 5.734003702790971 16.28207770491745 0 0 0
4153 1 2 0 3.1995398658608205 5.407537777906346 14.484483932845551 0 0 0
882 1 2 0 4.172830948192354 6.5085579586039355 15.854913204922829 0 0 0
4105 1 2 0 4.81730056370628 4.064519692767513 14.35856099100841 0 0 0
3903 1 2 0 5.801635200982077 4.472917222389639 14.680262472033922 0 0 0
4152 1 2 0 4.202953582808818 5.530953925099162 14.506160689801295 0 0 0
5163 1 2 0 5.442181385064998 5.447923878199801 16.382154450173275 0 0 0
5162 1 2 0 5.0884792758392665 5.766239849070705 15.52735844195915 0 0 0
5161 1 2 0 4.871265386235691 6.359014256608038 14.778259242585971 0 0 0
4151 1 2 0 5.164924058171886 5.286675807152565 14.672214300607273 0 0 0
5153 1 2 0 6.99416374208049 5.588108679910588 15.43315950608626 0 0 0
4150 1 2 0 5.790245737045657 6.0122402497275775 14.763422489413351 0 0 0
3895 1 2 0 9.542801807017744 5.814605857252547 14.767729127951762 0 0 0
5016 1 2 0 6.7317723824291855 5.411777224642957 14.516573618395768 0 0 0
5156 1 2 0 7.792658677403834 5.611006682993686 13.840984152652684 0 0 0
5018 1 2 0 7.784958925533165 6.361115687488407 15.314563286336883 0 0 0
5155 1 2 0 7.765066980162427 4.946346980922385 14.50501922218612 0 0 0
5017 1 2 0 7.349655882818298 6.1900873618481995 14.461430061863087 0 0 0
5154 1 2 0 7.6779232576259995 4.8885162833402935 15.466817395386167 0 0 0
547 1 2 0 8.409561024054474 5.774900432831992 15.988287029945086 0 0 -1
548 1 2 0 7.6784617521064815 6.2417959778142125 16.425357256165274 0 0 -1
3896 1 2 0 9.747576395286243 6.007242581232246 15.690378042162829 0 0 0
3897 1 2 0 9.304258678534934 6.30882522709365 16.50577087815582 0 0 0
5167 1 3 0 8.503990993717549 5.258495450660171 15.026924827326773 0 0 0
5019 1 2 0 8.747011181649706 6.404441615456545 15.192422935098282 0 0 0
910 1 2 0 11.494390417237359 4.810002855049515 14.244808781116285 0 0 -1
3916 1 3 0 10.782810060190416 3.9744212197496553 14.369085057201993 0 0 0
3915 1 3 0 10.045300782839751 4.375143964592003 14.900017329195954 0 0 0
5168 1 3 0 9.352071627093308 5.05752779360973 15.480042356778497 0 0 0
5021 1 2 0 10.417249172017007 7.35714281722501 14.825447866889311 0 0 0
5022 1 2 0 10.576873524503007 6.743614239656406 15.540252425674023 0 0 0
5171 1 3 0 11.501399379507047 5.594365162791873 16.461164401020515 0 0 0
5169 1 3 0 10.255192399054708 5.094888351143579 15.756908498519312 0 0 0
5170 1 3 0 10.57165856935577 5.7506230474999676 16.35449374233167 0 0 0
5036 1 2 0 13.434366389721687 5.40604920869485 14.286944536633841 0 0 0
3998 1 2 0 11.973571161675412 4.302170559243193 14.968583955447459 0 0 0
3997 1 2 0 12.615313389568723 4.5202965125096775 14.319005322376999 0 0 0
5200 1 2 0 12.895080040241172 7.5171816753104626 14.555920535496693 0 0 0
5199 1 2 0 13.391767686653871 6.631874614638679 14.30029994024837 0 0 0
909 1 2 0 12.143668204697214 5.317018018272161 14.830685630407848 0 0 -1
908 1 2 0 12.877026951690077 5.831158719228049 15.08974129217394 0 0 -1
907 1 2 0 12.247607447338524 5.8301672710102235 15.825824707680527 0 0 -1
4056 1 2 0 14.009183749114413 6.882203332413361 16.1992464436881 0 0 0
4055 1 2 0 13.933846747430708 5.94226198796032 15.908924238489353 0 0 0
945 1 3 0 12.303563249122757 7.051289663168381 16.137050044799278 0 0 0
628 1 3 0 13.010551713790191 5.063039439669472 16.773721753646623 0 0 -1
5092 1 3 0 16.198033837361812 4.427849282311148 13.503487936167303 0 0 0
5035 1 2 0 13.862148089558218 4.826005670179527 13.655271075866024 0 0 0
5069 1 2 0 15.776151832035366 6.093425176305867 13.985444748193952 0 0 0
4054 1 2 0 13.978835123108306 5.091361679451953 15.371738964603946 0 0 0
5054 1 3 0 14.913279659259265 5.669883105508351 14.594804372878826 0 0 0
5053 1 3 0 15.36020994961996 4.897037579616987 14.281501772010943 0 0 0
5214 1 2 0 15.158471079082773 6.649191895641697 15.81446766754247 0 0 0
5213 1 2 0 14.590540744276597 6.7439075855163955 15.00050840851203 0 0 0
5215 1 2 0 15.85876825791096 6.004463988613228 15.530426264225854 0 0 0
5055 1 3 0 14.978346506855095 5.1573725998011035 15.420821014589972 0 0 0
5056 1 3 0 15.54009992576844 4.836003844787148 16.062753713390453 0 0 0
5068 1 2 0 16.22535016803175 5.215723706998055 14.040451913364903 0 0 0
4241 1 2 0 17.142412484047995 6.091728259970801 14.48935668964214 0 0 0
499 1 2 0 0.19206248017046806 5.297659396811499 15.300179255103927 0 0 0
500 1 2 0 18.317085462242282 6.106129219674741 15.273494853399376 -1 0 0
111 1 1 0 17.387805533578756 5.436289056840857 15.094429175790314 0 0 0
5252 1 2 0 18.01726970444189 5.243320889195484 14.358330797966367 0 0 0
5216 1 2 0 16.4023320097111 5.538340375891989 14.939158864578033 0 0 0
705 1 2 0 16.85561327576124 6.246901954224596 15.521221387422083 -1 0 -1
704 1 2 0 17.05413227245666 7.069185851202568 15.02731206197499 -1 0 -1
5276 1 2 0 1.7436827146385188 6.549322458704473 14.902661048104237 0 0 0
5277 1 2 0 1.8466793251097915 7.175579303191973 15.637288697729424 0 0 0
4961 1 2 0 1.5766414654903167 8.521708027683545 14.142317294919106 0 0 0
5255 1 2 0 0.7840128017859508 6.982822140257608 15.456749629869284 1 0 0
701 1 2 0 0.5004115492806845 8.112285525292139 14.33870168233825 0 0 -1
5125 1 2 0 0.23681638307159752 6.987863805493363 14.070580218472966 0 0 0
700 1 2 0 1.2650373638678098 7.69991689742783 14.80785119813248 0 0 -1
699 1 2 0 2.19057923788948 7.4887944738775225 14.664424723178072 0 0 -1
5256 1 2 0 0.8386598137092018 7.83291664818796 15.811372351542516 1 0 0
5124 1 2 0 18.537966765539576 7.395678625448161 14.910630266452804 -1 0 0
4962 1 2 0 1.0422364226401433 8.695932254928216 14.98304510669587 0 0 0
998 1 2 0 0.5394864262657832 9.388187350807454 14.333215236549748 0 0 -1
5275 1 2 0 2.2942356295229085 6.111916641231447 14.25140192385043 0 0 0
5272 1 2 0 2.5731056823048806 8.305797991508681 13.915792270738466 0 0 0
4138 1 2 0 3.8021585835510643 7.4535101569929285 15.112388476442831 0 0 0
4141 1 2 0 2.2759449068186335 8.641776068956895 15.48617672814397 0 0 0
698 1 2 0 2.823995475243081 7.203481448128582 15.26646156125248 0 0 -1
803 1 2 0 2.5628054494059214 7.635608683406234 16.309533618209578 0 0 -1
4140 1 2 0 3.092630191203267 8.224291938361395 15.551569876324457 0 0 0
4139 1 2 0 4.0267861435236245 8.371880182108226 15.186934370582858 0 0 0
804 1 2 0 3.4493721112603724 7.392654445128335 16.16784112114773 0 0 -1
5294 1 3 0 3.741761492548689 9.238839157202722 14.633007379058393 0 0 0
805 1 2 0 4.214941046752247 7.9590988330280945 16.183710421696542 0 0 -1
1108 1 2 0 4.4038693848575035 9.726941089792927 17.219188074073195 0 0 0
4149 1 2 0 6.37277409803045 6.594219121858933 14.199428773152391 0 0 0
4461 1 3 0 6.487558574438293 9.328304560437987 15.041178323246077 0 0 0
5152 1 2 0 6.6249566949934655 6.375418149760626 15.797812559367618 0 0 0
883 1 2 0 4.838891397796358 7.127688963349774 15.460784281665303 0 0 0
884 1 2 0 4.9042188426757125 7.868327768307022 14.864720948008488 0 0 0
4460 1 3 0 7.120776011688719 8.725462149523795 14.556171165365697 0 0 0
5307 1 2 0 5.39742881934526 7.142426284024658 14.310834478355769 0 0 0
885 1 2 0 5.443401501495062 8.506092361216592 15.341802914401875 0 0 0
5309 1 2 0 6.890785453206938 7.830339157051068 15.118059452768222 0 0 0
5308 1 2 0 6.017416351967453 7.552206825745237 14.829630001617103 0 0 0
889 1 2 0 6.574663813905173 8.010297849529415 16.12846847213464 0 0 0
4170 1 3 0 7.934432420321031 9.355109575339622 14.508841956729656 0 0 0
4167 1 3 0 7.039531779172496 7.329147613729898 14.079479743073913 0 0 0
5310 1 2 0 7.087394470703272 8.639134806547863 15.604175480855544 0 0 0
5020 1 2 0 9.620200437823696 6.814753043326125 15.004453710087182 0 0 0
5177 1 2 0 8.510925773736664 6.917160766770742 16.37213558901499 0 0 0
5195 1 2 0 8.087728018807368 9.256809601810234 16.061684912369763 0 0 0
958 1 2 0 8.35073195737901 7.658721719193595 15.621185586347897 0 0 0
957 1 2 0 8.784030231253237 8.035552781859156 16.3618402168425 0 0 0
5178 1 2 0 9.308048709542321 7.0957691133190055 15.850641092011946 0 0 0
5240 1 2 0 11.73666069596653 6.305441456969165 15.010327598877234 0 0 0
5239 1 2 0 12.009595388272045 7.16509683941133 15.102301769824301 0 0 0
5238 1 2 0 11.737553930007635 7.870839309957405 15.636556940580768 0 0 0
5180 1 2 0 9.674856979783257 7.943932541318175 14.511377468563255 0 0 0
5179 1 2 0 9.586578512962625 7.935040199350567 15.47901372095923 0 0 0
4360 1 2 0 10.56431647782564 8.805623226574703 16.11481953361984 0 0 0
4361 1 2 0 9.767199165002314 8.387010968358458 16.460888387290655 0 0 0
4359 1 2 0 10.654186565831598 8.465447186760539 15.106055895551533 0 0 0
1201 1 3 0 10.77392611882377 7.784693012492786 16.02516403891958 0 0 0
4358 1 2 0 11.366189420795168 8.960221792969179 14.779743509892354 0 0 0
5023 1 2 0 11.22296131005657 6.7370307274474 16.220811673422936 0 0 0
1200 1 3 0 10.203578526272684 7.0846274066851604 16.440450062507196 0 0 0
5201 1 2 0 12.199332629978567 8.163351431828149 14.26418466786102 0 0 0
946 1 3 0 13.091629391121202 6.873625344206091 15.70257608054823 0 0 0
115 1 1 0 13.771771825747935 8.964098496403004 14.191394434437727 0 0 0
5337 1 2 0 12.940947151182275 8.713949024870566 14.623792179417604 0 0 0
5237 1 2 0 12.684327183626737 7.932699467926051 15.698277432272715 0 0 0
5236 1 2 0 13.129359037041993 8.776535566083306 15.68463058593851 0 0 0
4057 1 2 0 13.745898659596754 7.789003317090882 15.956960655199097 0 0 0
5235 1 2 0 13.405625650197702 9.4838279808237 15.126881977841583 0 0 0
5212 1 2 0 15.043824323482832 6.889405939661934 14.22016889719649 0 0 0
5211 1 2 0 14.24214989496863 7.392984849140106 14.214144788349643 0 0 0
1186 1 2 0 14.324142446457055 8.439342001332303 14.72526012802769 0 0 0
5231 1 2 0 15.159671764204958 8.670172017698107 14.203331970695746 0 0 0
1185 1 2 0 14.635019145824174 7.851766238824166 15.442807671536539 0 0 0
4059 1 2 0 14.982586262180442 8.959868638590297 15.478118656384533 0 0 0
4060 1 2 0 15.642421919524075 8.35503493685701 15.10423998538237 0 0 0
5233 1 2 0 14.878357201626608 9.938393220065192 14.118354807934347 0 0 0
4061 1 2 0 16.597443844199855 8.458059195620145 14.990335550015942 0 0 0
1056 1 2 0 15.88272785613245 9.006676344256185 15.917805848861233 0 0 -1
5070 1 2 0 16.077490974463075 6.7172470877179755 14.700665799192834 0 0 0
5071 1 2 0 16.08371418499828 7.173359062288881 15.534174339042519 0 0 0
3806 1 3 0 16.73146453201197 7.730389649601476 14.20887171552483 0 0 0
5097 1 2 0 16.425242745839935 8.907624862081699 14.08175580849878 -1 0 0
501 1 2 0 17.896709050397387 6.8518576515503895 15.637180699986788 -1 0 0
3805 1 3 0 17.466416285185982 7.550880334460906 13.610387412602828 0 0 0
702 1 2 0 18.158455900316063 8.32069971333118 14.172454565194954 -1 0 -1
703 1 2 0 17.547768322675953 7.844202896430324 14.787368801880413 -1 0 -1
1057 1 2 0 16.69051278030754 8.489331740711615 16.146184110712987 0 0 -1
5123 1 2 0 0.02751192197533925 8.33344540032737 15.210183018486267 0 0 0
5122 1 2 0 17.8044672197452 8.807054313977655 15.216245617876165 -1 0 0
107 1 1 0 17.29379176437291 8.919995793417304 14.445970601952066 -1 0 0
4966 1 2 0 18.04540271543316 9.516784454614152 14.056320426767067 -1 0 0
4340 1 2 0 1.4181070114147214 9.87574851371575 13.275137581100829 0 0 0
5375 1 2 0 1.5718007954015132 10.79733691205106 14.033482942915656 0 0 0
113 1 1 0 2.5277933725637305 9.2189472323643 14.334222358989894 0 0 0
995 1 2 0 2.4574573709295997 11.08632536212798 14.444093441813784 0 0 -1
996 1 2 0 2.139979023933909 10.219142743523573 14.642681796087597 0 0 -1
997 1 2 0 1.4349793429178526 9.69107925344914 14.367010143151992 0 0 -1
4963 1 2 0 0.8871846001397196 9.55457649286528 15.266675753536072 0 0 0
5376 1 2 0 1.4843581768177632 10.828941018904835 15.015973132741768 0 0 0
4964 1 2 0 0.7630894617145465 10.329843661361714 14.647532355237113 0 0 0
5377 1 2 0 1.9242567064122518 10.274480741472413 15.660453379272987 0 0 0
4338 1 2 0 0.6032234993714748 11.329902037825377 14.038874821168296 0 0 0
5368 1 2 0 1.749724574675931 11.629261595041207 15.885400224647626 0 0 0
726 1 3 0 2.4227434702448365 9.578837459390087 17.595019884200454 0 0 0
999 1 2 0 18.45688529659231 9.554480212323652 15.089654163934707 -1 0 -1
1109 1 2 0 4.479529952887974 9.455464173829725 16.27942112985174 0 0 0
5378 1 2 0 2.85656626545 10.385557018977586 16.147499679736942 0 0 0
1111 1 2 0 2.852475626914263 9.517853707480617 15.191035637150792 0 0 0
1110 1 2 0 3.6573204131782586 9.468747406443761 15.729040216654823 0 0 0
5295 1 3 0 4.066649944755233 10.173999059066388 14.86271276520331 0 0 0
324 1 2 0 5.216191705671625 10.690055414249649 15.074178670355247 0 0 -1
781 1 2 0 4.034973361143575 10.363019985124135 16.16526753786762 0 0 -1
5369 1 2 0 2.5841111621545716 11.221401521044719 15.412594192204283 0 0 0
323 1 2 0 4.346719148761512 11.047765778085665 15.408528486656698 0 0 -1
5379 1 2 0 3.3265107950843 11.30517139796977 16.227305327429498 0 0 0
5370 1 2 0 3.3970309722450027 11.158526682533616 14.904616973524298 0 0 0
322 1 2 0 3.9219461637617945 11.86818392417822 15.644183102811455 0 0 -1
3276 1 3 0 4.761155879022537 9.110660904393638 14.99743063574806 0 0 0
782 1 2 0 5.010816571652285 10.489505284901739 16.260495632595653 0 0 -1
5311 1 2 0 7.1242587290431105 8.945731278368529 16.508382597507396 0 0 0
5192 1 2 0 6.078752533877512 10.238115823774477 14.580362967007886 0 0 0
4371 1 3 0 4.949507315781038 9.970679426644725 14.178635347353621 0 0 0
325 1 2 0 5.672155461313119 10.043297397447875 15.569583105570365 0 0 -1
5325 1 2 0 5.648757333874711 11.26989540597433 16.04605747942292 0 0 0
4331 1 2 0 5.563767544505931 11.239657925387009 13.838529751307581 0 0 0
251 1 2 0 4.985056106316072 12.078746909402627 15.803758606560265 0 0 -1
4332 1 2 0 5.270555912589332 11.75342960210968 14.635599223481718 0 0 0
326 1 2 0 5.618881679583461 9.363611535336984 16.28984638889456 0 0 -1
1337 1 2 0 6.502859364382695 10.639856128965667 16.47941617493002 0 0 0
4434 1 2 0 8.707607928517413 8.56125204479048 14.504105626018289 0 0 0
5193 1 2 0 6.669256351564408 10.344297506333437 15.373074305518909 0 0 0
5194 1 2 0 7.384509036174496 9.761098771828381 15.696033873595471 0 0 0
4436 1 2 0 8.794222092557941 10.447240806080028 14.257267323125124 0 0 0
1344 1 2 0 8.313213656638277 10.813657188496645 15.324719863071905 0 0 0
1345 1 2 0 8.110086251307303 10.597685227699763 16.23508023651753 0 0 0
1343 1 2 0 8.625530792616594 11.480883393687538 14.631442208746103 0 0 0
1193 1 3 0 9.234813429051323 10.344835312415343 16.112050876800325 0 0 0
5196 1 2 0 8.731864304505143 8.874299710360606 15.520864534053702 0 0 0
5312 1 2 0 7.431407665358122 9.833715362571024 16.841847510321195 0 0 0
4435 1 2 0 9.008161141404475 9.539130734968554 14.510650966207024 0 0 0
5361 1 3 0 11.159805984632909 11.069190588788102 14.72834185818338 0 0 0
4674 1 2 0 9.38346282465708 11.27988273587432 15.527121159099535 0 0 0
1195 1 3 0 10.53096803137382 9.746050214227333 15.320467294553668 0 0 0
1194 1 3 0 9.752794609755751 10.355278966242757 15.222612036633427 0 0 0
1196 1 3 0 9.721627766318472 9.205088890902848 15.214297118787346 0 0 0
5360 1 3 0 11.78299714282748 11.803496240655068 14.387135077657838 0 0 0
4445 1 2 0 12.885848640371696 10.14780623480406 13.286012086774404 0 0 0
4446 1 2 0 13.61541646488841 9.853062653701006 13.817673437523908 0 0 0
5338 1 2 0 12.346017284574097 9.49918026846607 14.74273190331852 0 0 0
1252 1 3 0 12.14660242795336 9.168698040802951 16.016727977905767 0 0 0
4357 1 2 0 11.31851400714628 9.786108936344498 14.3766231564666 0 0 0
5357 1 3 0 13.86218043788489 11.594771704656603 14.381987655333242 0 0 0
5340 1 2 0 12.121761526302354 11.044939564900284 15.775922727265641 0 0 0
5341 1 2 0 12.890639849432247 11.6136555917264 15.959014570449778 0 0 0
5339 1 2 0 12.520875384717872 10.257252609583231 15.287554822972368 0 0 0
5359 1 3 0 12.421922519386579 11.351926074135038 14.840390295924873 0 0 0
5358 1 3 0 13.145255578217856 10.96824280214557 14.393755234240412 0 0 0
5234 1 2 0 14.40872861147026 9.689250575919228 14.990503045736599 0 0 0
4475 1 2 0 15.76648384500734 10.535860503090626 14.221059077054004 0 0 0
4476 1 2 0 15.853205935619085 10.910489252935287 15.121321664009002 0 0 0
5343 1 2 0 13.685627534763901 10.511117896639586 15.363838962758361 0 0 0
521 1 3 0 16.293926872287415 10.010164188852475 15.559643488030188 0 0 0
4478 1 2 0 14.994492515899177 10.771113516768526 16.675790992885993 0 0 0
1314 1 3 0 17.752592706793436 11.293632577171987 16.367580838069053 0 0 -1
4339 1 2 0 0.696721037901029 10.393798279346324 13.60026491869555 0 0 0
4251 1 3 0 16.800963703353478 11.059393243188016 14.506648979749567 0 0 0
4249 1 3 0 17.314787177544833 10.402464230719769 13.522477017413935 0 0 0
4250 1 3 0 16.6705348794468 10.099441958556483 14.090780592688855 0 0 0
1315 1 3 0 16.91820009607977 11.186419188301498 16.842166346940513 0 0 -1
4965 1 2 0 18.418400965224862 10.31068454167704 14.347126785504706 -1 0 0
1007 1 3 0 18.307350503207374 10.20936312576694 16.301681945880322 0 0 -1
520 1 3 0 17.19669863594238 9.693140904003206 15.247640233544281 0 0 0
994 1 2 0 2.2215797245677957 12.053613277453794 14.216802677304468 0 0 -1
4337 1 2 0 1.138724594665064 11.874028602888085 14.71352231670366 0 0 0
4336 1 2 0 1.8816666910551543 12.401692168310763 15.085079966077751 0 0 0
1278 1 2 0 1.1906750788582652 13.11616673823147 15.700370585437586 0 0 -1
993 1 2 0 2.517044397381833 12.918987384435836 14.393424810467632 0 0 -1
991 1 2 0 2.2675537205718186 12.656966901849284 16.1180196854604 0 0 -1
1279 1 2 0 1.8820388007930815 13.759715774497039 15.7827979713987 0 0 -1
992 1 2 0 2.5210778100289466 13.184361680330975 15.341570673818428 0 0 -1
4335 1 2 0 2.817712666451444 12.119176978712197 15.059903321981864 0 0 0
4334 1 2 0 3.503019946766634 12.40569675154984 14.447586448504937 0 0 0
321 1 2 0 3.369550433153092 12.672347337092276 15.84126770016835 0 0 -1
4333 1 2 0 4.449022382807117 12.232602377524794 14.48856711939812 0 0 0
249 1 2 0 4.943923598343519 13.759441779253544 15.381285270088226 0 0 -1
250 1 2 0 4.563117723766868 12.827946921877508 15.351071697030797 0 0 -1
1329 1 2 0 3.731474595246532 13.430866950391287 15.028157042032568 0 0 -1
1330 1 2 0 3.9701034066830654 13.448119818190865 15.985946935038342 0 0 -1
4611 1 3 0 6.622314823664034 11.39035957396347 14.451344860935691 0 0 0
5324 1 2 0 6.3967737709442964 11.396194185999315 15.478011499718347 0 0 0
1087 1 3 0 5.188187085276189 13.246558205115315 13.698387165903407 0 0 0
1078 1 2 0 4.629102266010562 13.506034375131154 14.428756750350937 0 0 -1
1079 1 2 0 5.4885319310299545 13.171876491477583 14.704600916561786 0 0 -1
4601 1 2 0 5.9745986802040045 12.235894607853815 16.087346881051992 0 0 0
1080 1 2 0 5.7674284004462075 13.212473134565384 15.596541744388796 0 0 -1
4600 1 2 0 6.182815779635763 12.426512053656543 15.139073171501186 0 0 0
4599 1 2 0 6.4888558245929815 13.343006721432104 14.72523230937626 0 0 0
1340 1 2 0 6.9089857387366 13.011648376422553 15.561048298230324 0 0 0
5323 1 2 0 7.311780918146691 11.194832819189847 15.619669419546836 0 0 0
1113 1 2 0 7.744591175010177 13.8140435118693 14.627635462443656 0 0 -1
1342 1 2 0 8.131520895651986 12.278910511190727 14.623862153850087 0 0 0
1362 1 3 0 6.971974349657039 13.922678595871766 15.766195840047056 0 0 0
1341 1 2 0 7.202572927688756 12.508618685720604 14.824244075804161 0 0 0
5322 1 2 0 7.848166545338138 11.97060843913361 15.498954492523396 0 0 0
1114 1 2 0 7.955236133939565 13.18741271490948 15.320954264577619 0 0 -1
1132 1 3 0 7.962985243192389 14.055974273352833 16.044487048966083 0 0 -1
5321 1 2 0 8.581765542814264 12.428593245097678 15.836696990257536 0 0 0
3539 1 2 0 8.780584863240225 14.08366348646635 14.06902988367839 0 -1 0
3540 1 2 0 8.92688254265711 13.486879396643719 14.873612621155896 0 -1 0
5423 1 2 0 9.165064429735398 12.26941569755959 15.017498612437084 0 0 0
5425 1 2 0 9.90565488568093 12.981995754625254 13.725514852905096 0 0 0
5424 1 2 0 9.102550798532352 12.690792603562484 14.152260182286774 0 0 0
4570 1 2 0 10.607438456212503 12.295814263641391 14.123813541468703 0 0 0
4673 1 2 0 10.214642553478571 11.694234423902335 15.085589968750298 0 0 0
3541 1 2 0 8.88082405411436 13.653890116633502 15.880270761607067 0 -1 0
4672 1 2 0 11.017919581913862 12.211915048849475 15.127800243601358 0 0 0
4571 1 2 0 11.149719443110524 13.025434197654315 14.478457937365551 0 0 0
5422 1 2 0 9.91644364808581 12.82804703736622 14.77868406748356 0 0 0
5421 1 2 0 10.175327510381404 12.569833669043929 15.640727177285978 0 0 0
1257 1 3 0 11.672567099369845 13.360893622065309 16.172338149064874 0 0 0
1258 1 3 0 10.758501887470752 13.541249148588491 15.862198667006746 0 0 0
5342 1 2 0 13.52493423645485 11.515321265850572 15.247236115613953 0 0 0
4671 1 2 0 11.820000099558362 12.721153394728331 15.242335475654805 0 0 0
1244 1 2 0 11.166418335861156 12.620834046244504 16.082918554133094 0 0 0
4670 1 2 0 12.238049046244697 12.8894662869275 14.315032991357853 0 0 0
4931 1 2 0 12.228360752528562 13.835465961551677 14.77459519119214 0 0 0
4669 1 2 0 13.073355585258103 12.402896816699895 14.474435011700038 0 0 0
1166 1 3 0 14.240310135856106 12.334140103804687 15.943343935288127 0 0 0
4930 1 2 0 12.594929837843313 14.08986859724736 15.657888364266611 0 0 0
5432 1 2 0 14.89739264399171 12.759340127117701 13.68320915136912 0 0 0
5345 1 2 0 15.007938752919646 11.332977788071675 14.774785914445284 0 0 0
5433 1 2 0 15.632200464675783 13.25630383986322 14.064251011532262 0 0 0
5344 1 2 0 14.271701231149605 10.719097844953552 14.683548671979265 0 0 0
4668 1 2 0 13.258549512910973 13.361721203105004 14.546967819584077 0 0 0
1165 1 3 0 14.180449720767307 13.02263426996802 15.207927215253132 0 0 0
5346 1 2 0 15.263351604059055 11.744525917931991 15.562231839983985 0 0 0
5347 1 2 0 15.652371390962829 12.550392465628265 14.995618731198496 0 0 0
4501 1 3 0 15.074501356738496 11.824597742930914 12.699539827292316 0 0 0
1277 1 2 0 0.3845640842777771 12.963427763761187 15.200520698876979 0 0 -1
1276 1 2 0 18.17740878920442 12.357101673662285 15.181908837256799 -1 0 -1
1226 1 3 0 17.94654971522503 13.500721539214902 15.010420011882642 0 0 0
1313 1 3 0 17.166284809557343 11.521810557492943 15.675586258926511 0 0 -1
1275 1 2 0 17.32993470380555 12.718275697185636 15.309663634024963 -1 0 -1
1274 1 2 0 16.719465829352842 13.22732469211642 15.798549030371891 -1 0 -1
4538 1 2 0 0.1270378630496658 15.251007679476949 13.229956048794989 0 0 0
4799 1 2 0 1.407709233290178 15.482225202794307 14.446363287558798 0 0 0
187 1 2 0 1.508519897255725 13.42445593882119 14.753454236227808 0 0 -1
188 1 2 0 0.7424519650618241 13.943907547657517 15.051437084398561 0 0 -1
186 1 2 0 2.0584588171999023 14.231650937030128 14.530093607820838 0 0 -1
4798 1 2 0 0.8844821511708202 15.1244061573363 15.18075951510434 0 0 0
4797 1 2 0 1.3585567306354993 14.713002126578127 15.967072732403382 0 0 0
1456 1 2 0 0.03468839966487007 15.792440396524876 15.52977819980272 1 0 0
184 1 2 0 1.972206876294843 15.663869982202847 15.72269658971659 0 0 -1
185 1 2 0 2.1082013818716447 15.10502888644054 15.007086154579834 0 0 -1
121 1 1 0 18.1404312655102 15.263165709620624 14.900723764883203 0 0 0
1280 1 2 0 2.3982376917678345 14.547764038539094 15.893783838818896 0 0 -1
1326 1 2 0 3.466505741935466 15.826080384889625 13.953831213893801 0 0 -1
1077 1 2 0 4.305763461496961 14.336606031883267 14.733184816153706 0 0 -1
1328 1 2 0 3.082416159870082 14.174496118504763 15.086395329778203 0 0 -1
1327 1 2 0 3.272882800375145 15.002391569800144 14.60608491690141 0 0 -1
1075 1 2 0 3.1608511558145462 15.374880091837108 15.740689932489724 0 0 -1
1076 1 2 0 3.8554097604060784 14.788296342588493 15.423024048604498 0 0 -1
4823 1 2 0 3.767985329921693 15.807384905127595 14.994699625267979 0 -1 0
4590 1 2 0 2.471798240224433 15.693714949553108 14.178003426342121 0 0 0
4822 1 2 0 4.4078087687654035 15.285319793459198 14.484192442361051 0 -1 0
4824 1 2 0 3.9287886141815562 16.23551575846801 15.805575196374939 0 -1 0
4591 1 2 0 2.940152660556448 16.26507563264132 14.814784774302641 0 0 0
1074 1 2 0 2.8477884012423598 16.054434375391924 16.358285196315197 0 0 -1
4810 1 2 0 4.70103017464711 14.52150654676041 16.011931545440692 0 0 0
4809 1 2 0 4.592339693553727 15.474310236749343 15.675705154164488 0 0 0
99 1 1 0 5.366694142878105 15.503805541773376 14.406658148874621 0 -1 0
4705 1 2 0 6.069470423105367 14.2252895780835 15.205627866816375 0 -1 0
4704 1 2 0 5.805045140751361 14.190276416347496 14.288622642717883 0 -1 0
248 1 2 0 5.162520059203578 14.673920020323362 15.100903094716053 0 0 -1
4842 1 2 0 6.257066168709895 15.268795384804367 14.944525923209103 0 -1 0
247 1 2 0 5.630480926461077 15.37004893697021 15.60965573317665 0 0 -1
246 1 2 0 5.628982726151849 16.231709734400425 15.342635817079517 0 0 -1
4598 1 2 0 6.9010160536288145 14.200651808379721 14.391904084095199 0 0 0
4764 1 2 0 6.722218745266365 16.480999448212774 15.85094970683391 0 -1 0
4808 1 2 0 4.706138585916415 16.138835679061557 14.936784537763248 0 0 0
4595 1 2 0 5.997261883757658 16.430546413140977 14.26056985148866 0 0 0
4706 1 2 0 5.785303116995708 14.376561515447843 16.184503492700408 0 -1 0
3538 1 2 0 8.45299734295811 14.955094093651814 14.167942459081097 0 -1 0
4843 1 2 0 6.763827123349807 15.148926683509957 15.742900186717565 0 -1 0
3629 1 2 0 6.858297960989693 16.188382907136845 14.649580421501991 0 -1 0
3631 1 2 0 8.694638677263862 15.96298758744105 14.514406273416482 0 -1 0
3630 1 2 0 7.720922381718168 15.826728212383891 14.418490209283641 0 -1 0
1363 1 3 0 7.514280150163996 14.623748045729112 15.343915005120182 0 0 0
1364 1 3 0 8.141007924020927 15.28925448481661 15.481902088422434 0 0 -1
1365 1 3 0 8.72622259720248 14.62499722072673 15.205673841130174 0 0 -1
1134 1 3 0 8.246572356109683 15.643851445719172 16.516241962518368 0 0 -1
4765 1 2 0 7.5017837775870495 16.07778588712204 15.970937740018629 0 -1 0
4766 1 2 0 7.671548334361501 16.6909652527449 15.188704494719456 0 -1 0
4844 1 2 0 6.662774550432961 15.028564224481586 16.703075263367438 0 -1 0
5412 1 3 0 9.751271997295195 16.789728448581737 16.66489470462832 0 0 0
96 1 1 0 10.588022946132215 13.84651360157045 14.596570701504662 0 0 0
1260 1 3 0 9.574103581952132 14.210978448746992 16.465916289180143 0 0 0
1366 1 3 0 9.362184486175504 15.092398154447201 14.745740682871883 0 0 -1
4650 1 2 0 8.784999186680341 16.13748809198678 15.70297997356302 0 0 0
1259 1 3 0 10.076696588996636 14.15031615157638 15.61668197564691 0 0 0
3707 1 2 0 9.679489395178836 16.176195549984893 14.55454551783514 0 -1 0
3751 1 2 0 10.991075690756414 14.548893826583628 15.150618856173626 0 0 0
3708 1 2 0 10.180890439543818 15.75295549961319 15.272847994481227 0 -1 0
3709 1 2 0 10.454944343797576 15.994291066985596 16.137677769600092 0 -1 0
1444 1 2 0 11.215426997480703 15.320188378313906 16.068867353696707 0 0 0
4651 1 2 0 9.395554483182622 15.398995281605963 15.975940198575364 0 0 0
174 1 2 0 13.115097245207908 14.015097722518044 13.616933811003078 0 -1 -1
4929 1 2 0 13.544781242426113 14.209256860045988 15.725132249196285 0 0 0
3750 1 2 0 11.332289583523254 15.342800776834057 14.722498354376604 0 0 0
3749 1 2 0 12.212603461882068 15.801778817369208 14.594704936786673 0 0 0
1404 1 2 0 12.243051682911256 14.804416489987478 14.5382396472088 0 0 -1
175 1 2 0 13.185210342217378 14.383481947667548 14.527202975062286 0 -1 -1
1445 1 2 0 11.513978838586853 16.139810094207927 15.628220961821986 0 0 0
176 1 2 0 13.07103011966439 15.058702425636838 15.235108670358567 0 -1 -1
5 1 1 0 12.694372951711085 15.656225416966869 16.0036202571344 0 -1 -1
1405 1 2 0 11.986312084799616 14.934374711800496 15.468690616827253 0 0 -1
1406 1 2 0 12.045415921676303 14.883481714499542 16.41141203598138 0 0 -1
670 1 3 0 15.364691221947666 15.400979100497398 14.162559891335086 0 -1 0
5348 1 2 0 15.206093654750067 12.84957583902015 15.794754469243243 0 0 0
5434 1 2 0 16.493641628240816 13.29751522684297 14.550801045557021 0 0 0
169 1 2 0 16.27590065494184 14.673186073379608 14.438783313749784 0 -1 -1
4667 1 2 0 14.098826417358566 13.638644226621475 14.089823723378137 0 0 0
1163 1 3 0 14.046956621959618 14.893008044896245 14.759542490557823 0 0 0
3730 1 2 0 14.403773705510824 15.849093426596532 14.451955977024525 0 -1 0
1162 1 3 0 13.944941915471011 15.724422330238962 15.337327585841454 0 0 0
1164 1 3 0 14.375404084139022 13.999595196470766 15.039741768132199 0 0 0
671 1 3 0 15.198440019472164 14.647457199686471 14.822999476368677 0 -1 0
3731 1 2 0 14.870561382155232 16.28382335225204 15.225622229536599 0 -1 0
101 1 1 0 15.091200444115621 15.958673390075303 16.0838100898393 0 -1 0
669 1 3 0 15.238529525341317 16.347367401691475 14.180782853680011 0 -1 0
4927 1 2 0 14.698253373085393 15.08907471403008 15.8275879442693 0 0 0
168 1 2 0 16.317963608643133 15.555017529884411 14.826666327162892 0 -1 -1
2431 1 3 0 16.1112681051727 14.31375057721942 15.413628773185787 0 0 -1
189 1 2 0 18.56068643505634 14.288789610427289 15.561117621360793 -1 0 -1
190 1 2 0 17.64872931652049 14.234903311144222 15.930649731871304 -1 0 -1
5435 1 2 0 17.107070653080388 13.96880484719133 14.902037757523965 0 0 0
4540 1 2 0 17.35674128826794 15.532366370876328 14.370368816034281 -1 0 0
5436 1 2 0 17.904063010987613 14.411280711015895 14.585856109622428 0 0 0
4541 1 2 0 17.16248649872244 14.976731204383572 15.138880295241623 -1 0 0
117 1 1 0 17.566890195301035 15.51750769308756 15.825448384088507 -1 0 0
516 1 2 0 1.1738465259197381 17.404797766569978 15.573961605737834 0 -1 0
4946 1 2 0 0.12427648291631449 15.632094447672701 14.169347529601758 1 0 0
4800 1 2 0 1.5971437459833737 16.13364646649347 13.74702702123727 0 0 0
102 1 1 0 0.9893878475429854 17.700355988700977 14.699828321730525 0 -1 0
4711 1 3 0 0.4406441239377981 16.54429420901962 14.866400770210237 0 0 0
3801 1 2 0 1.4732479217768086 17.002774079559856 14.324970802539557 0 -1 0
4708 1 3 0 2.190495730889526 17.675912949590536 15.41025491901265 0 0 0
4710 1 3 0 1.2672665447361957 16.305497386486635 15.271964230958545 0 0 0
4709 1 3 0 2.064441004933985 16.67358158685526 15.558182314783306 0 0 0
135 1 2 0 2.1301891293659865 17.317182623630007 16.588163500841166 0 -1 -1
4945 1 2 0 18.036474681883412 16.21463342286311 14.517617840779833 0 0 0
1325 1 2 0 3.6953811349964143 16.82924130412166 13.911131792533734 0 0 -1
3800 1 2 0 2.3836763639467833 17.136116713636305 14.516550757980701 0 -1 0
4693 1 2 0 3.881973731075477 17.81783115722952 15.911591975043773 0 -1 0
1324 1 2 0 4.061755628622947 17.73660531686745 13.755760563862886 0 0 -1
3799 1 2 0 3.066025883444131 17.739793870327066 14.287787320283952 0 -1 0
4694 1 2 0 3.1631716985791356 17.941183705138485 15.310018530094565 0 -1 0
4592 1 2 0 3.502036735598707 16.956325920620017 15.194307672863678 0 0 0
4593 1 2 0 4.36465046110233 17.29362158406986 14.789137305596446 0 0 0
1323 1 2 0 4.104266952356977 18.505095843642966 14.27984280379697 0 0 -1
4817 1 3 0 5.208809481819414 17.77837778973856 12.733736343143493 0 0 0
4806 1 2 0 4.823507728647758 17.07875646903727 13.524311193284642 0 0 0
3626 1 2 0 6.467871726389949 18.318228791095173 13.716782463228265 0 -1 0
243 1 2 0 4.725754622217357 18.421870205475525 15.11889883692444 0 0 -1
4807 1 2 0 4.615923629188423 16.219686051205912 14.004612719657448 0 0 0
244 1 2 0 5.566436545812813 17.984169381562182 15.062795827650758 0 0 -1
245 1 2 0 5.879416304388818 17.10350335570369 15.226862053258385 0 0 -1
4594 1 2 0 5.22756248348824 16.979571418956866 14.406109197318253 0 0 0
3627 1 2 0 6.1583505403781205 17.595093786190322 14.306728072809477 0 -1 0
3628 1 2 0 6.969047977776384 17.031677586943566 14.149526605181416 0 -1 0
4827 1 2 0 5.309460069056345 18.409082699902644 16.09487095891288 0 -1 0
5401 1 2 0 5.2635632461677035 16.487131213138962 16.791687226691245 0 0 0
5403 1 2 0 6.336638112921988 17.672813507947424 15.905464944570285 0 0 0
4826 1 2 0 4.897134520370686 17.563346104595556 15.810323983767454 0 -1 0
5402 1 2 0 5.852633853593989 17.085624146971053 16.41780098774167 0 0 0
4647 1 2 0 8.415860301451955 17.722930042462572 13.881602550574115 0 0 0
643 1 2 0 8.723849767033393 0.07349544821365754 15.229772179743057 0 0 0
221 1 3 0 8.47165896723182 17.525457442980485 16.032666963833083 0 0 -1
4648 1 2 0 8.155059451071523 17.67740538714142 14.850275976336386 0 0 0
4126 1 3 0 6.945340540392331 17.387918198590793 15.066860256760183 0 -1 0
4767 1 2 0 7.942291320202395 16.720218829883905 14.29538429094629 0 -1 0
4869 1 3 0 9.15783580183895 0.35212865831672135 16.19654886337209 0 0 0
5413 1 3 0 9.615804685259086 16.70271982941721 15.722571667260839 0 0 0
220 1 3 0 7.670123089810882 17.071087898742537 16.320277668285687 0 0 -1
4005 1 2 0 11.382582369011217 0.052065842629328785 14.033754671069074 0 0 0
644 1 2 0 9.265021053804153 18.262664168106888 14.532642530459244 0 -1 0
1161 1 2 0 10.425826075140398 0.12096722175949114 15.875834812040514 0 1 -1
4649 1 2 0 8.711593504173942 16.91368043520432 15.188415420904768 0 0 0
645 1 2 0 10.158143678884866 18.341464017514106 14.797262852504984 0 -1 0
1398 1 2 0 9.631699546766079 17.35842912139388 14.757913548301055 0 0 -1
1397 1 2 0 9.53995220951224 17.841044403627876 15.578820580543976 0 0 -1
646 1 2 0 10.87941519856562 17.777081835314153 14.860878545358887 0 -1 0
5414 1 3 0 10.546507616780065 16.769180811001192 15.368964517498242 0 0 0
5415 1 3 0 10.584274979178993 17.168205888009332 16.260162363047247 0 0 0
5416 1 3 0 11.352799158527036 17.411058040822528 15.79090804806457 0 0 0
23 1 1 0 9.825516969749241 18.12984383248812 16.408206947002252 0 0 -1
1446 1 2 0 12.228395696860872 16.682533344485773 15.358883170997709 0 0 0
1447 1 2 0 13.110521678314884 16.293910278023223 15.127831807169365 0 0 0
647 1 2 0 11.874635000514637 17.51675665391725 14.866976517099195 0 -1 0
619 1 2 0 11.76276251617641 18.33152685674884 15.884205837596275 0 -1 -1
649 1 2 0 13.598367285279354 18.072158339341808 14.323431795781866 0 -1 0
648 1 2 0 12.81116769340196 17.714713830083394 14.74525743818487 0 -1 0
1668 1 2 0 13.539133939042253 17.926315286464103 15.41314017041003 0 -1 -1
345 1 2 0 11.794754819390109 16.89947477446574 16.92262294724145 0 -1 -1
392 1 2 0 12.94147794257264 16.559191385677405 16.284863653269237 0 -1 -1
650 1 2 0 13.900636707472831 0.09995174241117184 13.617026704010053 0 0 0
4009 1 2 0 14.664345871575234 18.055655390717742 13.958281394332817 0 -1 0
4890 1 2 0 15.987104453548543 16.30981664611448 15.816188268322858 0 -1 0
4889 1 2 0 15.866609913112677 16.9608302069321 15.121676627706856 0 -1 0
1448 1 2 0 13.990770767617311 16.78263318954527 15.165405571279717 0 0 0
667 1 3 0 13.55401168203345 17.10552013689464 14.228393350280976 0 -1 0
4010 1 2 0 15.542198867758886 18.3265213389662 14.314956852975811 0 -1 0
668 1 3 0 14.577143865887374 17.068782250156765 14.140207233890676 0 -1 0
486 1 2 0 14.56884427088855 18.524394295408506 14.989958024960233 0 -1 -1
1449 1 2 0 14.77572136160749 17.40443901154013 15.223659517197 0 0 0
4887 1 2 0 15.515519963507257 0.17326996986805576 15.52462050586838 0 0 0
485 1 2 0 14.601647635551023 18.189711459969885 15.966276987662916 0 -1 -1
1450 1 2 0 15.29177253133057 17.1288955422177 16.03383654094886 0 0 0
4761 1 2 0 17.868749984758413 16.385015523730154 15.523308624006706 -1 0 0
167 1 2 0 16.828418322525586 16.255328417906384 15.179725299378758 0 -1 -1
4902 1 3 0 16.364753561046413 17.624562150571858 14.548595268376637 0 0 0
4888 1 2 0 15.93975181825525 17.878234266604295 15.335126779546759 0 -1 0
4531 1 2 0 17.137606186724113 18.267324079616294 13.497401677817386 -1 0 0
4759 1 2 0 18.343212949932322 17.583254594970416 15.163251845012207 -1 0 0
166 1 2 0 16.896630171497378 17.062015603985692 15.712111671604301 0 -1 -1
4745 1 2 0 17.919341354120743 17.97109994977143 16.146257311405197 -1 0 0
4747 1 2 0 17.41228966357104 17.307283568014515 14.61742544307388 -1 0 0
4760 1 2 0 0.04021946499561224 16.930836346426407 15.857220231892654 0 0 0
4746 1 2 0 17.354529303403737 18.008225806362013 15.293257282338478 -1 0 0
1285 1 3 0 1.9622505935762649 0.05323773464258845 17.372388264785425 0 1 0
1286 1 3 0 1.808461303822352 0.7236428310717516 16.67096160078132 0 1 0
818 1 2 0 2.7535564397688472 2.3993372369362755 17.20280864994991 0 0 -1
139 1 2 0 1.331222416627849 1.4913420503877555 15.74076306443441 0 0 -1
138 1 2 0 0.7567002705320294 0.7536048258216161 16.04970622063625 0 0 -1
837 1 3 0 1.8216640257890355 2.1268505908455246 16.934153358862343 0 0 -1
838 1 3 0 1.9924387242820325 1.3842570301651091 17.501980207014277 0 0 -1
839 1 3 0 1.7969811487450909 0.9743412712130547 18.317980129063308 0 0 -1
97 1 1 0 1.018472784319036 1.5033878454843288 18.12046149894037 0 0 0
1282 1 3 0 0.4548488976169146 0.5324396047244258 18.167759259497842 0 1 0
4689 1 2 0 2.8765108094164638 1.7242075264299797 17.99963068294098 0 0 0
4998 1 2 0 4.311141888409845 0.6090713658941792 18.240279488346356 0 0 0
5002 1 2 0 3.139759717904308 1.5812753195363387 16.550325791748765 0 0 0
4691 1 2 0 3.967374975896806 0.6070466684415702 17.14892443829508 0 0 0
5001 1 2 0 2.778678487036073 0.7259622065948037 17.00615133471821 0 0 0
5000 1 2 0 2.7461266975997995 0.6190754407793823 17.95326067058093 0 0 0
4692 1 2 0 4.108642044459105 0.037652168704553936 16.377790812665694 0 0 0
4690 1 2 0 3.6011073995441696 1.142252895334266 17.85590189216573 0 0 0
4997 1 2 0 4.812773949723399 1.3221676274783682 17.650331342283113 0 0 0
223 1 2 0 4.638120374386931 2.5519228420066553 17.057546958246746 0 0 -1
226 1 2 0 6.74948307776048 2.0818607771924884 0.028113878223275792 0 0 0
4856 1 2 0 6.831641023993887 0.39291362674408575 15.76441299002883 0 0 0
197 1 2 0 5.020600312506293 0.43261924045309663 17.093735962342844 0 0 -1
4853 1 2 0 5.90812883576631 1.3456889871645057 17.95302310043465 0 0 0
4855 1 2 0 6.214363641520405 0.6913623589847068 16.4156865546841 0 0 0
198 1 2 0 5.773905928733019 0.3323371752551521 17.673535995166088 0 0 -1
200 1 2 0 6.986918665302017 1.1485693523498086 18.44773243731945 0 0 -1
4854 1 2 0 6.4600851738751155 1.0341611629446876 17.24379655245112 0 0 0
4996 1 2 0 5.558174912477895 1.661932936512408 17.097852085647894 0 0 0
263 1 2 0 7.676873424506757 1.322383891620119 17.594179338331813 0 0 -1
199 1 2 0 6.33546051420632 0.40004581185378363 18.414162834308403 0 0 -1
216 1 2 0 6.732370817497577 18.506968617754406 17.236187324483378 0 -1 -1
1420 1 2 0 8.458964498583533 0.14145557633633749 0.531383703135894 0 1 0
380 1 2 0 8.863570999179009 1.689420447156112 17.463221493231533 0 0 -1
3 1 1 0 7.377964816995025 0.39138493494551935 17.901535260859866 0 0 -1
262 1 2 0 7.782949394508312 0.5091720259445582 17.08152928096058 0 0 -1
640 1 2 0 6.930969757346396 1.713035762387907 16.225283365703035 0 0 0
641 1 2 0 7.622806130076468 1.0367966572237999 16.197975336275366 0 0 0
379 1 2 0 8.291999317464391 1.6768096261756678 16.656651394870785 0 0 -1
1419 1 2 0 8.629188272674211 0.6903508680040643 18.23567510550919 0 1 -1
307 1 2 0 8.059693405584962 18.27142434423314 17.890208505657768 0 0 -1
1418 1 2 0 9.029445891665002 0.6709422324965133 17.285744253879596 0 1 -1
4840 1 2 0 10.726630956043609 1.1245042845969557 18.36380192128345 0 0 0
4876 1 2 0 10.143065005742258 1.1924034651058133 17.333923796992753 0 0 0
341 1 2 0 11.180770896820766 1.5696201169209252 17.066582124776833 0 0 -1
4839 1 2 0 10.742285648787837 1.994643293017737 17.936162327768148 0 0 0
4875 1 2 0 9.698802060749623 1.3584625859923531 18.20676687318086 0 0 0
342 1 2 0 11.04792691639406 0.8198065873994261 16.519116621138462 0 0 -1
593 1 2 0 11.982937893579972 1.8236201510272905 16.45422116569552 0 0 0
4877 1 2 0 9.788473551255999 1.9904147010501452 17.004478226182815 0 0 0
594 1 2 0 12.09292785472985 1.3356190917705553 17.30264846821487 0 0 0
617 1 2 0 11.690632740361028 0.5693943673619316 17.658498717220606 0 0 -1
340 1 2 0 11.622535160087079 2.375159744562637 17.29040386072951 0 0 -1
4874 1 2 0 9.633455112206416 0.4540697037476082 18.163353899934865 0 0 0
595 1 2 0 12.660107223176519 0.976489849926168 18.02637126825495 0 0 0
4910 1 2 0 13.797090689373436 1.072421105512448 16.197841976730846 0 0 0
1158 1 2 0 12.8280712329923 0.2052514728530752 15.928626494345151 0 1 -1
281 1 2 0 13.058238347404512 1.712156699463854 17.025443751873755 0 0 -1
596 1 2 0 13.525363521603582 1.1882388625546494 17.73558458890853 0 0 0
4909 1 2 0 13.137270241697895 0.6923409936261417 16.80869120901851 0 0 0
279 1 2 0 11.76655551455939 1.8541465598541622 18.21516585373409 0 0 -1
280 1 2 0 12.650255799935437 1.9560623514988547 17.884433992025247 0 0 -1
597 1 2 0 13.438516629653414 1.4885471828048924 0.05692275564263796 0 0 1
618 1 2 0 11.855537898678481 0.22578439534366965 16.774069788606468 0 0 -1
397 1 2 0 14.209040528885907 0.8339311565789447 0.04951773297139143 0 0 0
1665 1 2 0 15.313527711951501 0.6303764933462782 16.4646628638254 0 0 -1
482 1 2 0 14.583697997528237 1.851789416718206 17.24242326336495 0 0 -1
354 1 2 0 15.374515266129908 1.8166835351699666 16.47324732692166 0 0 -1
396 1 2 0 13.91165030243507 0.266517266577283 17.90076639799078 0 0 -1
356 1 2 0 15.050919180606853 1.6923555710486158 18.239986118043593 0 0 -1
1664 1 2 0 15.480337317924183 0.8033607264891639 17.44182582838979 0 0 -1
483 1 2 0 14.386660566412761 0.9486269271292281 17.10347407511955 0 0 -1
355 1 2 0 15.564820932638547 1.8853118893619703 17.398680005235683 0 0 -1
484 1 2 0 14.279036722744559 0.10805091333213568 16.67018489173002 0 0 -1
1663 1 2 0 16.289561480768604 0.741599507346073 18.055309318792375 0 0 -1
4988 1 2 0 16.56995746026283 2.2574445842098547 17.70249417085735 0 0 0
412 1 3 0 14.926397355861269 0.13209588868639086 18.230984759170255 0 0 -1
4728 1 2 0 16.02406423431357 18.458165780154285 16.39426446376449 0 -1 0
524 1 3 0 17.87428354738503 0.9983707732824111 15.736790472644481 0 0 0
522 1 3 0 0.08106575890361854 1.6039648226986745 16.276792765718525 1 0 0
4743 1 2 0 0.09398909636115284 0.7189601907533797 16.91461025808997 0 1 0
509 1 2 0 0.6654537988638516 2.3750772749629707 17.49266638301184 0 0 0
4744 1 2 0 18.375949816613247 0.21619941514062574 16.156982008515964 -1 1 0
4742 1 2 0 0.9109493145028875 1.0533307577874866 17.301743105409 0 1 0
4989 1 2 0 16.901744082717368 1.3864929844563962 17.640734960218378 0 0 0
4990 1 2 0 16.868007830041314 0.7693732513066687 16.83058855865316 0 0 0
511 1 2 0 17.828273486054304 1.1023095981154163 17.35708170504946 -1 0 0
510 1 2 0 18.543326942179384 1.788600838414962 17.253586527372953 -1 0 0
408 1 2 0 17.62362487870095 2.1318108553923634 17.664417501369307 0 0 -1
416 1 3 0 16.347412877432603 18.560217479299514 17.341365389903387 0 -1 -1
6 1 1 0 0.9379280688927407 4.171453802207766 16.457081852782697 0 0 -1
817 1 2 0 2.428671873844486 2.887520685598458 16.52811763010998 0 0 -1
141 1 2 0 1.0536288927784279 3.2410993560699053 16.445515692186266 0 0 -1
457 1 2 0 1.7759623517287666 4.316551871928966 16.94817509349137 0 0 -1
797 1 2 0 1.5819481198398233 3.549361353388589 17.47697946564147 0 0 -1
11 1 1 0 2.4825969838103097 3.408524621500311 17.30458703701862 0 0 -1
508 1 2 0 0.9045130221014227 2.9580438411131675 18.19095198740203 0 0 0
798 1 2 0 1.0552483320034243 4.316961982543968 17.591910741609524 0 0 -1
458 1 2 0 2.1638610831659273 4.352776455151324 17.86300175425483 0 0 -1
772 1 2 0 3.0352820296242564 3.685232707229955 18.032163423397638 0 0 -1
5005 1 2 0 3.456148483951521 3.0756464775938444 16.066887172818692 0 0 0
819 1 2 0 3.4523818613407378 2.8399245963211364 17.679694895081266 0 0 -1
1781 1 2 0 3.4674387949838135 2.0658007986112823 0.6502380986585224 0 0 0
5006 1 2 0 3.0952219194283304 3.9239734330386282 15.787754215151521 0 0 0
1780 1 2 0 4.027593246696263 2.2006114012629316 18.449826683981705 0 0 -1
734 1 2 0 3.5632415335984158 3.9964237985308824 0.37747020364222555 0 0 0
733 1 2 0 4.141858328355555 3.3164049138643943 0.04715348940490057 0 0 0
820 1 2 0 3.7117564119725905 3.476467088798204 17.03875296691366 0 0 -1
732 1 2 0 4.5886846009930125 3.3228265762285263 17.78343153036742 0 0 -1
821 1 2 0 3.9514935002338527 4.15214466714031 16.395347939415764 0 0 -1
822 1 2 0 4.36658407454146 4.737370238470038 17.03119099943837 0 0 -1
773 1 2 0 3.2993679026326026 4.588438110076754 17.97021301759415 0 0 -1
896 1 3 0 5.33378038269004 3.269721610560405 0.18373693498852217 0 0 1
266 1 2 0 6.822766663591706 2.903781585280988 18.055316980610268 0 0 -1
4995 1 2 0 5.828474100984515 1.9822716271370198 16.23379442800716 0 0 0
730 1 2 0 5.4377734471765375 4.067917046957083 16.270994571769275 0 0 -1
3901 1 2 0 6.953701166022316 4.454693231778597 15.9816984992935 0 0 0
225 1 2 0 5.834022713858982 2.3866538554274035 18.386261793100502 0 0 -1
731 1 2 0 5.16907519074461 3.730157063701921 17.107311456534998 0 0 -1
265 1 2 0 6.581734165727325 2.1216596716840836 17.495250684519373 0 0 -1
5176 1 3 0 5.990827808482946 3.635584456335359 17.985952604415917 0 0 0
665 1 3 0 6.949134277191866 3.7652224355731 17.403240408729637 0 0 0
664 1 3 0 6.3165418598381216 3.2513839912951403 16.859042941816732 0 0 0
5175 1 3 0 6.014973050417815 4.362593181972798 17.446489789095352 0 0 0
224 1 2 0 5.444453972474342 2.748517086295237 17.59061779922253 0 0 -1
569 1 2 0 8.065940621634002 4.557763571792952 0.4076268958125609 0 0 0
663 1 3 0 7.211512453623695 3.525677328270991 16.364776483450946 0 0 0
662 1 3 0 7.194417954707414 2.6526057583861298 15.80630946558647 0 0 0
666 1 3 0 7.644863490633528 4.346818062021584 17.173504794491485 0 0 0
2019 1 2 0 7.289234096027464 4.10401746205492 18.308898975111035 0 0 -1
264 1 2 0 7.554629446850846 2.2711320305066693 17.712470246998944 0 0 -1
639 1 2 0 7.558089320487413 2.3646933104415733 16.625957127851606 0 0 0
587 1 2 0 8.256750137278745 4.548846589252219 16.350260626381942 0 0 0
588 1 2 0 8.60382158985509 3.580404668738998 16.31513804962478 0 0 0
638 1 2 0 7.874175788086214 3.1647757737287043 17.152528998542035 0 0 0
2020 1 2 0 7.914361393936576 3.365126630634976 18.25554234916543 0 0 -1
637 1 2 0 8.723811431950473 3.4450927640553686 17.371799080100935 0 0 0
636 1 2 0 9.060619031265828 4.3105433202832595 17.24772907932659 0 0 0
589 1 2 0 8.707440755524427 2.562469658246765 16.326061340441612 0 0 0
2024 1 2 0 11.066672484185966 2.5061436628437543 0.21965880017415187 0 0 0
4836 1 2 0 10.014684481447576 4.324127584232309 16.665042699263523 0 0 0
2022 1 2 0 9.443887319881759 2.427837524059613 18.062517807709717 0 0 -1
4838 1 2 0 10.449125387702342 2.76819505233374 17.39734613733389 0 0 0
4837 1 2 0 10.551014998373988 3.5730126030891523 16.912792629839426 0 0 0
604 1 2 0 9.764544662598754 3.4854932873551743 17.93073467563272 0 0 0
2023 1 2 0 10.189339218875585 2.7752321820930748 18.504561004223387 0 0 -1
605 1 2 0 9.63107602808472 3.1678875500375234 17.01212919414111 0 0 0
657 1 3 0 10.641276108994552 4.432254685846148 17.512175162882155 0 0 0
658 1 3 0 11.113870708230314 4.5377535454858275 16.69869581885878 0 0 0
2026 1 2 0 12.853763675675035 3.1353937201935307 0.6476941464981077 0 0 0
337 1 2 0 12.393150655940218 4.468691508176696 16.167626371742077 0 0 -1
916 1 2 0 13.515448415707699 2.6182169902357026 17.175656479339754 0 0 -1
338 1 2 0 12.09154333097789 3.9472773392276275 16.952214036779413 0 0 -1
4881 1 2 0 12.92631096628916 3.5069324677721396 16.206673384668093 0 0 0
2025 1 2 0 12.022930244126325 2.7492933823418344 0.3550870728683194 0 0 0
598 1 2 0 12.85822232377485 2.157022517234743 0.4361636951087815 0 0 1
339 1 2 0 11.497690019709694 3.327007499821551 17.341553554015604 0 0 -1
631 1 3 0 12.642228033285672 3.463449238990024 18.02730018669201 0 0 -1
14 1 1 0 13.852710345992271 3.3709048767706835 17.50863604661413 0 0 -1
660 1 3 0 12.105859559206362 4.393453005536673 18.017836436516887 0 0 0
2062 1 2 0 14.270031126902891 3.899271429314322 18.331715679369253 0 0 -1
4882 1 2 0 13.846273199141 3.261297678279109 16.29003302178198 0 0 0
1940 1 2 0 15.229136059684949 3.967992350884914 0.4738518739619045 0 0 0
967 1 2 0 14.11137340743524 4.296265896965642 17.25851488887915 0 0 -1
481 1 2 0 15.024395504968878 2.7339956682056 17.15976586243469 0 0 -1
771 1 2 0 14.068520669819062 2.892062845549488 18.323529420256637 0 0 -1
2063 1 2 0 15.003692057678407 3.601776728035023 17.749640802704167 0 0 -1
480 1 2 0 15.850563896223433 3.18109354846808 17.20974760936099 0 0 -1
672 1 2 0 15.053150665023875 3.871639861506484 16.67089226270565 0 0 -1
4985 1 2 0 16.04758738640863 4.086256868585597 16.691422860563783 0 0 0
4986 1 2 0 16.104140356992904 3.9990017273240555 17.69664036714187 0 0 0
4987 1 2 0 16.643944235961914 3.2151937109628688 17.924402421764352 0 0 0
4718 1 2 0 17.927061481626392 4.526202538670526 16.39890533030421 0 0 0
410 1 2 0 16.672784605663537 2.6136379406259236 16.160613922757214 0 0 -1
407 1 2 0 18.041897383562873 1.4670099415009556 18.217166198529142 0 0 -1
409 1 2 0 17.208305799104988 2.2709376190078245 16.824184441209567 0 0 -1
477 1 2 0 0.07802313992176688 3.791393107550201 16.486878715851244 1 0 -1
4717 1 2 0 17.089958202400506 4.317620276563606 16.75593688937379 0 0 0
478 1 2 0 17.806753577110072 3.6232275793269357 16.888078601949076 0 0 -1
479 1 2 0 16.825013406986777 3.398458523633183 16.945520610774757 0 0 -1
4716 1 2 0 17.22862776497926 4.141914289914683 17.690711838741954 0 0 0
5078 1 2 0 18.4205219524945 2.854388615873363 17.080406597787633 0 0 0
5077 1 2 0 0.24395008110502125 3.5371222005938954 17.589225851955874 1 0 0
4715 1 2 0 17.829402588658873 3.574526108400315 18.14767445995424 0 0 0
5076 1 2 0 18.521754414815597 4.515988611075227 17.474225987462773 0 0 0
5113 1 2 0 2.0606601723203655 5.251203960780911 16.42439811636335 0 0 0
754 1 2 0 0.11189121383783307 6.101818318084507 16.301265117617756 1 0 -1
505 1 2 0 0.2996487286107252 5.280060255191007 18.12084108658271 0 0 0
5114 1 2 0 2.236442247869039 5.354376738484541 17.35519118896232 0 0 0
799 1 2 0 0.885774163366695 5.143330137669331 17.147416977811474 0 0 -1
800 1 2 0 1.0071054022177643 6.103507303253066 16.951279964489302 0 0 -1
5115 1 2 0 1.550806801559249 5.819259335423556 17.95953993249833 0 0 0
5116 1 2 0 2.210914031285042 6.453559241875713 18.216211022301522 0 0 0
1061 1 2 0 0.22303697608975517 6.96616768505172 17.372324680305876 1 0 -1
504 1 2 0 0.09858430120219656 5.919945757489762 17.451668116775902 0 0 0
735 1 2 0 3.0152937313477253 4.737157465977552 0.5529455338986764 0 0 0
5279 1 2 0 2.5986055794661476 6.36544625868467 17.04193266086773 0 0 0
801 1 2 0 1.084443348317203 7.014164749428269 16.639968654725344 0 0 -1
5008 1 2 0 3.209870231263651 5.083568951970197 17.006027234182454 0 0 0
5007 1 2 0 2.834635099086883 4.234695593568133 16.658533496203745 0 0 0
881 1 2 0 4.901828223325181 6.628033382765219 16.552177828433237 0 0 0
823 1 2 0 4.353061519858969 4.65053586249407 18.01816724124355 0 0 -1
5010 1 2 0 3.656460904146386 6.489859971258629 16.76291945578669 0 0 0
5280 1 2 0 3.2207469576800083 6.0757989781791375 17.70631647101865 0 0 0
792 1 3 0 5.049037411018208 6.694504989792197 0.10659194021164727 0 0 0
774 1 2 0 3.6745767734201267 5.369524065999202 18.36606721063385 0 0 -1
775 1 2 0 4.238744913779017 6.162307308041392 18.484411725576127 0 0 -1
776 1 2 0 4.307106431838017 6.834121837049889 17.782827534321008 0 0 -1
880 1 2 0 4.511921371829659 5.748299711054493 16.555100120464953 0 0 0
5011 1 2 0 3.372086554565638 7.191615667019725 17.28230451596191 0 0 0
878 1 2 0 4.989000700972141 5.655084585093578 18.044663494320147 0 0 0
5164 1 2 0 6.34679307108781 5.409439630813713 16.63141904081978 0 0 0
5174 1 3 0 5.867361174646349 5.288532909885512 17.752074179427012 0 0 0
5173 1 3 0 6.0104358049562565 6.215459446238801 18.0491168146963 0 0 0
5172 1 3 0 5.611166816689798 6.175177973869117 17.163010133007973 0 0 0
879 1 2 0 4.2173953427681985 5.798460315937015 17.46598862947926 0 0 0
5165 1 2 0 6.594154804271022 6.286533078974803 16.97691899506289 0 0 0
3900 1 2 0 7.434413964744088 5.185225041435496 16.44513776683198 0 0 0
2016 1 2 0 7.357375262011321 6.473358861837619 18.555953266159072 0 0 -1
5150 1 2 0 5.800092194672804 7.28593791630984 16.761667716981137 0 0 0
1881 1 2 0 9.529620987096328 5.860040288849183 0.4968483405878699 0 0 0
1882 1 2 0 9.1086504541567 5.001030620352813 0.2085542792742361 0 0 0
2018 1 2 0 6.957791555988833 4.898049675303966 17.799587493223612 0 0 -1
5166 1 2 0 7.425961786338577 6.465455021226882 17.493014362650026 0 0 0
567 1 2 0 8.8092154079477 5.284648176326116 17.701649074801917 0 0 -1
2017 1 2 0 7.440402823876698 5.5937076390292555 18.199151844237115 0 0 -1
563 1 2 0 9.010438361251081 6.53816047552778 18.139536426170018 0 0 -1
3899 1 2 0 7.895422189897078 5.439008818935249 17.198240255686393 0 0 0
568 1 2 0 8.2037246259496 4.624387996933341 18.006536614365114 0 0 -1
564 1 2 0 9.582131027037006 7.289379179277554 18.000656888356 0 0 -1
7 1 1 0 8.92222836476845 5.2706943457848485 16.62908637937819 0 0 -1
3898 1 2 0 8.544311966650604 6.126100391284758 17.048578527216947 0 0 0
952 1 2 0 10.523780187172706 4.705082388447187 0.8173078355456225 0 0 1
634 1 2 0 10.043512407560739 4.300444122707529 0.03253504879667801 0 0 1
635 1 2 0 9.733763486400695 4.5905370487615125 17.78694013360819 0 0 0
530 1 2 0 11.443206044334419 4.6267588924351495 0.17683588009409498 0 0 0
1880 1 2 0 10.153427216628197 6.655048751211819 0.284177392236644 0 0 0
953 1 2 0 10.42515953822129 5.359703556708261 0.04694170658683022 0 0 1
527 1 2 0 9.751712106715198 5.424468113201257 16.998437656616073 0 0 -1
528 1 2 0 10.67250837903552 5.5165100371375395 17.3490490333119 0 0 -1
529 1 2 0 11.274951753310338 5.386291812626532 18.116782988067293 0 0 -1
954 1 2 0 9.978689923849505 5.988343726707554 18.027967806836184 0 0 0
5024 1 2 0 11.181823297607698 6.466672266328495 17.121963034207887 0 0 0
5025 1 2 0 11.343952376525129 6.816339027251238 18.01295958211732 0 0 0
2110 1 3 0 11.842964193710342 7.2025824123057935 0.27384521392715366 0 0 0
629 1 3 0 13.093540544505608 4.193338731104306 17.204161844992413 0 0 -1
630 1 3 0 13.179700501466662 4.208533739482842 18.124660191636682 0 0 -1
659 1 3 0 11.858860871131077 4.853443560863415 17.20924180782726 0 0 0
661 1 3 0 12.524325795906709 4.9814421570922125 0.02331701145608278 0 0 1
5266 1 2 0 13.778506706765043 5.595501126227405 18.557613831400996 0 0 0
5267 1 2 0 13.313235963659508 5.201646758893757 17.7827847431178 0 0 0
905 1 2 0 13.607769107152825 6.214915685050474 17.0041177187197 0 0 -1
906 1 2 0 12.951379041188714 6.17381297458979 16.367031796979223 0 0 -1
904 1 2 0 13.405428951119982 6.494960890055506 17.902720073563742 0 0 -1
5268 1 2 0 12.590088427917618 5.774549680207325 17.487510446621904 0 0 0
5269 1 2 0 12.440215519205326 6.729177765540393 17.162296025749164 0 0 0
1941 1 2 0 15.883632368119656 4.638199577488957 0.12042615571396507 0 0 0
673 1 2 0 15.17461972116896 4.6022869115316025 17.18747428371112 0 0 -1
674 1 2 0 15.340936895070987 5.147495872290627 17.992886363289795 0 0 -1
968 1 2 0 14.071534484023873 5.1942225304739855 16.9752235056583 0 0 -1
5265 1 2 0 14.341714650722912 5.783473586982913 17.81565091828998 0 0 0
970 1 2 0 15.064291561703374 6.5312742665295564 16.860567437899284 0 0 -1
5072 1 2 0 15.946653860276305 6.899654961207938 16.44359395385724 0 0 0
969 1 2 0 14.87292530747308 5.561447773420967 16.608358487894417 0 0 -1
5264 1 2 0 15.219105443100462 6.3010420195629955 17.948689324429722 0 0 0
751 1 3 0 16.412585194034563 6.4498460342449455 18.388304522469294 0 0 -1
5073 1 2 0 16.453723026980004 6.452166188591767 17.206735569132373 0 0 0
707 1 2 0 16.010999776472975 5.718388806014265 16.60197300905455 -1 0 -1
708 1 2 0 16.258169652659504 4.916843358771943 17.115015083421827 -1 0 -1
748 1 3 0 17.87408746673598 4.71634767477878 18.560832299264536 0 0 -1
706 1 2 0 16.740999010264442 5.38592076667491 15.995950860293602 -1 0 -1
5075 1 2 0 17.688433629452252 5.028662790313112 17.422886464144042 0 0 0
755 1 2 0 17.694371611653402 6.118104319293844 16.234771066693487 0 0 -1
750 1 3 0 17.270031156098394 6.356095539612721 17.938212863913492 0 0 -1
1062 1 2 0 18.3352768693498 6.635263318351506 18.155156165920847 0 0 -1
749 1 3 0 17.892545740953057 5.648716015550918 18.362186216853097 0 0 -1
503 1 2 0 17.932343355232035 6.296994487754988 17.164555109691264 -1 0 0
5074 1 2 0 17.07692091150196 5.730434699512058 17.039897318078765 0 0 0
502 1 2 0 18.116729475171763 7.046968054888028 16.55290671422615 -1 0 0
756 1 2 0 17.121697686408947 6.832331409272663 16.46639161648682 0 0 -1
802 1 2 0 1.6294932521582186 7.741670292732486 16.634056306666835 0 0 -1
5257 1 2 0 0.40071811546704283 8.686811978295832 16.081728286162218 1 0 0
1060 1 2 0 0.31449645794112735 7.700400307980415 16.71022565665743 1 0 -1
5258 1 2 0 0.3382253451855552 8.70861019117887 16.995939544927246 1 0 0
1023 1 2 0 0.9216302107470821 7.523054966148792 17.919206672392963 0 0 -1
1022 1 2 0 1.8275646911655188 7.399642170065398 17.567820446022385 0 0 -1
4144 1 2 0 1.6207751505234156 8.683194400619403 17.84210649976651 0 0 0
4143 1 2 0 1.7749329256296054 8.70976749500186 16.952722408737454 0 0 0
1021 1 2 0 2.5477021424251687 8.133732793744999 17.571002891703817 0 0 -1
5148 1 2 0 4.684863136964543 7.595555690256523 18.26893802301182 0 0 0
2295 1 3 0 4.4304751359265415 9.264524930892675 18.196841378210223 0 0 -1
2294 1 3 0 3.505056046173718 9.229108594254004 18.055039638059544 0 0 -1
4142 1 2 0 2.571738173214108 8.643837820883476 16.4136969978368 0 0 0
1019 1 2 0 2.996141867015877 7.897821674780131 0.638167051512408 0 0 0
108 1 1 0 2.876964766166218 7.136253815164318 18.12565717335379 0 0 0
778 1 2 0 4.022837811668789 8.429319918402568 17.607785626836925 0 0 -1
5147 1 2 0 3.685189795972609 7.473100955972793 18.418614553077003 0 0 0
1020 1 2 0 3.07769664561046 8.276565216048544 18.34675252718091 0 0 -1
777 1 2 0 4.4492973042475406 7.655084676475537 17.217703885517714 0 0 -1
779 1 2 0 3.641204644840493 8.931196110660089 16.84440576905873 0 0 -1
806 1 2 0 4.7272428087083105 8.517834582267243 16.757840116191506 0 0 -1
807 1 2 0 5.134872346023986 9.050234774193697 17.41856290440977 0 0 -1
886 1 2 0 5.444582345479368 7.843452598621588 16.036563914879675 0 0 0
5151 1 2 0 5.857824389343922 6.94364141220208 15.852189219853798 0 0 0
5149 1 2 0 5.42712712904145 7.492065660779357 17.613555122188977 0 0 0
887 1 2 0 5.727864103926955 8.296928406481568 16.8887585103721 0 0 0
552 1 2 0 5.5765982134025665 8.210334469033944 18.514160223959845 0 0 -1
551 1 2 0 6.313720079483517 7.850449611498189 17.972112749458585 0 0 -1
888 1 2 0 6.653037357639923 8.196835986429841 17.032697198344174 0 0 0
550 1 2 0 6.903806223211779 7.331573989311132 17.43791189023496 0 0 -1
808 1 2 0 5.672950345631369 9.53262008198327 18.004381793492048 0 0 -1
1174 1 2 0 9.031217277901836 7.88251034653831 18.531093375801003 0 0 0
549 1 2 0 7.166402407657154 7.056430801607484 16.558688807502993 0 0 -1
1368 1 2 0 6.912669981798365 9.105239882731928 17.55470978050382 0 0 -1
891 1 2 0 7.8056618792201915 7.901327889471214 17.13930803763916 0 0 0
956 1 2 0 9.209556635224578 7.363928715470567 17.039444055896258 0 0 0
5031 1 2 0 7.985320540328604 7.535105747009621 18.045230543290778 0 0 0
109 1 1 0 8.173413272991628 7.0539653516488725 17.26378126528917 0 0 0
890 1 2 0 7.577636562863776 8.035291978194739 16.191535571678205 0 0 0
1173 1 2 0 8.787796922207072 8.215980768525457 17.680308534528855 0 0 0
5290 1 2 0 9.323743100000689 9.767042765991256 18.01214306369897 0 0 0
1172 1 2 0 8.187057940406568 8.966327943353932 17.391719287328797 0 0 0
955 1 2 0 9.841317968518714 6.603481994054521 17.320181323203986 0 0 0
565 1 2 0 10.033576440209044 8.14482313621514 17.8332712621412 0 0 -1
114 1 1 0 9.166216730948157 9.154633612626908 16.296163223287238 0 0 0
5291 1 2 0 9.377513652660419 9.11200156233134 17.25142141909084 0 0 0
1197 1 3 0 11.710870141530604 8.18414140769916 18.433460885877142 0 0 0
1199 1 3 0 10.5539074273658 7.541946069039267 17.22348782111788 0 0 0
1198 1 3 0 11.214990988215085 8.104344577465847 17.631341617213106 0 0 0
566 1 2 0 9.612204371163816 8.642828395120139 18.57041945292197 0 0 -1
1238 1 2 0 12.147196886346926 8.80427813801684 17.612123182279035 0 0 0
5441 1 3 0 11.20053903917738 9.285739140061278 18.04400139721782 0 0 0
1239 1 2 0 11.66612922554184 9.058927672428927 16.81594420340516 0 0 0
2111 1 3 0 12.327340693950426 6.629776476803075 18.291730974328452 0 0 -1
1235 1 2 0 14.141599651403718 7.195178837192555 17.404587841578213 0 0 0
5270 1 2 0 11.853361767092846 7.493898446601816 16.928381734362084 0 0 0
4058 1 2 0 14.250876076033695 8.675530010766218 15.998518839395905 0 0 0
5271 1 2 0 12.289264158884563 8.31933456254734 16.588333641135183 0 0 0
944 1 3 0 13.020113997701367 7.514655503718635 16.63448153039864 0 0 0
1237 1 2 0 12.63616745734492 7.996139399458074 17.66511911925748 0 0 0
1236 1 2 0 13.436850073926502 7.50259844816566 17.911010090240026 0 0 0
933 1 2 0 12.863314754103415 8.637266125712246 18.493773069842966 0 0 -1
942 1 3 0 13.540503050803133 8.529371476749768 17.874182814072345 0 0 0
943 1 3 0 13.617144631809124 8.161508192490356 16.968567851421103 0 0 0
1181 1 2 0 13.845487698798463 8.390835970035903 0.4763288692804011 0 0 1
932 1 2 0 12.223176269791859 9.325916317577457 0.04457227664147112 0 0 0
116 1 1 0 12.895164381069458 8.98869450184102 16.898581292097933 0 0 0
5263 1 2 0 15.619632997612351 7.180938069891627 18.22090673421832 0 0 0
971 1 2 0 15.324633446132056 7.403728503160519 17.264394474666233 0 0 -1
1182 1 2 0 14.47500754468778 8.116306239201604 18.32099203744942 0 0 0
1184 1 2 0 14.64729098905522 7.863868310485112 16.436658745330682 0 0 0
1183 1 2 0 14.622715551957656 8.253578872642167 17.38601269255879 0 0 0
972 1 2 0 15.587278853341173 7.974408458067525 16.53433006943442 0 0 -1
1055 1 2 0 15.095960530011642 9.147311765939037 16.62151688950069 0 0 -1
1054 1 2 0 14.928410102705104 9.424424964448823 17.549748994100195 0 0 -1
1027 1 2 0 16.06814182889887 7.94722086093839 17.732509970057393 -1 0 -1
5260 1 2 0 17.601854290554602 8.002712820165932 18.200343077002152 0 0 0
1058 1 2 0 17.33903583876321 7.91209753247705 15.808893502045654 0 0 -1
1059 1 2 0 18.253613319245975 7.902317081783152 15.980486307951557 0 0 -1
973 1 2 0 16.038956444884754 8.663950715287912 16.98746369729358 0 0 -1
1025 1 2 0 17.747608059499985 7.247551532926344 17.69623243630919 -1 0 -1
1026 1 2 0 16.80862687368876 7.280578001606581 17.870306712640748 -1 0 -1
1024 1 2 0 18.55255922505928 7.674264329897168 18.08587954968855 -1 0 -1
518 1 3 0 17.589545737578614 8.807992082125615 16.61350771254324 0 0 0
5259 1 2 0 18.136870617933603 8.558098539695441 17.63392790642897 0 0 0
517 1 3 0 17.743725859758705 7.874808208335902 16.81489535463374 0 0 0
757 1 2 0 16.653954975218248 7.595066407821651 16.8827514023073 0 0 -1
758 1 2 0 17.01708735043103 8.272566207802875 17.356274970768713 0 0 -1
759 1 2 0 17.13719526240425 8.917986678742805 18.07917274515369 0 0 -1
519 1 3 0 17.064380204292306 9.520343317745075 16.22480390841831 0 0 0
256 1 2 0 1.7125425040656548 11.004143317363924 18.1928208735582 0 0 -1
723 1 3 0 1.3351516926441134 10.077847591895503 18.088751751548646 0 0 0
4967 1 3 0 1.3783635360995579 9.211889382394244 16.058738364728363 0 0 0
1000 1 2 0 0.05299179297261247 10.470115156296064 15.483117395578178 0 0 -1
1013 1 3 0 0.2096771263277962 10.772678495753494 17.14658420396625 1 0 -1
724 1 3 0 0.9965447022271461 9.741509283141493 17.258308021235305 0 0 0
255 1 2 0 2.5075944686862126 10.61787380873078 17.739632900956163 0 0 -1
1014 1 3 0 0.05848430498250383 10.64273441501119 18.02366460171186 1 0 -1
4968 1 3 0 0.7528251743911386 9.9955486684243 16.167728694775693 0 0 0
1012 1 3 0 0.5600515481130907 11.374685249206737 16.51703388724913 1 0 -1
1015 1 3 0 0.5639050575049812 11.475257974379781 18.031938714175656 1 0 -1
2293 1 3 0 3.913465480015748 9.624734790123732 0.3013318566138384 0 0 0
725 1 3 0 1.8595519188669427 9.723977228707692 16.81330797620635 0 0 0
988 1 2 0 2.3785345197525127 11.443581074556167 0.21168090374863255 0 0 0
4969 1 3 0 1.3624851711580752 10.648932635014404 16.518072947019988 0 0 0
780 1 2 0 3.469695569475216 9.838350105963418 16.659998894819083 0 0 -1
252 1 2 0 4.551445886224345 11.441941748921595 16.414190400033135 0 0 -1
253 1 2 0 4.273561460241677 10.869398483138072 17.096942110017714 0 0 -1
254 1 2 0 3.394727279978647 10.592186901698474 17.399326508600396 0 0 -1
5329 1 2 0 3.5581013251814686 11.136116290635185 18.34841192936655 0 0 0
5328 1 2 0 3.9200414389400313 11.689956455518995 17.6126864483436 0 0 0
1106 1 2 0 4.756858697378222 11.229550508380965 18.014620150524408 0 0 0
4970 1 3 0 1.9954153895514783 11.285121669491541 16.82278045050388 0 0 0
786 1 2 0 6.670953842687082 12.060835894802247 0.36546127463516237 0 0 0
787 1 2 0 7.448267957725516 11.620208885579432 0.1569931434710803 0 0 0
1107 1 2 0 4.665036421757919 10.270508901886162 17.95090722677596 0 0 0
783 1 2 0 5.303245743934986 10.411771539024397 17.131458999402113 0 0 -1
5326 1 2 0 5.429300113501075 11.411731326521828 16.94895950306172 0 0 0
1105 1 2 0 4.385875409690285 11.965245186250865 18.49924718877269 0 0 0
784 1 2 0 5.731656701514956 10.830846631423496 17.87841658467239 0 0 -1
785 1 2 0 6.0304833590886515 11.400712687360274 0.04953006982481867 0 0 0
22 1 1 0 6.143025617050988 9.856470238685713 16.912262039468228 0 0 -1
5314 1 2 0 6.60042399864866 11.179442874308913 17.439243734669205 0 0 0
1338 1 2 0 6.732240531761992 11.540698461437753 16.520674576975196 0 0 0
5327 1 2 0 4.695418208561632 11.943232730877268 17.17560778980227 0 0 0
1367 1 2 0 6.666045695862735 9.999260001937401 17.77863387342348 0 0 -1
4675 1 2 0 8.676015863476621 11.416994404083367 16.15499017785481 0 0 0
5289 1 2 0 8.65348866593366 9.109748044585691 18.30243413614806 0 0 0
1170 1 2 0 8.598773936827032 10.35117688560651 18.406046253623426 0 0 0
5313 1 2 0 7.373364367120143 10.740772548167724 17.1343922536556 0 0 0
1119 1 2 0 7.538328689950831 10.740590263575335 18.20888479804748 0 0 -1
1346 1 2 0 8.591927641532957 10.899132153662297 16.969274973632338 0 0 0
1171 1 2 0 8.231210024919637 9.98357532108561 17.560341375111754 0 0 0
1192 1 3 0 8.634212149839321 9.858631446080633 16.73314623673985 0 0 0
1347 1 2 0 9.3522641387783 10.650624361462501 17.49331122192693 0 0 0
1118 1 2 0 8.290519563568141 11.24261128256615 17.870512310819603 0 0 -1
1117 1 2 0 8.76493133457422 11.849932866276506 17.302311233038214 0 0 -1
1241 1 2 0 11.951066126094089 10.313840517055809 16.56775704173061 0 0 0
5439 1 3 0 10.254039067570703 9.776497937042437 17.60673786950618 0 0 0
5438 1 3 0 11.163327149737306 10.087198013209028 17.274858331584184 0 0 0
5437 1 3 0 10.995266014587376 11.00229534544321 17.43564880188106 0 0 0
5317 1 2 0 9.939581084299421 9.710970607993202 16.614478335697868 0 0 0
5318 1 2 0 10.179161879384893 10.614506546996038 16.702042480153164 0 0 0
1240 1 2 0 11.259986740314307 9.749540028925722 16.205271210822662 0 0 0
1249 1 2 0 11.136291132816202 10.420053157360382 18.261818962327663 0 0 0
1348 1 2 0 9.660382750739258 11.503645985906909 17.881526251046225 0 0 0
5319 1 2 0 9.702015673359284 11.458788891399317 16.655929953524023 0 0 0
1253 1 3 0 12.892823211783414 9.796412331800987 16.146554619073193 0 0 0
4480 1 2 0 13.908353730707727 9.995919280698907 16.627322140475204 0 0 0
1242 1 2 0 11.848656695159036 11.192513175877288 16.9323873169989 0 0 0
1254 1 3 0 13.149574272189227 10.714610973312977 16.324937700214015 0 0 0
1255 1 3 0 13.521622002064568 10.932053780034792 17.154371720535075 0 0 0
4481 1 2 0 13.735549977824958 9.335197210455863 17.29138371905161 0 0 0
1251 1 2 0 12.551645393580054 9.84585462657388 17.173338774227616 0 0 0
1250 1 2 0 11.92340218270876 10.237533977352712 17.793136717821547 0 0 0
1029 1 2 0 15.751760932367544 9.827082502684467 17.924151319308645 -1 0 -1
1227 1 3 0 13.700279171495522 11.51319037962461 0.4496205557935388 0 0 1
4479 1 2 0 14.725741586540948 10.106536526409322 16.105162144579296 0 0 0
4477 1 2 0 15.816614122979729 10.877249065329293 16.11514292979202 0 0 0
1030 1 2 0 15.197427256793318 10.552363337131267 18.108147059993424 -1 0 -1
1214 1 2 0 14.177011262091614 11.282094171888634 18.230364741484355 0 0 -1
1312 1 3 0 16.425038367681946 12.09104897207926 15.630723353428927 0 0 -1
975 1 2 0 16.348314984745357 10.447552630439835 17.29288278246742 0 0 -1
976 1 2 0 16.17763870237135 10.888437843311952 18.101600437137147 0 0 -1
1213 1 2 0 14.822488738503724 11.43086794403834 17.49881536279294 0 0 -1
2213 1 2 0 17.220892181573532 11.488595863715174 18.448348158326564 0 0 -1
1096 1 2 0 17.505135578072565 9.848823095912774 0.0592022594917128 -1 0 1
974 1 2 0 16.03314846044188 9.598893569503382 16.853066520904797 0 0 -1
1009 1 3 0 18.20419822056979 9.667133126450336 17.910999462878593 0 0 -1
1010 1 3 0 0.472427012173496 9.256762094034997 18.020184553503125 1 0 -1
1316 1 3 0 17.329694905301686 10.329914653559422 16.842279445863536 0 0 -1
1008 1 3 0 18.049973052769733 9.606654176886638 16.98488205921476 0 0 -1
1097 1 2 0 17.44558265891708 10.437905530749367 17.87238851485047 -1 0 0
1098 1 2 0 17.90423787375787 11.180567704387892 17.50846620503197 -1 0 0
257 1 2 0 1.4503642344973955 11.853306171018664 18.40379904666328 0 0 -1
259 1 2 0 1.68305519269778 13.651979540612825 0.04023768987344669 0 0 0
5367 1 2 0 1.2773641197700913 12.204670520045758 16.438946717659626 0 0 0
1001 1 2 0 0.05398531813982142 11.452656329335987 15.682855061036106 0 0 -1
1002 1 2 0 0.044467773704797084 12.279984030200842 16.14967932213362 0 0 -1
1003 1 2 0 0.42201324270677243 12.99965918966951 16.659094804591582 0 0 -1
1101 1 2 0 1.4477749057013187 12.7905673442221 17.971623081778088 0 0 0
5366 1 2 0 1.52917674892225 13.103549530163168 16.709574293263966 0 0 0
5365 1 2 0 1.3276711357420874 13.65627077873823 17.51466396508018 0 0 0
1100 1 2 0 0.6082584878821666 12.42955935017622 17.49873945061873 0 0 0
5364 1 2 0 0.3598505218581512 13.681741105150303 17.55283858278981 0 0 0
989 1 2 0 2.6323460771888696 11.722013568253471 17.87211193833757 0 0 -1
1099 1 2 0 18.465989567583954 11.879970546473762 17.078221458359202 -1 0 0
5382 1 3 0 2.3956673732921976 13.25533283862918 17.120419283005425 0 0 0
1332 1 2 0 3.2556540855197422 12.86366241739731 17.66438108704655 0 0 -1
5380 1 2 0 3.4160252520007908 12.159276192368864 16.702913210615876 0 0 0
320 1 2 0 2.8873319582705728 13.449765045119694 16.205271802450813 0 0 -1
1102 1 2 0 2.396452779729734 12.780816296860197 18.190950246073836 0 0 0
990 1 2 0 2.3241138410293845 12.224222533530737 17.06500381535852 0 0 -1
5383 1 3 0 2.412109579685117 13.833107775855845 17.82502930712222 0 0 0
1103 1 2 0 2.747943290802107 12.419474859511146 0.418303152582187 0 0 1
1331 1 2 0 3.668404887108684 13.268468401278811 16.87411294985191 0 0 -1
5381 1 2 0 4.253688199522381 12.54685967147646 16.44491416087005 0 0 0
4971 1 3 0 1.2312070570479228 11.35547273673534 17.344140343543927 0 0 0
5394 1 2 0 5.74651463664225 13.477224539973196 18.392286755411558 0 0 0
5393 1 2 0 6.490097789827985 12.990850922385443 0.018317636195835263 0 0 1
5396 1 2 0 4.889726738680534 12.79233770974166 17.968978077463905 0 0 0
4811 1 2 0 4.9589402941125025 13.695962117206513 16.380705848859346 0 0 0
118 1 1 0 5.244407171419313 12.78737643506714 16.52034427261699 0 0 0
5397 1 2 0 4.567644408735163 13.340064239075414 17.30057848771195 0 0 0
1081 1 2 0 6.210645941287245 13.559143488708692 16.433168951697596 0 0 -1
5315 1 2 0 6.391347229553916 12.043849619993262 17.72915027631395 0 0 0
3545 1 2 0 6.26691226602989 13.156563442254532 17.54937257087101 0 -1 0
5395 1 2 0 4.8682574932875875 13.382272641844509 0.11594905330959815 0 0 1
5316 1 2 0 5.650809828595723 12.525293927132576 17.337672973309047 0 0 0
3546 1 2 0 5.519875451510533 13.594961236006064 17.27393432096168 0 -1 0
1339 1 2 0 7.022012205715243 12.205396767864466 15.953929193115878 0 0 0
4678 1 2 0 8.113511941691849 12.47342913130636 18.234078171752586 0 0 0
1115 1 2 0 7.786744084306876 13.13022881124246 16.244450932832617 0 0 -1
1116 1 2 0 8.315072644132684 12.576203055556155 16.87429444110272 0 0 -1
4676 1 2 0 7.8690712487154695 11.754378235628684 16.552725559145806 0 0 0
4677 1 2 0 7.721022496910491 11.973483298850802 17.5145672665623 0 0 0
1357 1 3 0 6.97072053733611 12.767309341688438 16.778316777518743 0 0 -1
1350 1 2 0 8.976896995623338 13.058492666153699 18.09980964471701 0 0 0
3544 1 2 0 7.207199159106794 12.966080687253896 17.739787466618218 0 -1 0
3543 1 2 0 8.005995834635508 13.371516949019993 17.401193605708418 0 -1 0
1358 1 3 0 7.16096055637441 13.698367035764582 16.811830912246243 0 0 -1
1349 1 2 0 9.60465608773783 12.459748769945142 17.758534000660468 0 0 0
1351 1 2 0 8.687463110690306 13.99220247669896 17.99837796006697 0 0 0
5411 1 2 0 10.50078155090422 14.25330953103855 18.539975845900724 0 0 0
5420 1 2 0 10.312138349981161 12.293537815942823 16.57409385471636 0 0 0
1261 1 3 0 9.795339509248151 13.249338498764336 16.607626152519494 0 0 0
1248 1 2 0 10.772299222908705 11.23095155352476 0.021305155707267428 0 0 1
3542 1 2 0 8.810072319797822 13.550407087337227 16.82087081156253 0 -1 0
1247 1 2 0 10.561553424589853 12.064176723980307 18.21982903376797 0 0 0
5419 1 2 0 10.971481390219843 11.95350289452881 17.211049821572747 0 0 0
5320 1 2 0 9.324056734637841 12.26226130928912 16.33282645112381 0 0 0
1245 1 2 0 10.851652940044895 13.1649428042203 16.782675314414195 0 0 0
1246 1 2 0 10.59210201159295 12.895566006635788 17.7061526663819 0 0 0
1243 1 2 0 11.827322710912597 12.09693224063609 16.51313435027525 0 0 0
4660 1 3 0 12.695384178224938 12.960602163885975 16.061395737601803 0 0 0
4661 1 3 0 13.226944281280623 12.426968781874775 16.656052759374127 0 0 0
5417 1 2 0 11.476779924520633 12.54751040119976 18.520769376662383 0 0 0
4686 1 3 0 12.613026275522266 13.073540240294383 18.04723721947643 0 0 0
5418 1 2 0 11.729039218388202 11.959469594429565 17.81313097614802 0 0 0
424 1 2 0 13.687067162195216 13.51428364322358 17.240407531220022 0 -1 -1
1297 1 2 0 13.580175804571693 12.432422865488334 17.92990604824693 0 0 -1
4659 1 3 0 12.343801987213688 12.972364638130971 16.996128196979136 0 0 0
1299 1 2 0 15.080734877499232 12.393189636602091 16.760633578451266 0 0 -1
1212 1 2 0 15.662227488056857 11.89592336091041 17.589029223188803 0 0 -1
1298 1 2 0 14.266567313382193 12.431136055163947 17.252785033964194 0 0 -1
1032 1 2 0 14.935439587009883 12.40724907617438 18.336844850710456 -1 0 -1
1720 1 2 0 15.522779377594121 13.12397214876039 17.687958523427422 0 -1 -1
1300 1 2 0 15.978402831267024 12.19811279818105 16.5023750691565 0 0 -1
1211 1 2 0 16.343461096939013 12.567477457957574 17.522297430529527 0 0 -1
1273 1 2 0 16.435445263448347 13.569119690858484 16.64060525658383 -1 0 -1
1719 1 2 0 14.747977063023354 13.718638184325375 17.39913527243553 0 -1 -1
1016 1 3 0 18.32078297423218 12.006233236452248 18.16171617843372 0 0 -1
1303 1 2 0 17.47747938919393 12.710157754821857 18.324378031812635 0 0 -1
1222 1 3 0 17.42633643029966 13.469731787762344 17.54633066250704 0 0 0
1225 1 3 0 18.100156266405875 13.346827285818197 15.933666233181302 0 0 0
1224 1 3 0 17.786937188166817 12.95383668378029 16.696499965932198 0 0 0
1301 1 2 0 16.88158411104798 12.111049936998466 16.703677014364867 0 0 -1
1210 1 2 0 16.63054048057317 13.384623587734723 18.118494309927755 0 0 -1
1223 1 3 0 18.264674245899965 12.989254462994714 17.578922150779515 0 0 0
1302 1 2 0 17.40152939081328 12.199355537011202 17.50339556630124 0 0 -1
1070 1 2 0 0.6943131892913889 14.258896949453707 18.36622595174836 0 0 -1
260 1 2 0 1.7606235912121362 14.560864857455215 18.210885170165263 0 0 -1
183 1 2 0 1.0441069548400643 15.695234031890292 16.225017816583943 0 0 -1
1005 1 2 0 0.5501107529701914 14.686719799702603 16.850170454476576 0 0 -1
1004 1 2 0 0.8626494945821042 13.879416807208964 16.466873066227205 0 0 -1
4796 1 2 0 1.6476467049570875 14.480709862754237 16.829800425640446 0 0 0
1071 1 2 0 0.9300752671815696 15.118994472029538 17.88884389071365 0 0 -1
1006 1 2 0 0.2915608741808104 15.552609289591922 17.141593752246546 0 0 -1
1072 1 2 0 1.5244174741562386 15.631270270867692 17.28982650081567 0 0 -1
1073 1 2 0 2.0056376259348645 16.20966152020043 16.703314590737385 0 0 -1
180 1 2 0 1.9397712090844488 16.438289818545197 17.878124735481858 0 0 -1
5385 1 3 0 2.852428009408372 15.480989574163251 18.528116754139006 0 0 0
5386 1 3 0 2.825244661390241 16.474094477697836 18.508537313964442 0 0 0
316 1 2 0 4.2013269491214915 15.126781430594464 18.40808390241072 0 0 -1
4795 1 2 0 2.549893832241003 14.139942759597275 16.81964804335487 0 0 0
261 1 2 0 2.4357643269053 14.885909028636235 17.57767242197767 0 0 -1
317 1 2 0 3.5700522124104843 15.150105517821842 17.716922480388703 0 0 -1
4793 1 2 0 4.063339683228635 14.152320348338558 18.066083816207566 0 0 0
4794 1 2 0 3.357739567617854 14.085927488374452 17.399108826047307 0 0 0
319 1 2 0 3.4296632272810568 14.27130995588184 16.22933281969563 0 0 -1
318 1 2 0 3.5286147621128476 15.06405978997635 16.748772907598802 0 0 -1
1281 1 2 0 2.3838517305625055 15.228903843328553 16.59802965946133 0 0 -1
21 1 1 0 2.755825079728161 15.717880257370252 17.303963246998016 0 0 -1
1086 1 2 0 3.6969026354881667 16.045389325436226 17.256186863897355 0 0 -1
5398 1 2 0 4.2773313821031005 14.22132970571097 16.888382343238618 0 0 0
314 1 2 0 4.774974260285687 16.173691671490083 0.5050458206283948 0 0 0
313 1 2 0 5.720992299633942 16.268493196531054 0.3301585217620236 0 0 0
5399 1 2 0 4.504203564656719 15.072035231641635 17.21069661621318 0 0 0
1085 1 2 0 4.559235473140904 15.920035838289314 17.64837633076837 0 0 -1
5400 1 2 0 4.637755823022971 15.780530695680175 16.613676223560983 0 0 0
4792 1 2 0 4.9594514201356645 14.405887140939761 17.92823736299542 0 0 0
1082 1 2 0 6.383316795989695 14.169717505199712 17.142045797891708 0 0 -1
4762 1 2 0 5.635618595410263 15.462470752038046 16.919777275216884 0 -1 0
98 1 1 0 5.337211086702867 14.518945301785756 17.02083939904705 0 -1 0
1083 1 2 0 6.0765413661006304 14.869064769353106 17.782398814128804 0 0 -1
1084 1 2 0 5.444574646623594 15.513568532214459 17.988930353332407 0 0 -1
4763 1 2 0 6.160787206684964 15.97350233462836 16.343360916825155 0 -1 0
4846 1 2 0 6.355307715003302 15.924351713711285 17.539195279809686 0 -1 0
4845 1 2 0 7.060024901755305 15.287048957765911 17.543056888554993 0 -1 0
4847 1 2 0 5.6704727418957335 16.530220142281735 17.831035283756222 0 -1 0
1352 1 2 0 8.741488618286446 14.715464278462672 0.1146625819383997 0 0 1
1135 1 3 0 8.64115656152103 14.792544578416955 16.88480118993374 0 0 -1
311 1 2 0 7.171422688079915 15.74074722581535 18.46549122040137 0 0 -1
1133 1 3 0 7.677083271373297 14.896354802827283 16.49108236480965 0 0 -1
1360 1 3 0 6.871888557295504 14.098110918185373 18.15475399278752 0 0 -1
1359 1 3 0 7.490681780929297 14.306945131208312 17.458043288491943 0 0 -1
1136 1 3 0 8.266470558925798 15.234523943507625 17.71712737890956 0 0 -1
5407 1 2 0 8.723673744252375 16.51401003284079 17.187491456191818 0 0 0
4783 1 3 0 7.2419444556776815 16.54486322969024 17.767578379079808 0 -1 0
4782 1 3 0 7.374543815832062 16.120703269323023 16.902455730517016 0 -1 0
1151 1 2 0 11.75368462176566 15.720513000607689 0.2382961824570189 0 0 0
4654 1 2 0 9.76439813475385 13.867638455616913 17.80928285481732 0 0 0
4657 1 3 0 10.967364535485244 13.904147637535644 17.661798355557817 0 0 0
5409 1 2 0 9.437656753819182 15.125344495577885 17.58695829255224 0 0 0
5410 1 2 0 9.758954480613635 14.803340681799709 18.446817286510278 0 0 0
4895 1 3 0 10.650206393114658 15.236620242919559 18.0387195409285 0 0 0
1443 1 2 0 11.084901453427022 14.488607514410912 16.52597684949646 0 0 0
4653 1 2 0 10.264000089241655 14.512076217316057 17.286088421875682 0 0 0
4652 1 2 0 10.037479974453223 15.165092563697893 16.629880641745114 0 0 0
4894 1 3 0 10.297313528326741 15.769406337333153 0.09885628647425682 0 0 1
5408 1 2 0 9.481631132007871 15.927823124926213 17.065470666151064 0 0 0
4896 1 3 0 11.471835822883802 14.798630405336375 18.09872706060827 0 0 0
1408 1 2 0 11.629173543616838 16.12901272114895 17.588598928662403 0 0 -1
4658 1 3 0 11.617216300038608 13.260411360060319 17.66132577678053 0 0 0
1152 1 2 0 12.344863287657141 15.464957754853584 18.12553278266632 0 0 -1
1407 1 2 0 11.518957350525781 15.27452283423925 17.158666441944792 0 0 -1
1440 1 2 0 13.360601255638521 14.27923614005335 18.27032927229704 0 0 0
423 1 2 0 12.939897505936784 13.943395600424214 16.83004007398365 0 -1 -1
1442 1 2 0 11.749169187290708 14.234995276680143 17.161831021268227 0 0 0
422 1 2 0 13.115216517896107 14.810224626250514 16.393788008716818 0 -1 -1
1441 1 2 0 12.558319599711748 14.430547462584148 17.669038904883426 0 0 0
1153 1 2 0 12.688220968069487 15.592655979782304 17.137741002729367 0 0 -1
1154 1 2 0 13.495272539028631 15.79396635067976 16.693436108560153 0 0 -1
1717 1 2 0 13.46236610366666 15.163235302089756 17.495044963872886 0 -1 -1
29 1 1 0 13.469592623715588 16.16409406993821 17.673391323738468 0 -1 -1
1034 1 2 0 15.729708816764713 13.92547389900474 18.37829083346918 -1 0 -1
4891 1 2 0 15.688778846464189 15.404351434737727 15.61422639560867 0 -1 0
5349 1 2 0 15.362463034579942 13.505701955732 16.438305671953124 0 0 0
4928 1 2 0 14.151143379473137 14.492602047661004 16.337598366868036 0 0 0
1272 1 2 0 16.031541832658274 13.992484003349688 17.387772011772007 -1 0 -1
5350 1 2 0 15.435401304567275 14.462693171197433 16.597273030017295 0 0 0
1718 1 2 0 14.109361230724067 14.418704316643057 17.5869752426037 0 -1 -1
5351 1 2 0 14.963895541365133 15.214061452465435 16.958134009643363 0 0 0
1271 1 2 0 15.32182592090607 14.63757987273859 17.7990960429267 -1 0 -1
5352 1 2 0 14.399831365956546 15.518499060935593 17.653196959764767 0 0 0
1290 1 2 0 15.596639850014856 15.737660242182221 17.740700991891707 0 0 -1
1035 1 2 0 16.437852299775678 14.507152104055914 18.569663109628 -1 0 -1
2430 1 3 0 16.530195568300165 14.685553720045165 16.220665369593654 0 0 -1
191 1 2 0 17.28456925001617 14.254400216224553 16.82963821238425 -1 0 -1
1455 1 2 0 18.24176850915326 16.027901406497836 16.40583071374529 0 0 0
195 1 2 0 18.287437230218426 15.076692497571857 0.11969125064080897 -1 0 0
194 1 2 0 18.341323390107114 14.767974939738897 17.827832685705985 -1 0 -1
1289 1 2 0 16.22648004904032 15.784713573439966 17.05005212193593 0 0 -1
5363 1 2 0 18.36504013897281 14.08385824213381 16.87450922203666 -1 0 0
192 1 2 0 17.38200624768077 14.510329510887306 17.71599174343853 -1 0 -1
5362 1 2 0 18.149581416425942 14.999194868309546 16.476979303640626 -1 0 0
1454 1 2 0 17.741233690741417 15.738574698057331 17.267868461144424 0 0 0
193 1 2 0 17.982975580979605 13.984175704117362 18.26275219746348 -1 0 -1
2428 1 3 0 16.4927927407089 14.887020894727678 17.36688545188885 0 0 -1
2429 1 3 0 17.094052803190532 15.274257052504206 16.738927508085194 0 0 -1
1284 1 3 0 2.0272978213933106 18.49030571459235 18.361931119930073 0 0 0
182 1 2 0 0.9380869241980384 16.716529300469542 16.384115683783072 0 0 -1
515 1 2 0 0.49485085944417123 18.167850498549058 15.611459488898598 0 -1 0
137 1 2 0 0.9007827080291179 0.06984590399981934 16.780086274086788 0 0 -1
136 1 2 0 1.5375997330020261 18.019182998024743 16.460592851056262 0 -1 -1
152 1 3 0 0.8455248210178263 17.92103242469701 17.430987292645696 1 -1 -1
1262 1 2 0 0.058942582229374096 17.302364843730917 17.845620094980397 0 0 -1
153 1 3 0 1.625545164326698 17.609983695175757 17.866927707431916 1 -1 -1
181 1 2 0 1.3223921419419682 16.8808057177695 17.24714634578534 0 0 -1
514 1 2 0 0.347253920341362 17.73001191235588 16.466132090902445 0 -1 0
1320 1 2 0 2.868850383035436 18.289142818793323 16.40973808556156 0 0 -1
4825 1 2 0 4.849378045574575 16.63193878144333 15.959059705993411 0 -1 0
134 1 2 0 2.9319127299509566 17.267972734840615 16.053541863121083 0 -1 -1
132 1 2 0 4.03557500528455 17.67553593465948 17.104951301342624 0 -1 -1
212 1 2 0 3.7978168583108656 17.06717441064654 18.05357071687493 0 -1 -1
1319 1 2 0 3.031828454415555 17.809849113999658 17.175501459836124 0 0 -1
133 1 2 0 3.5741453089270854 16.95692987008619 16.630318168328913 0 -1 -1
1318 1 2 0 2.5713283253331594 17.44651627934758 17.964399476161578 0 0 -1
1317 1 2 0 2.914510567042624 16.707542855060314 17.49143724093946 0 0 -1
213 1 2 0 4.7366321937312685 17.013469123728115 17.555863568661728 0 -1 -1
131 1 2 0 4.577508045111976 18.2432894279054 17.83063435184559 0 -1 -1
4849 1 2 0 4.6493117803112884 17.48920508912081 0.0023563258470849285 0 -1 1
217 1 3 0 6.254328577869679 18.04066614165937 18.08037025421979 0 0 -1
130 1 2 0 5.240415718258296 18.48945045012553 18.486239845335003 0 -1 -1
214 1 2 0 5.131558600392295 17.585744406968075 16.900374781461192 0 -1 -1
4848 1 2 0 5.5015564927313 17.277095775509345 18.358854065376462 0 -1 0
219 1 3 0 6.863265959093183 17.097854401535667 16.74959810485404 0 0 -1
215 1 2 0 5.970281887322943 18.033436510294674 16.97854386247535 0 -1 -1
218 1 3 0 6.305570190693778 17.288285591943637 17.544870759843526 0 0 -1
310 1 2 0 8.00495376657931 16.119899656893622 18.55342597424333 0 0 -1
4785 1 3 0 7.145345010034794 17.496463986582743 18.307284797229364 0 -1 0
4784 1 3 0 6.646604331894784 16.67159333534207 18.4911578273954 0 -1 0
309 1 2 0 8.33855655638642 16.870614747206446 18.09570941069954 0 0 -1
4870 1 3 0 8.665917311383055 18.34330272916119 16.685437007015498 0 -1 0
287 1 2 0 7.366343971665253 0.027909604089710882 0.2097046173029217 0 0 0
5404 1 2 0 7.2245137015672904 18.06357746246288 16.069386609169847 0 0 0
5405 1 2 0 7.64061738585945 17.928693883023698 16.954933847883026 0 0 0
308 1 2 0 8.757044386453401 17.80559627366686 18.268493264122014 0 0 -1
5406 1 2 0 8.373137244127529 17.40328420376724 17.177774464536196 0 0 0
344 1 2 0 11.396511248558877 17.75256864057961 16.84482360420775 0 -1 -1
1417 1 2 0 9.843228855261804 0.29577806347220725 16.986370891593587 0 1 -1
4841 1 2 0 10.654554283770631 0.39837072038516497 17.810814275871056 0 0 0
1354 1 2 0 9.326931500019104 16.206586059128515 18.12264883584906 0 0 0
4872 1 2 0 10.609179160409433 17.447194481570833 18.426190059377358 0 -1 0
1356 1 2 0 10.086564392420058 17.61669331109485 17.151840815457046 0 0 0
4873 1 2 0 10.080501581066912 18.124637615742234 18.040749282274355 0 -1 0
3710 1 2 0 10.83329991509425 16.3616578053025 16.967683033611337 0 -1 0
3711 1 2 0 10.984883300670731 17.095608915320664 17.62054219653611 0 -1 0
1355 1 2 0 9.567462018092307 17.03542243074612 17.74518711371807 0 0 0
100 1 1 0 11.040430948973883 18.08101678033113 17.813726193392696 0 -1 0
343 1 2 0 10.846658355935109 18.49985525648901 16.877917513560682 0 -1 -1
616 1 2 0 11.915715780928892 0.3788603705093081 0.002732562407558703 0 0 0
1409 1 2 0 11.96004181081144 16.962001326933905 18.017795103851135 0 0 -1
1669 1 2 0 12.671790177672412 17.578067763388734 15.810059215381743 0 -1 -1
346 1 2 0 11.954749104416866 15.97480274622493 16.54594124232838 0 -1 -1
1696 1 3 0 12.236664755616097 0.16223485056606962 0.9721310996791902 0 0 0
1499 1 2 0 13.251553145733748 0.2532482276852155 0.18323677416149534 0 0 0
1157 1 2 0 13.385748200636526 18.186809408854508 16.453383941693378 0 0 -1
1671 1 2 0 12.758699406980169 16.762489400651 17.37267160848295 0 -1 -1
393 1 2 0 13.58936039212075 16.85360890128297 16.905152210382457 0 -1 -1
1670 1 2 0 12.604189751507672 17.502194280982796 16.785053619086266 0 -1 -1
4907 1 2 0 11.95866148763886 18.11398178049872 17.654871452980004 0 -1 0
4908 1 2 0 12.697044668339768 0.00010457901174376616 17.244443866256596 0 0 0
1500 1 2 0 13.210749727016644 18.00735456951859 18.266679536456056 0 -1 -1
1501 1 2 0 13.457259802040783 17.081699032298772 18.06537622395894 0 -1 -1
2409 1 2 0 16.15911015855189 16.432659671904325 18.11382631741886 0 0 -1
2407 1 2 0 14.655382838084222 17.59766240762729 18.51930258530002 0 0 -1
2422 1 3 0 14.458824448424767 16.780999935349087 17.800007914737343 0 0 -1
1155 1 2 0 14.077851758485885 16.390669760430264 16.06830680498111 0 0 -1
4731 1 2 0 14.875593123658527 16.27863378398968 16.997831500762615 0 -1 0
2408 1 2 0 15.345794476728278 16.963070903592737 18.071146830198156 0 0 -1
1156 1 2 0 13.986005195029023 17.417368334784303 16.122675885244814 0 0 -1
394 1 2 0 13.6719195673129 17.70696886956116 17.276802215467946 0 -1 -1
395 1 2 0 14.512709045087306 18.150894255444886 17.570337450948607 0 -1 -1
4730 1 2 0 14.652430651930874 17.193133080945085 16.877792671972582 0 -1 0
4729 1 2 0 15.285476526935653 17.97384417930076 16.759461487901284 0 -1 0
1451 1 2 0 15.800561423127684 16.815038842218744 16.743383531587483 0 0 0
415 1 3 0 16.495218831088167 17.894804553847095 17.97812719017857 0 -1 -1
512 1 2 0 17.6937079142522 0.18105750730147593 17.0661366983276 -1 0 0
1288 1 2 0 16.896973238113695 16.385488137944076 16.661418973443133 0 0 -1
196 1 2 0 18.305280839470498 15.859411212008451 18.15910523255342 -1 0 -1
20 1 1 0 18.504920046338842 16.4067240082933 17.382980822176894 -1 0 -1
1453 1 2 0 17.23969183660004 16.489903325293128 17.624963307995127 0 0 0
165 1 2 0 17.04405495178548 17.49647161660725 16.560642206087007 0 -1 -1
1287 1 2 0 17.792862681634134 16.842184776269157 16.79315663146884 0 0 -1
513 1 2 0 18.44302501851702 18.215168047553004 17.17714078409981 -1 -1 0
1452 1 2 0 16.47728097176884 17.001691282679253 17.348623605717997 0 0 0
164 1 2 0 17.3829041106148 17.65929251615956 17.40710504841234 0 -1 -1
163 1 2 0 17.443546484697457 17.43440723779896 18.30773226679312 0 -1 -1

Velocities

1458 -1.1404253391816064 0.8113824163155253 -1.0740278011692486
1751 -0.06908657107734988 -0.19889022344948748 0.26590729859599493
1459 -1.0924816744526273 -0.6903770724373695 -0.1491092021236851
1460 1.225940373934122 0.908645340960544 0.775157510549359
1750 0.018530723630830723 -0.041751499071964966 0.2954926380576662
841 -0.3476655935714515 0.6145931792586787 0.35090064321217496
462 -1.1402682124241719 0.5128417291649969 0.8978154983977698
4687 -1.1810212079007718 0.4337729293504573 1.3335430161675692
1753 1.3655856921321392 -0.3853731015821774 -1.9714997644660717
4688 0.7557794785531601 0.6639423148214384 0.26446573296397075
840 -0.22785550079374708 0.05916784052598358 -1.1557293632096366
1579 -0.5440889868049577 -0.9026027374451027 -0.09430643564599515
1457 -0.05786788791032584 0.4228229199652985 -0.5846377741771829
1754 -0.571174833854335 0.043539265062762865 -0.5415968038037653
1778 0.8095420549194645 -0.2989364578747709 1.233875101841411
1755 0.0005257707261798497 -0.5538585416236332 0.982177186848591
1756 0.7699440137796592 -1.6673309566243182 0.13728568647156109
4852 -1.2292790572160095 0.25173312471335574 -0.30530827074581196
1577 -0.3191115303830246 -0.6647505922988377 -1.0541734418665
4999 0.36625864426767324 -0.23910163586292327 0.02014731631507779
1777 2.082016720561768 0.3996095585552666 0.296353105653349
1797 0.1336922806486121 -1.3916124047913256 0.6684125719242707
1543 -1.0658149623344155 -2.2605667867631354 -0.6937118587998186
1544 0.33079675001235453 0.9874332191601893 0.8457537210040036
1542 -0.4278597569471928 -0.0006506351350058848 0.7127577810169586
227 0.38446382771628523 0.8425271936310307 1.6045246122721886
290 -1.0838169132798867 0.3315137949558097 0.5533908236298515
229 -0.1313247533144975 2.5300294416253144 0.18792603503466834
228 1.5767715045610877 0.1840623428646267 -0.36698583585859773
289 0.6948026466017736 2.4970171746395486 -0.5093633847422007
201 -0.053179553033885905 -0.3688267796659671 0.2904497605707788
1545 1.048491804070231 1.8618884484700327 1.5889146985437628
204 -2.125137462310659 0.40649452443517464 -0.52876239817536
1607 0.2310930415096261 -1.132860445251151 -0.8496437998327334
203 0.8455762154642391 -1.2069352686112698 -1.0300656853380488
1608 -0.11779356126090385 -0.7512044542557121 0.7630321651430797
202 -0.2824494543168672 -1.6484491552455325 -0.32454384416724213
1885 -1.0660879441316606 -0.01727185235208744 -2.259715253916239
381 0.7309858364050005 -1.6893224938693343 0.26113158036585854
271 -0.49806649916830037 -0.805342418786303 -0.576763575065591
382 -0.32123529862530603 -0.35117928385609 -0.7390692213039006
1421 1.2286065429881028 1.1468357004471528 1.0809721833267403
1886 -1.4554709609318646 -0.7404185837785668 -1.357738086601096
1887 0.35119880648566815 0.04786878878083651 0.4951118269055708
367 1.1027882851137558 0.15579366612517365 -0.1387692513657341
277 0.11744363913064526 -1.7065696740292968 0.455506689346583
276 0.42983005543108543 0.4036274522960645 1.3018453500652236
368 -1.1826698666242652 -1.349609119132805 -1.3643485415323453
614 -0.898448693022298 0.8159243529034105 -0.10288982393976998
615 -1.6134852053573705 -1.7893692096995646 0.3387604072435197
384 1.7012964667833428 -0.5547329074210033 -1.1934784235736609
278 1.0380605505522342 1.1948090867237013 -0.03932755031646501
1888 -1.9707755246421799 0.6431466251815293 1.2365122572689622
385 1.2524580647703067 -0.7917262160258004 1.1466218484237904
386 -1.0563731750878 -0.6402027809279723 1.7680157684235396
1692 -0.5307584045018774 0.32724814012736364 -0.05899109451600855
1498 0.3850623311936414 -0.32802713397310906 -0.9474423791896164
1693 0.04405487931204043 -2.0044351855866367 -0.021652411789287423
2404 2.629143933165604 -0.23986377679380314 0.42075845963356057
1694 1.323270822607575 -0.34971742542794426 -1.6000468576139981
1497 0.6352461448010662 0.2926064557167849 0.685399210969492
1496 -2.0016118645503465 -1.5465911132005843 -0.1823794320726003
387 -0.044027503308199954 0.9087380948147789 -1.4468695613979616
1495 0.8614151799661578 -0.7765914024811446 -0.11286501735473776
2405 -0.6646323409156668 -0.3501575545387936 0.008976836747265878
599 0.15365300484524752 -1.5645642621870766 -0.1943894414518683
357 0.7219674824838297 -2.164131613538292 -0.5416907105228419
358 0.9679142500428605 -2.1233767823388594 0.28948496302666255
398 -0.7285179462423238 -0.09045447869720454 -0.9427791743603123
2066 -0.3674387042119716 -0.2756329576062669 -0.09529255621078779
421 -0.18787462862499832 -1.7219082587575698 -1.2642276013111744
2065 0.5236923591747313 -0.39001774657476057 -0.11632650145038625
437 0.8978465090899913 -0.5565560516706535 -0.5067787695500107
1661 0.39314161784409046 -0.7335089117259814 -0.1485541160309811
1662 0.19436004019003572 -0.26081403732338276 -0.24318127886177088
694 1.8858792713332349 1.2870605209194896 -0.31335795858106263
413 -0.18366740503274778 -2.304907662940544 -1.96571382596278
684 -1.1540069093359628 -1.2763549980368314 -0.5980987713926649
420 -0.1583996194798183 1.660700878912835 0.3667934882307755
418 -0.8326272376459383 -0.6943901438141293 -0.6781395903134193
682 -0.19034400285584938 0.4632587145428162 0.23686667985485105
681 1.368092451097787 0.4455779296171679 0.18049985871446148
683 -0.3887255325331471 -1.3814978101418791 -2.5798917929615253
417 0.7813716362377722 -2.624800731888042 -0.324049552349905
1265 -1.4032498510824325 -0.6345997236808611 0.05196683564156179
461 0.24845179501648135 -0.5140791570649322 -2.2072045495515535
1784 2.5516056287206346 -1.2296177248226532 0.22370817928412015
460 -1.0703907179351344 -0.7868175074503188 0.9052346148681492
1461 0.27025071817687524 0.7910324514231437 1.6742139908857174
1785 -0.8990560314286835 0.24171408595309643 0.35942854737659125
1783 -1.9085195915133346 2.4912531632937163 -1.027391336523834
1782 0.813075099552253 1.2148715100265481 -0.4447457949450555
459 0.40518558306559727 0.2256237546302554 -1.2906815306665729
506 0.46996137790500336 -1.0294467791119384 1.0829602598360724
507 1.3079296614574618 -0.3081782022740492 -0.27492281054676193
1580 0.3629749476451908 -0.8588952856124621 0.15089983723293895
2806 -0.746204267192197 2.7400202140940437 1.4243915906323539
2805 -0.9318186438099946 0.09572069166016156 -0.7324640262883779
795 0.3171791533537564 0.2747621345940121 1.2661165542167636
2804 -1.3309577330868099 -0.201709309680935 -0.3183849229108016
1623 0.41630430152400444 -0.08628335685536943 0.8333285862717873
1624 -1.1153350332981042 -0.3147474098635902 0.031195004623937622
824 -0.07421257699876348 1.59692197480254 0.859945457952999
796 -1.7200324437116838 0.8241393670694317 -1.3719761236688364
1779 -0.43176479460178085 1.0926248681701816 -0.3080656981602752
1541 -0.6072423289782914 -1.3598392190744801 -1.1472100175785545
895 -0.13292925202136002 -1.054593296112126 2.4300910182675413
894 1.1790937152107988 -0.05799204579584408 2.0815894012793272
1798 -1.6065124047820016 1.0011946414093957 0.9429433644049023
893 1.913369464624357 -0.6796512071176626 -0.008264447999014688
1540 -0.8798323871208326 -0.11442201591746523 -0.5157872206528273
267 1.878986737146088 2.4103127782646374 -0.793509037643594
268 1.7683966293178353 0.8508443430076525 0.786663465801098
1996 1.2125421237797964 -0.39097894312723536 -0.26436560571506357
269 -0.012179548997560175 0.7201921530629968 0.5647041230611911
1625 1.5345831060704376 -1.1240270632590752 0.4665502579354396
825 0.3728741252352566 -0.3130715852223936 0.3956385321057786
1997 1.549897994090836 0.47217264730321046 -1.1667001587082568
270 -0.632869564623719 0.6753698701674957 -0.21600157884992502
570 -0.9102313777584586 2.3755257691983376 0.013799749225457594
571 0.28022758008566956 -1.1964528809086765 -1.060725956379109
572 -0.39764722095728644 -1.1356222045175957 1.4619121742475751
8 -0.13292780227942363 -0.37484150625952745 1.373479322744373
383 -0.7343236891353054 -0.6285446274086978 -1.2410816164999425
2021 -1.1741430709929699 1.3032771309029947 -0.003127934594927287
1883 -0.6001776409692289 0.3857254502110826 0.3197001860908755
1884 -0.17612801701077002 0.5915827816697055 -0.3690725371784922
371 -0.5662595626954866 -0.45984448000273515 -1.369575633782163
369 -0.44650786851718355 -1.08783917381608 0.6150124093948135
370 0.6181065839603981 1.5170887903473806 -2.0526733003505235
1686 1.1921818688119163 -0.9339702895016079 0.5513285750947865
602 0.8270180115729084 -0.508725607402176 0.5698068731986533
950 0.0540980833951603 -1.2023057645400868 0.9314854853399128
603 -1.4514537012529158 -0.5556773627601775 -0.2766380834345276
601 0.19426612061185827 -0.6384958247412555 0.5275192959223
949 0.5928500095213799 1.2894827651709335 -0.9451162999801573
1685 -1.0064907992245218 0.3799031235412831 0.3941445828375846
531 0.12823371865953592 0.3002048684626475 0.09305847936739008
1684 -0.4678454690853056 0.18966312185878434 -0.8140806225285785
399 -0.08459756560488754 1.9381695901621045 -0.09700824700576137
532 0.26167022805877416 -0.5964175427159624 -1.3489226712693805
600 -0.42619499453355575 1.0540040717045682 0.4141887089414632
2112 0.3488592403416655 0.9440458877480251 0.3082749119170091
2113 0.7106913528136598 1.0876014365432414 -0.0629946860201244
2088 -0.6706922813784169 0.6090115553413114 -0.9915562772030385
2087 0.8609720877190802 0.8329646168440508 -0.4194949325218454
38 -1.0872918547565913 -0.9348896901999807 -1.1087498435653085
533 0.05903497110961105 1.534482123905402 0.5128487364294446
400 -0.18025117281529754 0.22226249183383376 0.4312930331466637
2064 0.9575149812671659 -1.4868479675573687 1.1328981336699313
1938 -0.6158059242361995 0.9642109599024516 -0.2363361367153659
769 0.8624147055356126 -1.7981981461183223 -0.051025837252312675
768 1.4729736710249564 -1.8840560451584523 0.8590764458788672
692 0.0941926717992056 -0.023713622505864104 -0.2425635476664287
693 2.005170963934923 0.9108396827150383 -0.22458080611967013
1939 -0.6887032979606394 -0.08755903633834795 0.5939296263200667
678 -0.7875095616692365 0.6015921186435156 0.47181979500170984
770 0.687114440309286 -0.21266049890005007 -0.9174855758477888
767 -0.13648592303571513 0.241514673963226 0.1950483473584211
680 -1.0847848671963534 -1.6147020157609964 -0.5764186038910428
677 -0.6181439468779271 -1.9002218058573799 1.461540113795771
4712 -0.851122244709765 -0.225455663315054 0.41544587933208177
4713 -0.41877021483921045 -0.4049596120644458 1.9880604345169557
406 0.4345179234327164 0.19047118560017973 -0.6917329941704866
1954 1.5133454191818474 0.15288787764625156 1.272769904589044
405 0.9681610978588034 0.8581026845827066 -2.392489165263274
679 1.7767283564904777 0.5855297889635077 0.5322975117963471
4714 1.5818841237763412 -1.1788357788149417 0.37499709493206307
739 1.8441139180273125 0.857376904571876 1.2782176448020517
1953 1.8696549062050913 0.3063301109804608 -0.39230733319228467
1952 0.8729819966153725 -1.0376742966517 -0.4425707174547247
740 0.21896820563193817 -0.36647859627173296 -0.4853738449651883
747 0.3273477150865177 -1.598858465680571 0.3094077200220672
1786 0.2388497115193586 0.48968409366489835 0.7882504421365515
1787 0.18152035792481544 -2.2283544477140778 -0.617984059499885
737 -1.1162234554044712 1.0553585066245035 -0.9786097807647333
738 -1.9451201267729 -0.45197994964169846 -1.0257231991846978
712 -2.05960804077747 -0.9459798618704832 -0.6936499172991477
5118 0.3747732162045029 -1.446784441360253 0.17218989537239246
713 0.16198137132111565 -0.45234848332435734 -0.3927394830511121
2234 -0.17055727167390314 1.563979918141343 0.9263037514206929
5119 -0.35345461557462454 -0.42893261183067366 -0.4806490618645219
5117 0.1094323478007544 -0.1547052071799116 -0.657901126889052
736 0.6051768093195743 0.18461047106819367 -0.3568090995860881
2235 0.4895620852312882 -0.1701690924618638 1.145454513049052
794 -0.5332461320470824 0.042919908039128984 0.9085237773615378
5281 0.2168793138847036 -0.841240140968903 2.413915043959423
5282 0.6189957040409813 1.4673894044835238 -0.5990310058427306
2802 0.6873722518710444 1.4821129855262338 -0.22141132166300423
869 -0.3567527885852622 -1.3350936181807775 0.2008383046802317
871 -0.6701085374037049 0.8428050919344211 -0.4628448442118228
870 -1.2212545818246061 0.14565932209504484 -0.6059910867810084
5284 0.7992680171394372 0.991541737601428 0.7390985713581826
793 0.5426631823721282 0.1502051684673643 0.5916990548664806
892 -0.3727526612202837 -1.3739741791162825 -1.058136764854555
826 -0.734520484536983 0.08788111529618613 1.0009567204391348
877 0.6780522224774035 0.8147960307605273 -1.6737629783056922
876 -2.026346837228786 0.16488949597151353 -0.49547771173094934
1995 -0.2165918732993278 -1.7855144184025882 1.502236750242271
827 -0.8375376402066311 -0.8661521190265244 -0.8573196205965397
828 -0.688270381134257 0.6697645714783115 0.7594564750075057
1993 0.14460944301957138 0.9668700398504291 1.757974663441468
1994 -0.7363682190897328 -0.23423994473874382 0.7464148298706303
875 -1.5579544269726933 -0.291789474990928 0.46416591900764376
1992 0.13964300461982537 2.1353137837499627 0.07917880980836756
842 -0.12093312987523902 1.05097051414968 -1.1489083751184461
562 1.3448098549828065 -0.5544212798032631 -0.5031075793646881
561 -0.35237432193383356 0.7852137221422364 -0.9644177279561309
652 -2.450632859786194 -0.6545413111247875 0.5926587039509702
653 0.1903019195774279 0.21241799819563265 1.7496026822776056
560 -0.9546770780504102 -1.1131656185534753 0.8639354337323708
5029 1.0583978989305343 -0.5760432055002738 -0.7537243571301852
632 -1.0758184700673552 -1.1109511542315647 -0.5320493585296548
874 -0.783021091036856 1.1154762835383936 1.2545019130302246
5030 -1.0471671595517598 -1.4806766305423917 0.4593123506419394
655 1.338073737754157 -0.22237952961939855 -0.7133380825726149
1687 0.35320845058940126 0.5429809020436885 0.4092531140150949
633 -1.0351840260247256 0.728445364301494 2.1078552387775296
951 -1.5443100089336779 0.7812873378943463 0.1060522901888531
5028 -0.5665650367788659 0.6213207210094779 -0.02777178765970579
1689 -0.9859848990606647 2.4669887892386413 -1.5753479182119328
5027 0.9369388384846242 0.4027855849345285 0.6130683895425438
1688 -0.1645317969202131 -0.745687545542743 -1.9296013830410568
5026 -0.8790632518272004 -0.39380208828918095 1.5930149472287376
656 0.765025348122221 -0.5016615364168899 -0.3388088222658163
607 -0.5474698346105706 1.3913012568318122 0.5951567577023309
2089 0.7965396891851992 0.8738355147534406 -1.665540328970806
1937 -0.8250703270228437 -0.9992678266479723 -2.545253743278625
2108 0.4616269740854566 0.18051102101038538 -1.3108187977069792
2060 -0.30640866889327234 -0.23084829916118518 0.070522028537272
901 -0.5608572636121472 -0.20176170016086925 -0.9503976716145421
2107 -0.6961580435792393 0.25355204457000374 -0.11095300238218535
2061 -0.4968743460625103 -0.6915827472182154 0.31770102827192337
902 -0.8190628729203622 -0.6023961214386568 0.5474838333550456
903 0.6423142360708343 -0.5531458345122037 -2.184963328971266
2109 0.01219169163588464 0.29712107449854647 -0.7017991537009521
2059 0.5092740232818804 1.2451261822499264 -0.9045177106990344
900 -0.22883961239807385 1.570921750006516 1.2939097430567568
2137 0.44609515024926993 1.7208345593007712 0.6348108576169476
917 0.3268227875167531 0.259762927614424 0.26532506967445174
2136 -0.06922062096076391 0.940017675785613 0.9689134267523988
676 -1.3628758003019863 0.711925081378555 -0.16191534657741807
2135 -0.7480002062160498 0.5649385739979269 -0.6005319588889462
1943 0.013477300231526558 0.8022059149846789 -0.5624780967428008
1942 0.7639547145537608 0.7288598909900409 -0.3686605932064458
675 -0.6607482670916278 -2.16657087843328 0.5978805608611292
2134 -2.133534545672154 0.34023225667999035 -0.9928682564863798
918 0.990981982145584 -0.3188916518470233 -0.3735925261654748
1944 0.8277903641491883 -0.9662935025475115 1.4291711745374804
765 -1.4288603906380066 -0.7840508094458623 0.5323092969701388
711 1.274994779484694 0.4563589015150328 -0.2568192266718676
764 -1.6298148699344905 2.4705657438919553 -0.13063766237878202
1064 0.5286824594621614 1.3049633992930179 -0.5498391489271992
763 0.4687274864778227 1.0937011974715776 0.9384462272670386
710 -0.25706635161852387 -0.41689358687656786 0.8179649382312966
709 1.0119580344107404 -1.0230739592895945 0.07202572704048728
1063 2.323993000381707 -0.3991485964306101 0.1927266727313147
1065 -0.29983933012578873 1.0229218013535724 -0.7181400462574499
5120 0.06368714877622073 0.45221638822410215 -0.5520885407526814
2233 -0.7581762910626084 -0.5429219307712709 -0.5238365617086577
714 -0.3321057282326974 -0.5136704510399412 -0.8326102367059692
715 -0.7494586538231494 -0.05122437842665057 -0.053958509985302966
1975 -0.04141239940976785 -0.45823078323769184 1.250957680081027
1011 -0.1554992635555301 1.6874055607026266 -0.9035998151801287
4145 -0.9575187164029658 -1.8869774870431868 -0.8975933043211695
716 -2.321688663379592 1.087043725018038 0.8024597011547198
2232 0.38178572575308717 -0.04202422167702556 -0.2692328055073882
2236 -0.4668002231173585 1.529271995459947 -0.024250084725287058
4146 0.4547543438094128 0.2580923846112295 -1.7240226571777288
1018 -1.3009651899176948 0.4723375872247307 -1.92419638864157
858 0.727076682904934 1.7785635377255176 1.0520783976126404
868 -1.2629412792152976 1.072010458002169 -0.45282787824050946
867 0.0035458909659839334 0.1928879665489475 -1.4781718448845655
857 0.3683928968083739 0.2872380910342035 -1.1038513266856194
811 -0.6951621864285811 -0.7999908110768936 2.133162372726937
554 -0.1626741028136789 -0.4223832483399508 1.2822478433919058
555 -2.1058030943109514 -0.7616439509214816 1.3339042444786513
5283 -0.11384226744605291 1.0881295096949473 0.012368604771760319
2296 0.10463966673793457 -0.29929416793178615 -0.6119359055641851
829 0.42387660626495366 0.19931037622938438 -0.5588808252292277
5285 -1.1280291167791026 0.7373199234750472 -1.3701338122965792
1991 1.036611966037886 -0.010483637674078842 -0.2976435079729029
810 -1.253520470592309 0.16314295528610523 1.4798895980134972
1990 1.7540117453671993 -0.24159230658019756 0.3594659737182473
5286 0.2607110394660148 1.1800293430644642 0.30360947212451167
5287 0.0865200791170353 -0.31904171843744666 -0.674981472646235
2014 -0.36275677990614325 0.22619515332942156 -0.3562386727404114
2013 -1.336995060192038 -0.5900135270005477 0.18612756461655489
2015 0.06855047239695697 -0.35699375296665214 1.4939996347516915
809 0.43993289015136167 0.09676150286771051 -0.7518399967308141
553 1.1997806195477994 0.16844591152513527 0.8133470418992134
1369 0.238339535996508 -0.12360403272560291 1.393132715951977
873 1.2360625613536202 0.5691200808403697 0.03072651618687633
3086 -0.772207797628977 0.6506411510307782 -0.8258787941914547
1175 0.7288125480839357 0.10174231834584764 -0.6022736566222474
872 -0.8830369313541109 -1.6148798528502843 2.0858366746966817
1370 -0.7089767894252258 0.7047027435854845 -0.9539820976583042
3085 1.3947086616030069 0.8802074800829867 0.850921665400676
12 0.26326499326397146 -0.5966116948545209 -0.3616253844202921
1371 -0.6541755018474723 0.10571993675312656 0.11674690467774336
5288 -0.48018867805074134 -0.9925738678442474 -0.7367454959513462
791 -0.8121708907824712 0.8462069548008129 0.1968962362807588
2012 -0.8290354206953743 -0.79141430573511 2.0302395205343484
654 -1.6405527695008655 -1.8441074203108856 -1.3779974491408387
1176 -0.27096312681937945 0.9232424305571629 0.30532686328543085
1177 -0.7273725210695287 -0.16898818856964132 -0.685737335653604
1691 1.4443516196439732 -1.415432873084909 -0.7714703602649235
1178 0.3022090060082352 -1.592228061760516 -0.7995798357199544
1877 0.8984285883762698 0.25974392156707105 -1.9752407255909685
1878 0.46161480241457165 -0.29763321342027743 -0.20024258690331398
3084 0.11570619887426067 2.451270574467584 0.2971950544529664
847 -0.6442016276247623 -1.3289595074785614 -1.1871276517216458
33 1.8920506972143265 1.1455510390278105 -0.4616603916053844
848 -0.4055917523216787 2.395545404736263 -1.2554054319929873
1879 -0.3404663492023872 -0.18944004625048158 0.6528118105187367
5440 0.1706478123428282 1.0681404149198672 -0.31628724114884355
1179 0.34866459794026117 0.48686958071514896 -0.045973627378175445
935 0.12701263687789385 -0.4892120676639812 -1.7330243521380264
934 1.0758375297023204 -0.7980742939719765 -0.20032310497286945
936 -1.4951739361600238 0.11396447392417842 -0.4778724160744709
1234 -1.3792158465568807 2.064146586305377 0.9524914526294148
1897 0.23999759105058405 0.6260306997475248 -1.382867425333647
2241 1.441416569540225 1.5430098290815395 1.513549403472439
3291 -2.034462759119941 1.1091609393658428 -0.42406718528073356
3162 0.12783131524377053 -0.6177803105166905 -0.3761703687222735
1180 1.1177174092658326 0.1308547910243769 0.27707879003595287
5262 2.250262882433643 0.3774838166669852 0.757847910319306
1066 1.424385161405475 0.536398439270022 0.6375878870130115
1233 -0.6377744273162296 -1.5777518212245276 2.22057302553854
2133 1.182363869227082 1.1793705107709032 0.030448365910704264
1232 -0.1868311559988979 -0.40798611715172606 0.9296823335735671
2240 -1.7366409150180284 1.2986899486710612 1.5783260902496823
2239 -0.7919604843432956 0.42879781697438923 0.860200433478161
19 0.7812996289538613 0.47059590846640925 0.32328453399609414
1202 1.2277648029977641 2.21807046970677 1.136694981333394
2081 1.1877825482290592 -1.2365690319154927 0.2262013904383216
1053 0.5273584496186352 0.506569956350534 -0.5536830426669924
2132 0.8922172092132098 0.6864668292200514 -0.3333700982858705
761 -1.8812261124321266 0.1525681967096116 0.28921412716606315
2209 -0.7508831132742785 1.0944407156012652 0.39584625686532254
5121 0.37375438720295884 -0.9202258880518177 -0.27387760027000346
2238 0.4441954722754391 0.0410601441346083 -0.43780699735494044
762 0.35729631233743053 0.35859341528308825 -0.7394479147903179
2237 -0.5027929015967124 0.027781977322499065 0.5049386018803712
760 -0.8827874281083665 0.7422312687706203 0.3117621877765346
5261 -0.9184174008272515 -0.7223241833936919 0.5091636279555226
1946 1.0548518452712157 0.498409626614492 1.875535457006829
39 0.0968896925893163 -0.3640503701180618 0.40243110604452365
2152 1.2976625492296794 -0.14875446806085948 -1.2679190589388252
2155 0.7832699096252007 0.24149451562566782 -0.4011284855905868
1976 -2.1908122172081548 0.6130075235996019 -0.8391282244971556
1978 0.39078794809592515 0.0663801050605906 0.051306679228451044
1047 1.5135386651669362 0.23710314320229478 0.7855698103058305
15 0.12368928337656233 0.5454453465246496 0.7112816647480218
1048 0.3450099569583144 -0.1865964541137746 1.5067183109551254
1977 0.15310819163351785 -1.9142566429540728 -0.17402989592551826
2939 -0.7098705199851608 -0.20509600934980687 0.7024988944839207
2154 -1.5843246478709658 -1.8115602352488003 -0.2636583923909907
2172 -0.010906726113901425 -0.11349723044638732 0.8588969787321254
987 -0.02626467973413661 -0.4346718059701858 1.0825741101769593
722 -0.47603604414045103 0.06645028991685152 -0.05588825245110687
2173 -0.5337325092682906 -0.4624815070255511 0.15454045390082127
1017 0.5955552157585935 -0.2387052205348197 0.24346864323743395
1037 -0.11852971348161304 -0.6134957580099264 -0.36026203857608624
1038 0.6391172873221701 0.2153622426748854 0.46417502693614504
2292 0.6410357330253141 -0.3916994478207673 -0.6807290778501071
2276 -0.426979719758482 -0.6829890634640791 -1.1500769442166925
856 0.7054138567419993 -0.9547756721894275 0.515198526054865
2174 1.1748867494881425 0.9632392120907105 -1.356764086346934
1039 -1.0322630686726508 0.07421442621544846 -1.6056878497088294
1124 -0.7377027173202626 -2.578588898229377 0.7098688877266326
5330 0.6452701396823883 -0.2136595767143171 -0.6182706360475911
2275 0.3511436867771572 -1.0460457030233266 1.434986392316568
1121 -0.574416508684791 1.030694563145589 -0.407317082176884
1122 0.23232505902962053 -0.38672710642450087 0.4854639432779178
855 -0.012044109474841387 1.3204385259898848 1.9590491235161849
854 0.06385512884128167 0.016388728139178736 -1.8970563343381144
1123 0.6436536827303697 -1.093960401695298 -1.2240913485463716
1120 -0.08485357292302863 0.22292443902605996 -1.3981106596748263
853 2.0859227915943226 0.8933875718345728 1.4673173358162972
2253 -0.03404047883420627 -1.6319033188973024 -2.4153332391700606
3054 0.29659439316352937 -0.18639622014975524 -2.8704610102630994
788 1.6837108522755986 -0.9522623610347971 1.4722056848861167
850 -0.8516356038466907 0.6064545932692875 -1.5524927895848
790 1.6640967499153059 -1.340400798866934 0.05586237258684699
789 0.5603191541819185 -1.263042544575484 0.4304231836603977
1169 -1.0965942664862711 -0.5242496648893724 -0.8671169384829372
851 -0.15292861122387702 0.9842828720636702 0.7421647199410871
852 -1.07699228635339 0.768211764291334 -0.5121791805736232
2032 -0.5847990276428922 0.1914389855631037 0.0581806166175135
927 -1.8952671285834521 1.7287729682264232 0.9743214331050173
928 -1.541622753375929 2.1805054025114505 0.6253684128231796
3053 0.12412293381883259 -1.4857455792018643 -1.3968097321542954
3052 -0.635358012523785 2.1517735609513493 -1.7102837889545592
849 0.13357787117729022 0.05455126772864753 -0.35661299062587515
929 -1.305940525840734 -1.965814183683565 -0.6556796787351363
1168 0.6181247992990028 0.25668728244135464 -1.0278900042035835
939 1.9928634573609136 0.5996173708774177 0.44791666134504643
930 -0.06160482162134339 -1.1303901101134017 -0.1598212337942449
1230 -0.8331293363540375 -1.5030703056167245 -0.9044654804308253
2326 -0.06849074864148537 -1.2673112406975995 -0.5328502298815386
1231 -1.062057017321668 -0.7922850007858621 -0.051548171718299736
1229 0.2931857172688647 -0.8434882379239488 0.4413709519280784
1228 1.0038492121504587 -1.1448321596172624 -0.5548394852430197
1191 0.26612034404517243 -0.03914558743227354 0.5226164423630997
931 0.23544552743423985 -0.8014001819929464 0.19826225374797624
1256 -0.22579794578431678 1.1854113406567048 0.31978273600220963
3292 -0.08501916436119226 0.735380654242362 0.486282746955832
3293 0.28064848358671735 -0.29404094507366385 1.6061735121555827
1052 1.7247307311483642 0.7126209968707935 -0.6533027698873841
1216 -1.32676569532599 -0.20378391342843236 -0.05432425158860073
1205 -1.4303722336633118 -0.402598670953978 -1.2969989046307342
1204 1.2083537438529346 -1.0882684769452382 -0.2695129934334437
1217 0.5138851390183624 0.2566953798579715 -1.2895316567549497
977 0.5312721221484225 1.5899020950036857 -0.5990778176021562
1215 1.6631751158163355 -0.7846449436362114 0.14012778804629383
978 -0.2641693942194416 -0.20150602311886373 -0.9747182144219086
1051 0.7812079187540563 0.28394420852932806 0.029396601332093722
3294 0.4090936438204405 0.07524772450515019 -0.008323964197021388
1031 0.27294498221669083 0.9732699665680387 -0.14345481481185715
1028 -0.4817887059339675 -0.3347084857129344 -0.47957251105859794
2210 0.8396667937243533 2.051296508455497 0.23878409099109998
1095 -1.6631317651610475 -1.7349387576302253 2.2744953978129883
1094 2.2845179934724933 1.4586327043431089 -0.6337392972789753
2211 -1.6724761209965082 0.7848028284331096 1.3470547776416597
1050 -0.764946412257739 0.7144103504800668 0.09754253121863889
1042 1.5808147466135647 1.2656074963767008 0.5535245519111511
1043 -1.1370882291475606 0.8797195769625903 1.2836043041794005
1049 0.4444899817844311 0.33969164481353603 0.4887733861205208
2212 -0.07757476045399338 0.7539195153962235 -0.5759066096951597
1093 1.9927031537003572 -0.34789704943718436 1.4001241541375893
1067 1.4256944004998455 1.1897370615155505 -0.25275895259998665
1069 1.240269809532221 2.2493041550719397 -1.1964423269531834
1068 1.2124048780480392 -0.481672201025658 0.733255557780083
1335 -0.6239758888217698 0.7964674272632165 0.25248869187416684
258 -1.4955739563150354 0.9988757021413418 -1.0502714360693652
1979 -0.88675026487788 -0.49353297107068883 0.19606905965670715
1526 1.0342468842289365 1.191760624012391 0.7342961145417569
1980 0.2851770914697988 0.9856546905792137 -0.7110348478600441
2176 0.136144224086261 -0.010325780287942279 -0.26598146050056026
2175 -0.3567951384703979 1.2430499634936045 0.945813796380791
2653 0.42418985018912314 0.21227043146830266 -0.572537052243255
1334 1.8929870024630322 -0.3472223790912356 -0.43332277051336254
1104 0.33977598712187346 -0.49606102879838876 -0.9497183802916779
1333 0.010188186751715171 0.04878961442477388 -0.22991056320931644
5331 -1.281975943986777 0.5099298399825913 -0.7783293576210502
239 -0.09600161194420759 1.1964846214778602 1.1047034515360037
5332 1.3624928876839544 0.7022204156059668 0.4556499021732961
238 -0.12719324290453643 0.6302233874072681 0.1796825941233686
5333 0.3129284116933419 0.42993009414284017 0.21492533490893823
1126 1.329765315416069 0.6920759196082081 -2.265331626720645
1125 0.04954234330385455 0.006294434615242812 -1.0289826994801878
2277 0.28167915790471465 0.17809324067151566 1.4585980094770015
2376 0.12166416451901459 0.7469402253251144 -2.245139639954654
2252 -0.45555055787498344 -0.4318483291046999 -0.5190634546955752
2375 0.02138017505402849 0.26882800394740225 0.35894552342008573
2251 0.1962164546434517 0.17609616924786964 2.2195369882354927
5334 0.7068413828335701 -0.4737871213186342 -0.10035553009822155
2374 0.2183122046970048 -0.5252804908682958 -0.6847061107421635
5335 -1.2828898103973103 0.060018754153942006 0.6327006001016918
2250 -0.5481341154196395 0.9236136293976895 0.5713382912646942
2278 0.2915687589366849 -1.404924028339042 1.27345148054115
5392 1.430551788019274 0.590613056231772 -0.7798051511567875
119 -0.74958686978985 0.5549802353095509 1.129788401356984
4656 -0.15305746258839958 -0.026134252031942504 -1.1079780382553726
5336 -1.8489518905816542 -0.43435218627597305 0.11640154642476522
2034 -0.19403003126406637 -0.2996291367311057 0.6640915302722342
4679 -1.1348060691059805 2.446946206363465 1.2100746954708772
2035 -0.38047014530957385 -1.0121053536551399 0.7803776746413725
2036 -0.7125903471756827 1.3209601702993823 -0.9168522055463839
1702 -0.6242743530293814 -0.6008718973110028 -0.9319373819466106
1188 0.3586636213262355 -0.7933134045524609 0.5044249490516609
1187 1.2495551055496656 0.23640823136550299 -1.7428992804280958
4680 -0.4383972697672558 -1.5755022527756966 0.6373265824419126
1167 -1.9669500435114788 1.128673899359663 -0.9906405853710326
4682 1.9627057780504173 0.9460592970915211 -0.7602121824685395
4655 0.10631485843277334 0.41048512826259803 -0.12291509747013303
1703 1.0243567728700254 0.468949857800232 -0.6822942008144792
18 -0.49521606996313927 -0.9347308374861893 -0.21494127705630717
4683 -0.040135611013361376 -1.138502698086763 0.2752237465727208
2307 -0.02690356517635684 -1.1491287346686507 -2.1804007767386646
2308 1.9424282041958465 0.03363745183612152 -0.4772569526371929
4681 -0.5961651212552629 0.0146504240317891 0.24883847904149423
120 1.0288758113050167 -1.0525603072879477 0.31799151930040687
1189 1.3371996208674148 -1.9124923643592784 1.2611921930473482
2327 0.42304758340948195 0.3241529545494977 0.47979760379320835
43 1.7681674995031753 1.393090130720528 -1.529438728738015
4684 -0.3052026973041619 0.26715330517432456 -0.5021755371394071
2151 0.11025961961839413 0.03234964172548529 -0.21649882959592212
4685 -0.5892376640425463 0.0617847130313076 -0.9861197011068749
1295 -0.029528279177304703 -1.4222384951902165 0.05646999188824432
1308 -0.20956348362541696 1.2150400782435846 0.3107381454665782
1190 -1.2745194495616132 -1.2712905926320903 0.036090483246101014
1296 -0.2356144788164312 -0.13609661165920378 -0.44340090030601936
979 0.06865864504689483 0.5210618649100499 -0.8170100534521919
1206 -0.00544281741871041 -1.5269627651740227 -0.6910563966874607
2215 -0.3499214169818868 -0.1957417436513779 0.6198601439126571
2216 0.7185548394773319 -1.623424877742235 -1.100238599392531
426 -2.458915337557022 -1.9306585624858228 0.4538602034051956
1207 0.1769447285293196 -0.1788443107708343 -1.0616674572901756
1208 0.11512274002071786 0.5613487161448798 -0.5020488834300137
1033 -0.34135206850237965 0.9297544521623071 -0.35114489235711255
427 -1.6745576622413954 -0.40086068406852654 -0.7675582670451091
2345 0.04821589068599729 0.7416297107042197 0.6879061818994798
1437 0.8728149972561058 -0.3352496879535954 1.0871982337825667
425 -1.136879618542429 0.6550971928585413 -0.7990277759851218
1721 -1.3004048969485282 0.11448704354016065 -1.110568328470963
2214 -0.2394448801802262 0.627262875640305 -0.9292199296922302
1045 0.5034794886869188 0.8803023298110404 1.0696707906454432
2196 -0.11348928948766802 -0.06781752959156158 1.7651947041634553
1981 0.5165057711223685 0.12787003184186524 0.913465176581133
1044 -0.44881621622740514 1.0722549945685627 -0.05894192433568551
1209 -0.08302608295616641 -0.7761370742091702 0.9370525605877786
2346 -0.048775402690862 -0.7784248563121617 -0.20102678057313733
1722 -1.524680351083752 -2.195526108351744 0.7418921627360572
1723 -1.043561977060535 0.3261225838971228 -0.2986563956085988
1304 0.7616314592117289 -0.45710663555899705 1.4492230620533029
2344 -2.840962633263386 0.2559883814333534 1.8089605257673156
2195 -0.31840349587863725 0.3122319902841235 -1.5657793373193487
1046 0.10769679418170026 -2.105692843917958 0.034932127866948715
44 -0.2984803887352552 0.06891601728834483 -1.2392697225979377
2177 1.3663366944960007 -0.5396598254372763 -0.36856920568617113
2178 0.1870347820270268 -0.7662763378338204 -0.9393508820118543
1525 -0.9824469126244971 -0.4919288495554789 -0.7078220119217072
1524 1.108527631812542 0.08116093961976793 -0.7108917504836848
156 -1.1188248698620837 -0.7762248750202466 0.2744706239465859
2382 0.203756239510144 0.42437756181108993 0.14208730625388014
2179 2.5708838000069982 -0.5638938178276004 0.531120847991022
178 -0.39101331472334316 -0.28996624053662756 1.3190474961248397
1336 -1.3605425343152768 0.2163916555124681 1.9503447789687303
5384 -0.8014478369238222 -0.05564331469186092 0.5957548429245488
2180 1.9324034087499693 1.144919488902601 0.5859334999307015
2181 -0.24365408587479426 0.6933664319682644 0.013666774373606482
2380 1.3711186518730305 -0.14119604748473896 0.2143355937580833
2379 -0.6086404348364952 -1.4346531821981663 1.1863423108676419
2381 -0.7439462200713846 0.3542635957188631 -0.7333259943988376
240 1.1796721039566025 0.9719956613709612 0.08726450040631772
2378 0.24888969797033086 -1.5048964625013947 0.7868907163646679
315 0.8676059883895414 0.8938571638132832 0.9548673512407553
2182 1.1659057369886483 0.1788723587203396 0.22533260341149183
237 1.6712001208583631 -0.1280088633936333 0.14741834412437455
2377 0.4046216765748628 0.023223326411476217 1.0487720855825926
236 1.0542785753387987 0.13824416771502607 0.3466699931102449
235 -0.3364812212048296 -0.10290585340942278 -0.301709165535536
234 1.672440570289172 0.1317281306997466 -0.37274075698606884
2249 -0.3733245401425473 -0.7543097483362955 -0.6199986845848343
1591 0.37966678686495087 0.2549412014618249 0.04712105212977223
1590 1.0629969506068417 0.5914569360523896 -1.7796958052319103
2248 0.7416305848245784 -1.1486391192549774 1.160567732380237
2313 -0.6128208319109744 -1.8051874789114077 0.6366001203592819
1425 -2.6389126096642808 0.8983872007732897 -0.4952863823267157
1605 0.04631257516601836 0.013547077163035376 0.05129139950163285
2262 -0.23033518327131192 -1.275561185104681 -0.001542682764759526
2263 2.9145446481371353 1.0895316284588943 -0.8647939054216026
2312 1.2183234526593687 0.7072273228150426 -0.32685213092875887
1353 -1.335822181485336 1.2274765566333616 -0.05306694954661508
2266 0.10457620814403834 -1.126195721798059 0.3170240547500313
2264 -0.15422359303619781 -1.0445242549997724 -2.5526254506189585
1361 -1.3942996386410922 0.12153467169984629 -0.5947106879808367
312 -0.13382788803448026 0.2691236805184148 -0.20633322262344575
2311 1.0232355139779463 -0.08965269210096892 0.553545349795457
1705 -1.1687092457241675 -0.9484282914200011 0.3240547120946583
1704 0.3702991054808914 0.8463590205044863 -1.7171932098013805
2310 1.4418416203124398 -0.5315799555552481 -0.6740988169713167
303 -1.03856799853609 -0.2007371721831392 0.554286006548393
304 0.16977407890611448 1.2385507402508513 1.30877327519468
1426 -0.5044528534679038 -0.6932348007310377 0.8703432198486336
1427 0.33506610593476216 0.7225948443147042 0.5731351915043813
2309 0.48980722971997775 0.06657736348788477 -1.1619457997874871
302 0.47165137941789625 -0.5735719469049364 -0.019192888890497882
1147 0.5926447074804054 1.286326619990969 -0.1952716478249819
1294 0.34088639398807413 -2.534989050960472 0.12506790483639013
1307 0.6010275448860147 0.6094371751080928 0.8320848285186182
2425 -2.0389989528312076 1.5125474198330247 0.16911306874491355
5354 -0.7513782700923292 0.6381752727470476 0.5810779451186332
2426 0.5858608156272296 1.771502295853434 0.937136157579076
1310 2.1172902769321933 0.3084635107817956 0.797321677311446
5353 1.7153898411842554 1.9815227453653406 -1.009358962385046
1150 -0.7881992983445267 0.18012265060940966 0.8657241310442839
1708 0.17253841579797466 -0.8048188736744698 -0.8138296842657997
5356 -0.012099601428354303 0.14849271507517173 0.3702213464578452
5355 -0.6675030935444948 0.9025152616310463 0.5027854382637927
1438 -0.07356950517161359 1.124932419716294 -0.26360527243358517
1439 -0.394395653473124 1.1011775133537791 0.9345588167219573
1293 -0.7295964999409401 -0.536839490508243 1.4782245827095135
2432 0.6672551661741006 0.1677502366656572 -2.550241008398232
1269 -1.1243196528686958 -0.7866465929372878 -0.3174122991699171
1292 0.39887326056029354 -1.0014369299939683 0.6368286171113717
1270 1.0830917333778505 -0.8192065498880375 1.1153534944977628
2433 -0.12106446028384836 -1.4610243983020896 2.2020750496836454
48 -0.7605436358446259 -2.265310806481797 -1.038252596468935
1415 -0.07995887917406258 1.3902686737903207 0.5040161203181518
1291 0.18043465368682987 0.507707841075952 -0.36593740154905463
1489 0.8708996520709865 1.2558533099453242 0.44671099380246876
1305 -1.354639994051453 0.8136574554548934 -0.6301315671791208
446 1.5100298434023305 0.18183100823727827 -1.0091158494052206
2197 -0.1449568178327146 0.017386971043475533 -0.434469440663037
2411 -0.5797499460542307 -1.7396183859422751 -0.144685098855548
40 3.644200276417827 -0.9212064435321443 0.18542891309691834
1036 0.04995935845963729 -1.0725493906290424 -0.3132332851753228
2410 1.1988404717238597 -1.5464849354350245 0.9054699342469683
445 -0.8231698018120017 0.627062837792831 -0.39661299088194046
2427 0.8603120614484734 2.1107054686148743 1.637112844408013
1486 3.5128973645246906 -1.0835593870922127 -0.36530267974826264
1488 0.5881673631106225 -0.4179466840554237 -0.685084034588053
444 1.5429802636879733 -0.3122177294156024 -1.33562017226256
1752 -1.0480527049504982 -0.7558237725321569 0.8632898538254655
179 0.4999131225143601 0.6078281741399709 0.0992180864319815
177 0.028683128218960855 -1.0106891324637859 0.3016493602534437
1522 -0.646803755014412 0.08809570088184723 1.4295400532731475
1483 -0.48952963965651497 -0.40864073669277495 0.3638500163266886
1484 1.044418729968179 1.9369168605472276 -1.0076811473525427
155 -0.5240448928739023 -0.6696315498630097 -0.6547081886434342
1521 0.043257715754996734 -0.09498630446606014 0.8485028011167333
1283 -1.502180905409488 -0.12393660934090936 0.23539300025544335
154 -0.6340597325603547 -2.0197755458303117 -1.050257051404229
1263 -1.3358396917506148 -0.697453696112932 -1.3217048042361512
25 0.08405398864897069 -0.9195182393454161 -0.016809887117407822
4851 0.1463235962182915 0.6142177505771962 0.9532778012225691
1482 0.4961517232367781 0.609294660708467 0.6904496409791128
1595 -0.3284143024854129 0.080406852785513 0.8819529786597434
211 1.0902555268971934 -0.7606111865184803 -0.11193491651323835
1507 -1.4074815375799128 0.4116103607491815 0.5943200974146207
4850 0.03796616015973649 0.02035113062927848 -0.21357805439022196
210 1.2063440069633338 -0.5459805404703989 -0.3044836099789125
209 -0.9154474328618307 -0.6316988803392485 -0.6476895338746251
1594 -0.7332328275076797 -0.788972374182283 -0.25156458472645843
1558 0.5942706370523498 0.04373268340117569 -2.3222087599820744
1557 0.020670805387679375 -0.47972795607842844 0.19437420375254771
230 1.2028689782562858 -0.9060536563973227 -0.968234735320382
1592 0.9714462307636831 0.22885063523632423 -0.19872206313997065
233 0.5059433955399303 -0.9125325919065466 0.5240748677511667
1593 -0.009697924556085556 -0.2985437954442052 -1.714901719851067
129 -0.15615508947920878 -0.25865625955685556 -0.23520794058740277
1602 1.1412067566184732 -0.5380767155125998 -0.7841937331484646
128 -0.25473118442840326 -1.0772592023594814 1.1298356229127928
127 -0.6410850104673051 -0.08218075960545278 0.6756836071164797
1603 0.36050855155657713 0.6336469564133583 1.7119614460104613
288 -0.4154808160246197 -0.5100737637114708 -1.7279770756194663
208 -1.8116986600755827 1.2858729013944739 0.5065641202548405
207 -0.5287827415202642 -0.5348608157949183 0.321713952556833
1606 1.4815134722810885 0.40117444370265404 -0.45342385989467465
1424 -1.0729625112839103 1.7480769173279929 0.01765541561386718
1604 -0.5503718045473752 -1.1173961999195192 0.8355098949621443
4786 -0.5485724160534788 1.2003190812158173 -0.3109147072851416
286 0.6241622479603922 0.09502416368747625 -0.30456627588599383
231 -0.15323479937075135 -1.0724829052305158 1.1985303655583641
1546 0.285491101357866 0.5948941348724012 1.1379574734530993
232 -0.14571259479199525 -0.4644765790366097 -0.18058945773442378
27 -1.2620640332333666 0.2742273988687976 -2.016330859553641
1423 0.48800230676633954 1.3777872361770878 0.2471955780739107
1422 -1.3738845943406588 0.48110275610259673 -0.9000182178578952
285 0.9908922930473926 0.4749136349526951 -0.3613016623620338
306 2.0151438406367705 0.9058991041466213 -0.5763240496661493
366 0.7278098548195101 -0.2741264539669455 0.23875160372500873
4892 -0.5998927749561834 -0.4804193040806002 -0.04657453241729927
305 0.44049011700254453 -0.07379905487588123 1.1607305152570488
1149 -0.8471450941844744 -0.9408798219319296 -0.1899019219062279
1148 -0.8164842999573056 -1.6532943697988933 -0.2851283487688552
365 -0.8766827745002134 0.911119634335094 -1.1563130946760223
4893 0.09168547562455627 -1.1173682849838675 0.02343667261156394
364 0.013086605049931874 -0.6028588861359891 -0.3833149415956736
388 -1.2817990459055173 -0.03416423709367851 0.2258501902055019
2424 1.127402204426356 1.0262139262395347 -0.12462064814591238
441 -0.5528114151607711 -1.3056874137816425 0.958581193142976
363 0.42362907282160767 -0.5039502609485085 0.6446710967648817
1411 1.7514542214715796 1.6017187955346894 0.9677372519335997
440 -1.9027739341846652 -0.17813121402480095 1.0078272773198742
439 0.07841859286283287 -0.5418435996372322 1.5481809127424981
1410 0.7648130160400952 0.18214858670949838 -1.0130849683113712
438 -1.1765887599038272 -0.1103103776208765 0.8369084530124583
362 1.0602671430812174 -0.5676176246641873 0.6362963956859814
1695 -0.058804578218809835 0.4171926122300962 0.5302693627546512
1414 0.259428682487027 0.8451015634906272 -0.3858076410163516
2423 -0.4627360594692045 -2.627018897080759 -1.0607114556257302
1412 0.8996196103097936 -0.812801548690634 -0.47231348052651057
359 -1.3571768162290712 -0.5810660661047921 -1.3217786507394709
2406 -0.8201786627150671 0.7893692559712203 -1.7920472016968938
1413 0.15905880569587957 1.5655924897812472 0.2497716616425432
360 0.314825935017075 0.5004358527144854 -0.035180527525925126
1268 -0.4559450022393506 1.0762436341408983 1.660987281740373
453 0.4508840468578199 0.3355373830311602 -0.6788499797871901
452 -1.5616256297616113 2.510940758977678 0.9588939285451856
414 -0.18523743451514094 0.29560837485450925 -0.9384075190399582
1490 0.8431761213700539 0.15901484039557853 1.248495912275349
1523 -0.6171533004683517 -0.022500081561408494 0.19061563139793014
1485 -0.575173212201379 -0.3354423958274351 0.6359502929309302
685 -0.6384443592399053 0.6701779313997763 -1.5974418142034013
1660 0.7003106875642681 -0.6437181541149011 0.6298148637845942
1267 1.1387654238385434 -0.5795917773452768 0.420592352977315
1487 1.7724521766445527 0.15946181329217896 -0.6380792818994377
686 0.5534111553247348 -1.3733461587815057 -0.6749676834674808
160 1.6761760698472263 0.9534350025215939 -1.1814829881478726
1266 -0.21210854557222814 -0.6313271139727107 -2.220964130372483
161 -1.7752372665810905 -1.7620351783191246 -0.14397512612850938
162 -0.3592759542832423 -1.2043852274486195 -0.4956351626444133
454 -1.4111052805741606 -0.4822484237333541 0.07011181796126185
1264 0.915330230027496 -1.5155069942904114 0.23421323547838305
463 1.8051033694579528 0.28852836348992095 -0.0776052179497566
1749 1.8453839051625673 -0.928417088440441 -1.0224445438637138
2668 0.4711635521280998 -1.718140891030645 -1.0092910716363572
2669 -0.5187131909775701 -0.3041930310834984 0.3061699097024352
1560 -0.3898209222352095 0.49956494014283637 -1.019257207217647
1561 0.3948046978207595 0.5867174465008833 0.7925293171985642
1770 -0.34160764566755564 0.03973924991243236 -0.8194482569935932
1562 0.7254722020344107 1.0108190166847077 0.7881617782676374
2670 -1.6989215654273828 -1.196334980545622 0.3232673423534111
1771 -0.500957093287383 -0.8784980629709387 -0.7711781912683614
31 0.4438250632620065 -0.48566951832533145 -0.42931663771432144
1578 0.43172288235409284 -0.8139862149061425 -0.5714085656364288
1622 -0.2808075860979856 0.6014133284306717 -0.06557145378439924
1620 -0.3233119734578041 1.4381297257247692 -0.3624085502146562
1621 -0.2872723792581658 -0.5280306811277126 -0.15959973939308592
150 2.538975348061458 -0.7016407179939614 0.787493288841606
151 0.7221035168437115 -0.6351789859568607 -0.27261921688247454
1596 0.2718130528199515 1.6139311563939551 0.6355107030985718
1807 -0.1272122388738897 0.7666026270783383 -0.6309283980022182
2671 1.1912241105400538 0.06928970031372288 0.5672960221903504
2672 0.45489034650092464 1.1107599213375652 -1.332442905122383
1576 -0.8096293265170139 0.6022957034482929 1.0006910814937797
291 -0.34201538570839907 1.4818326708659761 -0.551076656042367
1619 -0.15927686705381233 -0.6994294877358902 -0.49805260659517353
292 -1.43388545406205 0.3174629596525169 0.582132749999739
1537 -0.009868514745843205 0.6150679877129406 2.292765914295743
1536 -0.08766400417341337 1.7790988447361802 0.25383094850931737
1618 1.1584373931231986 -0.04741845697809114 0.05860002309289526
293 0.17688749980344765 0.7196541339374506 -0.1722872082694856
1538 -1.3707505057396232 1.2362010613354346 -0.534535088858213
1554 -2.1489711636981963 1.2616709495701424 0.39909496410032674
3519 -0.547187314619076 -0.836289763397249 1.2607119329313519
1535 -0.1769339744563009 -0.12576353239196303 -1.0685696943606688
1876 0.4752526373698044 -0.09933093647344149 1.4429639889187227
272 -1.8042212715991899 0.5744378329459885 -0.07078327728304049
1874 0.7418623863687029 0.6736613514912042 -1.0647242916080781
273 -0.5144286797319315 0.9449381410501779 -0.9392516455823363
1875 -0.22055417858768697 0.285264562148145 1.0129465351674993
540 0.36851537054259315 0.31413379574476646 1.7868205567663
1609 0.9936975642344972 -0.4641164274122274 1.2109205547168045
543 2.066586929917792 0.3843760516727124 -1.0044457962695026
542 -0.15309950313501547 -1.2956489514127998 1.3603977591385372
1873 1.0783414263389146 -0.05180388447595299 -0.2619403074175485
613 -0.1484819982038118 -0.08522030998834337 1.531125196449901
275 -0.28425625469058585 0.398628164705208 -0.5510650131793471
539 -0.9420438000247582 -0.2565989429003876 -0.11140860687357672
538 -2.078563110281787 0.3455034463855676 -0.33591813903093143
612 -0.4447296517572383 -1.5019861709107987 0.22512528664805054
274 0.04025639586774301 -0.9517392436212734 0.22259056566601496
537 -0.6993907349094524 0.4507374013186778 -0.7132920668314625
1610 -0.8457245537266141 0.7865115546670374 1.1202547573791692
1611 1.3217213305440312 -0.41091172992571406 1.17030284192233
1890 0.4652040230019984 0.8610971736783779 0.2825669056175842
1889 -0.5212339949093934 0.8541851635721588 1.5097994397201722
2609 0.7752873406929477 0.7484823274474062 0.3664537106866344
1494 1.0075997810203086 -0.5699603758334353 -1.1709618979112184
1681 -1.6168751849844853 -1.7539730984189839 -0.37389153353357224
2568 0.6928457941734345 1.0029310105422025 -1.645228778554585
2569 -2.204840415382556 1.2683400614520792 -0.9345639859789754
1891 1.3724177723082094 -0.7597940884518284 -0.4961977721225907
1682 -0.9367737183511162 -1.3323304009956791 1.274415327182131
1734 -1.3612467033086846 -1.0579387387286174 -1.481354413584945
1892 -1.3665383025655329 -0.8821451649305796 -0.4539188689931936
2570 -0.8707073753528025 -0.5242570855259772 -0.9200925398215233
1733 -1.1932269419135904 -0.4361098351892641 1.3574254523812788
1732 -0.589004289162928 0.40576336203178204 -2.682692188223
447 0.9481819241230306 -0.10350681905841469 -0.30095099138173553
695 0.7588432000044308 -0.7641266759411345 -0.31410735218196995
696 -0.2794987427025372 -0.3995713735638581 -0.12071288657749628
435 0.6696825165072784 0.16620252938772614 -0.5821309938931902
436 -0.20930375659403153 0.6706104280533084 -1.0175969660512925
1731 -0.18070617507498823 -0.8419579960159375 -0.9269508923545208
2067 0.2978246561326379 0.26340052516881035 -0.35076578650406887
2068 0.3775349385434153 -0.1817453615835653 0.38103842111045116
448 -1.4681517107447617 0.0609136827740341 1.50049944781556
2536 0.47018600213246026 0.6169474403945597 1.005438496370297
419 1.645122162874391 1.816639967310859 0.44934376512175944
464 -0.6301860088788356 -0.16630560265134123 0.7599105383292609
2667 -0.39870424524448494 -2.6418788510008224 -0.8966651870703963
1769 -0.6689817289868829 0.47963609147337066 -0.12823605680059896
465 0.26324572853216116 0.4427823549944521 0.20790785079562923
466 2.125010036193449 1.8037691076359972 0.3614980509595419
2723 0.5549134380856371 -1.8358101591700877 -1.000666221895171
2722 -2.378554968678646 -0.222370423544163 -0.9244409388154967
53 -1.732949939440006 -1.7397424229911267 1.0849897403707445
2742 0.15799892573468077 -0.1274283881446824 0.39851277602397356
404 -0.8370513668893688 1.1806432038383157 0.6419331775439998
2692 -0.8263009125442793 -1.7033964943237345 -1.5966953747949464
1927 -0.3928523104338518 -2.1597770367558664 1.9080436065551296
2715 -0.2962509556764317 0.27146831471784105 -0.38123837923700726
2716 0.09957080496562665 -0.32766187943073233 -1.5736793493891763
741 0.9846421497021604 -0.9480001816210302 0.36975911547165313
2714 -0.9795504357062274 0.5094717220542962 -1.4556004110339165
1462 -0.7419158501614969 0.6478347644810644 -0.06446915573513937
2713 1.2353842140183315 -0.45281544751360414 -1.1956949277872126
1463 -0.14467315950134255 -0.30938358623015044 -1.069403321876732
1464 -0.8263428677919454 -0.23172184846486346 0.4577072238861784
2712 -1.2567748259534064 -1.7065392575560685 1.470744116811647
1968 -0.6605471913273486 0.23824707068992468 -0.1092495524261046
1969 0.29665006373420155 0.07963026744699704 -0.6902852104667089
742 -1.2004360078173466 -0.25380676239489275 -0.5240272289128147
743 1.1353666192535394 -0.7810844697338546 -1.5035602078532648
1563 1.8403627777413218 -0.13896441390412412 -0.5790658944724808
1808 1.0381630419163614 1.599367376666064 1.8217953830669122
1581 1.0821035915122175 0.2051506203884693 0.5416302030102457
2798 -1.6885520164031311 0.07672285870792317 0.39911283163317945
2801 0.0069580706079904525 0.5591557054019917 0.5922303712688286
2799 1.6973880107910984 -1.1869557730183893 0.571496514327841
1809 -0.5832031665061855 0.5094269444023805 -0.8059891275929576
2800 0.4818540941868791 0.36455428530180867 -0.575104964857917
1555 0.8287473320085602 -1.2621890118608747 0.309086626651181
1810 -0.20151609390984182 0.6848262724066806 0.03757427579351898
1539 0.9186440619422612 1.80019614715454 0.6090220190704153
1998 -0.0194484704500037 1.5178309420720673 -1.1040589921952098
1553 -0.538860368060104 -1.1530008592283127 -0.9301317487363786
1799 -0.02940978398720724 0.7382317097094181 0.8554222543117075
1800 -1.8585509864106284 -0.7358266025790692 -2.3016367400017197
1552 -0.9363871511408317 1.6018828597581694 -0.20576931385025232
1999 -0.38494063848865034 0.14548329898757176 2.405920284277919
2813 -1.0314292444538196 2.8195640536128614 -0.29329083329642464
2048 -0.3080258490645122 1.2348255126152412 -1.4464007318596461
546 -1.3690946973420435 0.6185935431186697 0.1810602182804681
545 -0.6597379972874792 -1.2179050550876294 -0.16839617570400167
1801 -0.7359872623906508 -0.5681896620623254 -0.05877571848506812
2814 0.059523673292659805 -0.46115344589834817 0.6423332699211431
544 0.2916796782197515 0.16713051535418266 0.6144011131320104
1872 0.610866333459871 -0.15186021439467204 0.7627562515708525
2047 0.6525520022193474 1.321896264356989 -1.4006287441571936
3022 0.08870497853596199 -0.237054332042989 0.6471270327238957
611 -0.17919845445166582 -0.6987061984324783 0.6490201199012595
536 1.8533712952331252 0.13976505917819357 -0.38100025461186465
574 0.08842968291513842 0.5525355571189985 -1.2079341222979392
573 -0.4671978046443233 0.8241525599604257 -1.1064124709599539
3021 -1.5389575561847015 0.11651052902419057 -0.06562028125579702
948 -0.8337319134053321 0.2508503367023487 -0.2509561655605182
575 -0.4989114618689827 -0.4246427540602187 -0.6952876476519209
610 -0.03479472500481535 -0.7225540379877554 -0.062002504642591084
609 1.4254256687593425 -1.2102155818142517 -0.7081120683960922
1858 -0.5216287842153831 0.28307528763825013 0.6696240226914154
1683 -0.6761628143113041 1.5790579366498165 0.008020437086017445
2608 -1.391050868080077 0.26128003973067065 -0.5192041790626662
535 0.5829552241659022 0.3349481581870852 -1.4277410689692078
534 -0.39376657885224653 0.15799015851798492 -1.9887046730228308
2114 0.818808038251416 -0.6524854915087354 -1.7477303748245747
2607 0.29128411272280286 2.270534124339743 1.0499534148446705
2606 -2.139998473685803 0.2383716824508066 -1.3126172698304022
1905 -0.3655472706645289 -0.5473324466673833 -1.4830750860498818
2115 -0.25781313847685344 0.23271521135530396 2.973504194668914
1904 -0.6336783079600515 0.39589583978165616 0.8705713899265908
1678 -1.1689755696257689 0.37811213251000547 -1.671549725453061
1680 1.7836031032144466 1.0099324254434194 1.5166200188669055
2069 0.807234558285365 0.3400313087557549 -0.2450520112434217
2070 -1.7504139418050395 -0.24083853354812879 -0.6444621078221349
1903 -1.3170148587764006 1.3850802698059477 -0.4585205589312773
401 0.3674611351046537 -0.02157947246966898 -0.8501346744569711
1917 0.5570556123579647 0.5459485358140578 -0.21098254451873547
2605 0.7305797474186863 0.121268901459017 0.24231278567478828
402 0.9879156257077534 0.2607479556248888 -1.372749193232839
2604 -0.5939853418008525 0.44026312909272924 -0.8546980192140227
403 0.7358299869000348 1.6957203345218848 0.8926326364666686
921 -0.33519364557332076 -0.4725344428858565 0.4217645249110964
1931 -1.2487591852777213 -0.8802723527141085 0.24908563607888656
1956 -0.5473326542190341 0.43482922642605537 -1.2063456096092915
1955 -2.062138811569837 0.5041952752878371 -0.04047698438125273
1767 0.8862222013931542 0.24342659870727082 -1.4434277752461415
1768 -1.0992649208492462 -0.16934725121387673 -0.05825409499276043
2743 0.326760773393014 -0.5315642636419663 -0.57120482457075
1766 0.11906881344498468 -0.039575296984356474 0.501511364624849
1765 0.15858010347805662 -1.2799917986579048 -0.6798287172245528
1929 0.00708304922221031 -1.0516543170359491 0.18700243489179721
2744 -1.747309695430172 -0.3342990157994723 -1.5888930187977142
1928 0.35157956198296275 -2.650946559505328 -0.8951187613469788
1930 -0.5816585130230144 0.14200378821545817 -1.2631041564802155
2160 -0.8230045636062573 0.3540516327731359 0.8583412464639197
2159 0.056707607237719226 0.04550258881238076 0.29537546881594
2161 0.960657346999335 -0.7912876267524196 -1.2381328785449075
1970 -0.13183237265197736 0.290777709827763 -0.5698861017968636
1971 -0.5162040184369124 0.9645759914832458 -0.23157966841676095
1788 0.8559561254000889 -0.39066939933096817 0.8598123070998496
2708 -0.5173799430453639 1.2430441310913123 2.4550770359027854
745 -0.17265985233966671 -0.4885494231065731 0.32368607067933214
2803 -0.834396034647851 0.8085074557814762 0.6699679523286677
2792 1.659830744735395 1.984612925641897 0.21575803406021432
2709 0.060853675349807235 0.02192108894140138 2.069512849696949
744 -0.7238230866950651 0.352484299451433 -1.0100869628363045
1811 -1.4668665024234786 1.2719634313486674 0.0961556516075611
2797 -0.9062566928943954 -0.23416311703784484 -1.7410143352388026
2790 -0.22405700152530306 -1.6984988847348905 1.3643938812905398
2791 0.2024569908224817 -0.47235585457775553 -0.5187713657466997
846 -2.255770424805915 -0.09261533511474045 0.39359018012709557
1827 -0.7291969706448461 -0.5547077304003001 -0.4673391545295651
1852 0.371390688197892 -1.5637122973829753 -0.32836894322091603
844 -0.7488449780376233 -1.8463727041255624 1.4211979907037098
843 -2.47193500087023 0.02175443335468333 -0.14183645180785115
2789 -0.030037207960526027 1.6532260827652068 0.7869175871934593
1626 -1.7506367661836237 -1.1009503626095822 2.02351191009288
2788 -1.6779472288857764 -0.828159317630084 0.5579262242454083
3034 -1.7443890749673878 1.033795519068194 -0.3979870865907363
32 -0.4862808259311884 -0.008282518833728979 0.1960772392506183
586 0.399319914818667 -2.2062425525804366 0.5273459006139458
1832 -0.919218294221709 0.7542899214407185 0.08068564878589733
558 0.9530676757478119 -0.4289875123596487 -0.1511904489097372
3091 0.8092826170875954 -1.469872570969183 -1.4050774737491627
1833 -0.2874450297869659 0.12536516401680284 0.37044313432091547
557 0.03352156593025168 -2.0791376149023284 -1.041034274313662
1853 -0.2214180009342053 -0.3479393938109334 -0.19978315249409428
559 -1.8148353630459793 -0.5040920740403896 1.579384689237868
1854 -0.09009036083870152 -0.4730663497420114 -0.4489033841628147
585 -0.3330737706784746 -0.5110912797904136 -1.4236613436244854
2045 1.6107247321047904 -1.7038788184833535 1.0962029130662383
2046 -1.3685199960455783 0.29703502216773375 -0.3304199075788812
1846 0.9557760316133964 -1.6127958926361368 0.8680295908383758
1855 0.9735705002146517 -1.190817362243208 1.1248560641213734
1847 -0.29818240556035186 1.039331337759457 2.2507051054397302
922 -0.06334408209893334 -0.4920003956228957 -1.0001660343074235
2043 -0.4153164593400776 -2.0428809237660084 1.553559872696762
923 0.02088671686130177 -0.5212255457070402 0.1291458315549202
1845 -0.11046519620778528 -2.1874488882650565 0.0030338464339507787
608 0.3284156081780135 0.23105110454011168 0.5973685549760053
947 0.17502936430553415 -2.392708939040971 1.0434338003856567
1856 1.0737279054132236 -0.30318857337683214 0.2957709684696856
2044 -0.26438807380534796 0.4237447707011857 -0.8776534930824015
13 -0.8278804003101294 1.875267827293954 -2.731496923018161
1857 0.8537440237935519 -1.2370850894977259 1.5225330744522854
897 -1.0308249059354389 0.7049571690045834 1.9168379694151167
2057 -0.10369321061453068 -0.39126193414899796 0.06212787561089105
898 0.24964846705615232 1.1632899799825447 0.6039187531121328
2058 1.0921045057428156 1.5502872418974505 -1.4757927838492735
899 1.3985206314924394 -0.7168147431915002 1.185721265208815
2092 1.1621356496790958 -1.5489400280671886 -0.6899388414543411
2042 -0.6695628204220986 -0.08436147035285707 -0.06751499818231729
2090 -0.28240538531274034 1.1655501541659308 -0.3024847903781512
2091 -1.101711045987895 -0.27571691568008744 -1.4849321060740934
1936 0.03553211237122578 0.034896206985699854 -0.989335102541296
2116 0.10207205254052949 -0.08764438676720641 -0.793709725081925
2138 0.00930633356290641 1.2019711347812856 -0.613226409176863
2139 0.9428463111824301 -0.8093229555622315 0.6491351744504595
2117 -0.42790058553146715 0.2758056545201617 -1.7053631888956002
1935 0.4661083980989931 0.4949938667661673 0.267090405069465
2118 0.24688576700820225 1.6770967641034884 0.7204995557544269
2093 -1.7447834032549046 -1.1173578047456554 0.7052902478590551
2140 0.12610443327141785 0.016561401384434012 -0.4163856357014413
3163 0.40439960138122594 -0.7460991694331937 1.769655793426565
1932 1.6789571974673037 -1.8966144430751934 0.370722342002937
919 -0.3061044655852925 -0.15940797220188074 -0.15754113973600053
920 0.7485232360928082 0.6473824609088049 1.180939048948541
1902 -1.6741929603461252 -0.08048961193890948 0.8647215615795071
1901 1.3053178800065612 -1.693182579283702 -1.438647205473307
2076 -0.9970900373549746 1.8194059615751499 -2.1233107414836616
2166 -0.09354563193508565 -0.7153873018824033 0.7889187806985332
3164 0.1719001075819719 -1.0989756333957144 -0.3421418634736523
3991 0.6929494316998632 0.31655558985654036 0.8297143072771186
2165 -0.39250927263993723 0.2161951798775353 0.7983291688148814
766 0.19912829445797317 1.1509540173792265 0.2216481078522828
2162 1.044496786570619 -0.7836701221482371 0.3748998527116069
2163 -0.29160405365558756 0.1899147314090069 -0.9837567497115106
2164 -0.7034050053026171 -0.4759185058671076 0.8336676551881351
1764 -1.078265521874507 -3.2115431267805596 -0.8704810290694346
1961 -0.728110387992141 -0.30373726114739685 1.2787140982297271
1960 0.5625730058837637 -0.03972167991298513 0.5867480929277357
1945 -0.4565335288843564 -0.2341887785364096 0.3688881617934641
1958 0.02749324852370722 0.7049485797924103 -0.5299085299333135
1959 -0.42088094466799203 0.48518780786742227 0.14166371619445198
2156 -0.6042436582074219 -1.282754725423313 -1.5004413202452485
2157 -1.0611275943886678 -0.12009166726193464 0.5963741025551913
1789 -1.104150600971846 -0.012446013724850331 0.21956034174322694
1790 0.866242134039855 1.6370401050414285 -0.8721834924182541
1974 -1.3345127192707502 -0.08949379056232626 -0.3898909637463767
1973 2.743816336487885 -0.8332847680064123 -2.24432981116836
1972 0.47559592809248274 0.6955293337539443 -0.37534865575251714
2711 2.025745756979393 1.0491980557583382 0.24525624259324078
58 0.6846476738377466 0.6920799438154024 -0.30761768017087693
2206 -0.5347223634094186 1.1539442478408004 -0.11718513981242719
2710 0.6852258839757835 0.6383960200629615 0.6808690096625758
2363 -0.5628338027859567 0.3886724122149884 -2.4172356030525326
2362 -1.0130945934895526 0.40691891975760414 1.3672842805745304
859 0.3330533405166926 2.806589123597795 -1.107438729426195
845 0.47557158568180413 -0.333637530283629 1.6310986082088654
2158 -0.0418646132685292 -0.12666448741197753 -0.21570903792263038
2793 -0.33598446726036174 -0.1761146892204741 -0.103159973923375
2794 0.9939408069615199 0.3516136160163356 0.8470530808026311
2795 -1.0276112288479156 0.25118947465352703 0.3612676225071563
860 -0.42995500569826933 1.8521116713969719 -0.704433276802147
2982 1.0400124754395157 0.4520312611469205 -0.7219527456570395
1988 -0.6415424619812331 -1.508438108792079 0.8915946752064171
2361 1.2793157885743907 -0.5939771246144115 -1.0408765726732154
556 -0.5840237947656638 0.3518542140940575 1.2100192893053723
2796 -1.29929425215006 -0.26163176911606145 0.36638744014324165
1834 1.1216185391991367 -1.977024380209095 0.9967812407313922
3057 1.8387781391461409 -1.07302716611914 -0.33659579419591273
1989 -0.1159277020062206 -1.4138774799418639 -1.0633766735496522
1848 0.23121829181943462 0.9118689877274362 -0.24421868056106452
59 0.37962830521436053 -0.5321191781060156 0.08905061215598842
1849 0.002674648845901269 0.3534582806307562 -0.4533124401419218
3056 -1.1503550049602052 -0.30120598456077874 -1.1075253874903657
1835 0.7462987579000159 0.1927178690064444 1.7491168951836475
830 -0.15910043736398558 0.37236188369161105 0.5488832310019727
2011 2.159768962097871 1.3939734442619438 -1.8378326673273546
831 -1.6506314751471025 -0.5813209994546934 0.16740560141520444
832 0.08955778655100571 -1.2916041382571917 0.4788273127436435
3072 0.8816487059172505 1.9196145645793476 -2.51994429169918
1850 0.06479619275727212 -0.28561686513927503 0.25641056305823207
3073 0.24250074474758893 -0.8119071665502758 0.2594049708048336
924 -0.8477437271187384 1.2838332066136326 -1.2671619576030921
925 0.6438070598823072 -1.1596682573831976 -2.3689170105717974
2856 -1.3912127975835638 0.20915071270946994 0.4599477385820164
2855 -0.7023608384541489 -0.9352386745922385 2.236951144447683
3083 -0.438197139314317 0.5805337822495069 -0.27146247902910664
1690 -2.2306653964082575 0.10926041070596519 -1.3948738227488024
3082 0.39359136795472205 -0.3253248013319163 -0.3611789628612394
2041 -1.1771852873613575 -0.6021431425525514 0.7785311197565339
2040 1.2188569621879162 0.7004433860848862 -0.5999159206647219
938 -0.40946250555378466 1.4721783248156046 1.5963106680292092
3071 0.34108663360109914 -1.0912697129900717 -0.32337931774291057
2119 1.4089755299051745 -0.06037735506468674 1.3629491941253875
2039 -0.7102905329805971 -1.8710445699542777 -0.04062748862205332
1900 -0.03387695709478518 -0.7227038998408541 -0.22632986387624282
3161 0.20520172414812946 0.8470001477187183 0.7255906721036502
3160 -0.39295643457454094 0.25891678254576855 -0.6430922033680839
937 1.3983907175021875 -1.4442681293368187 -1.842423018440771
3288 1.2746606013430462 -0.39756095128882024 0.06050576578472139
3159 1.5237420948259812 0.4107837123499699 -0.49156132660770996
3287 1.9216153293077995 1.8133233483998688 -1.0078821008032282
1898 0.1541271153332623 -1.513846276875634 1.1449854624929912
1899 -0.17931747315185445 -2.012312991083552 0.8605885053423683
2084 1.8472038663415298 -0.2731161442021221 0.32955141758303347
2083 -0.6234668803411395 -0.36373842222908187 -0.2979348649123769
3289 0.20040495627538915 -0.42447217427435596 -0.6092463341556051
2082 0.8452492270681098 0.7546234449806171 -0.40860985340761713
2080 -1.4357492025343572 1.0773310626414094 -1.1283120507645257
986 0.3289871413236711 -0.13528739996507816 -2.3831404538246446
3165 -0.6482574945504748 -0.44346179555044574 -0.7596472735992733
2077 2.245944950860623 -1.146366925870378 -0.12501864105502114
2078 -2.2861633988116057 -0.478386134527195 -1.7286932192063895
2079 -0.8820552966539997 -1.2945751527053042 -1.7866119286722106
985 0.13091491352816562 -0.4458463537366595 0.92353860522251
984 -0.5128147432899556 -0.35551890841786105 -0.7329661366231383
2335 -0.38651042485770776 0.35950824544539245 0.20552633455710637
4041 -0.7780930788313905 0.5600453161920594 0.6699606948285894
2207 -0.5322994839488574 -0.6763976917674823 0.24307758342956576
2227 0.08945379747312396 0.8947650674482572 -0.3662126469522213
2208 -0.9610940596255292 -1.233221715570128 1.3839746685035306
1957 -0.38277160744549255 -1.3583487371255916 -1.9932395310880666
3166 -0.5078492882678896 0.0005349374863639102 -0.6572704224471968
66 0.7909981571158503 0.37584100149635674 0.8717335149139352
3337 0.5977592726403906 -0.4464471720032217 -0.5642621648377393
2153 -0.49364866106132 -0.29099895076649 -0.4208876287735716
3296 0.5396861992560641 1.277310005825271 -1.56229136649715
2228 -0.1043193799845734 0.6040950430390469 0.9289409194909188
2338 -0.0030197189248240565 2.4753106792613577 -0.5769012532464091
16 -1.870557548395348 0.48496408115237516 0.6188728957262031
2938 -1.111316639780492 0.5061834116605103 -0.2794476112391055
2912 -0.22102262116182028 0.7034723881551131 1.1852703360085097
2937 -0.08718209763025828 0.41071714627176426 0.3487819121717216
2364 0.6933698932173579 1.0686397958351765 1.006408324552108
2365 1.1249041547410275 0.11357799835568912 -0.8729667474834064
816 -0.8606304104435439 -1.24147712203986 -0.9918393183932915
2203 1.2818833554229303 -0.06664127665536405 1.538519946784194
815 1.567628073926118 -0.627525302082813 1.4024901224322752
2366 1.5416979249078036 1.0250675335304067 0.4925257387281571
814 1.3686054467897366 -0.9507571464625533 1.562870632275698
2202 -0.273700721594584 0.20162794048007038 0.025420675583583206
2205 0.19326359408005372 -2.1172321360807898 0.5485763215880287
861 0.5285135278351092 -0.8477380599459294 -0.8032234491848522
812 -0.8773560317424514 -0.13085033598361484 0.15318789373067176
813 0.8947935329116685 -1.0255091295785148 -0.8802922974536495
2273 0.5566057857970703 -1.5269740991188487 0.2409771855213954
2274 0.1868553027759234 -0.25460783098093337 0.06045753657814934
2220 0.9602745692271732 0.4474004672532366 -0.7541447600960614
862 0.9019893502256366 -0.5242417763201428 0.09351414203989275
2219 -0.13817390977040023 -2.4350805137238214 -0.7871906907896766
2272 -0.0858854270242914 -0.31571605470747405 1.855585766520479
2388 -0.2940471470412922 0.9799348932282346 2.0214029483953246
2962 -1.5960524254701454 0.9628416998955988 0.1342489270754114
2221 0.6219525308533405 -1.1453033318068142 0.5297747485781721
1987 0.263225087092197 -0.10330694149855241 0.8973866402610327
863 0.5918445273872183 0.19851607612620734 0.01008772422052665
1040 -0.12821379068922506 0.0032738822518318124 -1.5981033872188182
3055 1.682762504155393 0.5733230599513365 -1.1081502731547426
1374 -2.1281398893285877 2.241310831876075 0.2680214744543738
1041 -0.9533034656034979 -2.0022852534143167 -1.3978788508146278
1373 0.9097678487269109 -0.4326674488468332 -0.6174429445802668
2963 -0.5874083403798119 -0.7040350126671879 0.21231779424793584
864 0.35386539815380674 -0.500455135044399 1.3610493564633235
1372 -1.4458552847837933 1.3927239458061513 -0.6676906261347166
1375 -1.5752620391119 -0.10304139843725006 2.191269863300059
2254 1.1772954177404151 0.3072328464692219 -0.6277943421860944
866 -1.0138835914567106 2.5805794366489776 -1.0837478072003217
2010 -1.9158423032053413 -1.4078172755802858 1.0408795454078135
1851 -0.9254179670516058 0.7683610189363225 -0.22957982017891126
2257 1.3540867363023583 -0.8059799479979239 -0.026379626435362305
2256 0.8114948905185538 0.2367441423091538 -1.3644266551848472
37 -0.08586187763188445 0.9222399456463097 1.1998734060298732
2007 -0.31123429414796977 0.6176904741076962 -0.09904352061950233
2255 0.6100666826915812 1.2638002604506555 -0.7254189222001535
2008 -1.5016845494964413 -1.1403765746080203 -0.0866402564317252
2009 -1.273500207186349 1.4245260289320294 0.982212513424832
3051 -1.080732300516705 -2.167161542390462 -0.01058629522662928
3050 0.2044314481654955 0.5153298381141995 0.1973762108283864
3111 -0.049032603794435664 0.2886682793267733 -0.10975593984024024
3110 -0.12726636269836272 0.5682991972538731 1.3506419922316335
3105 0.9119330642826461 -0.5777971489910947 -0.6370930465359611
926 -0.7613274676628342 0.7785593340353723 1.1785066538669755
2258 -2.5017674408677806 -1.659109471207303 1.0347183893625285
3070 -0.3159686668377611 -0.487815018073429 0.14685473607555666
940 -1.1256209195502078 2.0953124202451097 0.11645335211672181
941 -1.630048804537503 -0.050395036354119495 -0.6075458912270844
2259 0.16283953724724384 0.06286051640303986 0.45053662882608236
3106 -0.3338806172200312 -1.645178143249194 -0.36695439867863366
3108 1.012021280497669 -0.5993193737976641 0.3020124246272121
2260 -0.1317655918805279 0.566738341721253 -0.26365376773926874
3069 -0.4664612726589851 -0.5359491024465071 -0.5149580028683285
2325 0.73976989636325 -0.0193760796081337 -1.1357379208958305
2332 1.0452391055855634 -1.5764855752933336 -0.23869745976463608
3112 1.3373492831750395 1.4011328796275155 -0.6462253434987382
3290 1.1516284453492267 1.6789206244401658 0.725069649677466
2324 0.5103150276519098 -1.4824542312481002 1.1635011779518742
2331 0.6176918528509872 -0.41672572683256814 -1.5986030523838712
2333 -0.18543490941314394 0.2792173481009787 -0.4564752238297331
2334 -0.3414651479475251 0.2506045422509329 -0.22381115604793064
3114 -0.5307564688137253 -0.17469875884800534 -0.5369603627059298
3113 -0.9002535537984657 -1.0439987566158049 -0.2593493542137202
2085 0.5351564430100508 0.06520852119949025 -0.8934089520847636
2086 -0.27121940959806357 -0.8661672724095383 0.4303950612259548
2150 -1.453792588140402 -1.2256144649911211 -0.056262072437714576
1203 0.3741008755390172 0.9517023905051614 1.8336029825819251
1218 0.8968698371073112 -0.1788657281141577 -0.6579610059095496
983 -0.0362337308155248 0.7519997948735474 0.8206666999666697
2149 -0.8038276403227756 -0.02201764299123315 0.26540809148170164
982 0.1715627047288944 -0.8838020974300412 -0.2765515349244325
2148 -0.027457857736808523 0.043327158063872856 1.3615241085224183
2147 -2.0348171676801856 0.0077432255198652085 -0.9531480736921162
981 1.795689941440536 0.5759707241749272 0.07959320742080234
1219 0.1024225582282481 -1.072325207499703 0.6834947342152545
2194 2.064655965102675 1.2381265587622061 0.5431482865274592
1092 1.1045979606451277 1.234786463507231 -1.0741437996813963
2339 -0.5898930784158237 0.5692784378885323 -2.0020275981547204
3295 -0.30503310589975957 0.577721100642411 1.2844505624582792
2913 0.1529492280054217 -1.6412800435131225 -0.5829832070589653
2193 -1.3177556647825386 0.41315868598277045 0.42301330821575456
2192 0.7070984255794204 -0.2006402229481919 -1.7977398109991203
2340 -0.0661908120414644 -0.06942070745783964 2.430356691482699
2341 1.1628760661032325 0.643132587726745 0.09179823754983377
2342 1.413507381288414 1.6913231242147357 -0.23054586537311492
2914 0.16293629592433556 -1.0064259689266595 -1.4597315149398293
2940 0.9867851754294893 1.428873039653912 -0.014872750136583224
2942 0.5651662257906719 -0.001378762071977969 -1.6418537665675634
2941 -0.8448439426735724 -0.27480789230425406 1.4666531859001908
2348 0.22674500313060514 0.08813871658090643 0.2993322556024111
2200 -1.9471653503710893 0.8836606658731097 0.07120175734329671
2201 -0.37720989135508803 -0.19542073392033868 0.1069084627331735
2652 2.0328557680816624 -1.0149603992780005 1.0754688133268204
2367 -1.755158460725454 0.6263803140405927 0.5697883859390825
2368 0.38199657642284407 -0.6550158363400698 -1.1296529679694784
2654 0.04679837961801178 1.3879874326565111 -0.17514358509602174
2199 -0.2010411440497335 -0.9753563296340194 -2.303203500760792
2349 -1.7256122553234023 0.5107102549089083 1.39009759894934
2218 -1.4083204558842664 -1.7207365669952888 -1.1502010990195755
2217 1.0557954838858123 1.4266922530497426 1.2923502141657774
2184 -0.7184322209068494 0.3150040723115566 0.7532771700650627
2183 -1.232772219741462 1.3773671879114768 -1.4625422390208092
2185 -1.409704759733254 -0.0022180677519937643 -1.314116666242701
1127 1.1560858275558024 -0.11289178177996166 -0.3509305906825639
2369 -0.2600025237815574 -0.1653064836242793 0.820623519432612
2371 0.008999218799977358 0.27616932380663983 0.6406978712871085
1385 0.23037642271166953 0.583755952741869 -0.6881798009154255
46 1.2637682132195063 -1.1503959435270004 1.699364849607015
2655 1.7646023977972485 0.5119948979793763 0.04930292991158323
2186 -0.926636093650987 0.6872309580293745 0.4078172820358349
2370 -0.04193521534034555 1.8402359525010359 1.254745703903951
2373 0.10402807541388281 1.0373810272334432 -2.0582225342775753
2279 -0.3208044202836037 0.5169445429150533 0.6492870213459128
1394 -1.249136998934196 0.07880458675236834 -0.4406052978609043
2372 0.004867389240104445 1.5801453879199523 0.5080357559368339
2280 -0.22070314246681627 0.38518593338285073 1.8214275497023653
1393 -0.4864168543673867 1.6886469598401745 0.8214155038838292
2317 0.6301171357612625 0.7621024968273146 0.6945001955421598
2387 -1.1113913650368268 0.39064129275481496 1.654880976335574
1376 -1.8200656277085063 -0.023473793006392938 0.28083642347697424
1392 -1.4730034816885071 -2.110483918229226 -0.019081032261186473
1384 0.0729317949231905 -0.2987619310621908 1.2712602389378849
1549 0.02252191913318182 -0.13254355703365364 0.291740091327487
1395 -0.29694271949025763 -1.1300756003862655 0.7717673765979275
2033 -0.627641528376886 0.15966219468211573 0.3231302061558441
2282 2.057685465254441 -0.0659708276105587 -1.6756794812700677
2283 0.6251848865678659 2.047586250389458 0.0034621249035183452
1396 -0.5840694162745595 -0.10629797393505344 0.0995008762832426
2281 -1.6703984382533963 -0.7769525249382269 0.9952630416609572
2284 0.8652453252459995 0.9173676459942379 -0.8060739153295948
1387 0.16709925554943122 0.6126170393685376 -0.779719606417874
2329 1.1759620064456742 0.04228993289586963 1.4959005111144743
1142 1.3864616702891353 0.6995190908286567 -1.0442326966339586
1428 -0.4721503656839415 -1.158788482444176 0.4397301438350483
3107 -0.12279195699332726 0.5631809868046516 1.016909795047934
3109 0.5026180623556713 -0.9240453670760072 -0.7791827773401333
1143 -2.484208686310734 0.4958730529423 -1.2961630158256827
1431 -1.889359151331858 -0.133529598622541 -0.1677461176323873
1430 -0.7587346595821505 1.3577475760944158 1.2429425613649896
3330 0.43773735855594115 -0.3281629719044819 0.18813648825822624
3331 -1.1792930433167177 -1.9333762634409517 -1.415694982652128
1429 0.8262272729672557 0.9540125981275708 0.5367020022046968
1144 0.30495804822390404 -0.43741111315588155 -1.2260321884352623
3329 0.9106005580774169 0.21594571033517743 -0.38777672899417376
2328 -0.41127230190686875 -0.13090669466851676 -1.9438676288587229
2420 0.5193298027342186 1.751742335245977 -0.482893869828168
2330 -0.028384471627803422 -0.40023295004944925 -0.6292649478866165
2323 0.5595780055274465 -0.4400674196648296 0.013370324714944069
2305 0.35834067661472235 0.5699515772001106 0.30012163676964415
2322 1.3973121565672464 -0.151034467304003 0.7835597702388625
2304 0.8912073071399608 -1.0962694192557867 0.7837112993418852
2303 -0.09459218931672686 -0.355933489213538 -0.8148435654020082
2419 -0.04369332195997863 0.0962364721422862 0.9933857824926537
2421 -1.222745222542117 -1.1700683563970025 0.6199382674275997
3452 0.24303922966926245 0.14779673583709482 0.8662965512745172
980 -1.4068172746354661 1.795159980104159 -0.5217150104055116
3453 0.019457203663264474 1.8924460382539372 0.16805799193733983
3454 -2.2048980171946315 0.40789630513202385 0.9817702454059307
1221 -0.048282815017143786 0.6385531160047552 -0.9643007427224617
428 0.3608546097029264 -1.8135159957981053 -0.36545204432032247
3455 -1.748763602741987 1.0559356579610446 -0.014119869138134723
1220 1.025568765820216 0.4600413428463523 3.057628488429228
2935 0.3308413768560221 2.3602986150137997 -0.4628505883365527
2936 1.421607555147719 0.8547647546792111 -0.5468068850111537
1724 -1.058829992342272 1.3118063923342191 -0.014510737154146193
2347 0.6630641044812281 -0.7183141415656327 0.725306174864834
2648 -0.16993248676237604 -0.14328081392656317 0.37016305469213034
2651 -0.1845193553473835 1.4830237875513803 -0.8223967631630559
2650 -0.08984956443853107 0.580129269806377 -0.5884653630764667
3456 1.8332688493956528 -0.5316456809804542 -0.03461552558362274
2343 -0.3383263273837134 -0.22092759943685417 0.3050789986267946
2649 0.00723561695640504 -0.8334746177268487 0.2958246909469284
3393 1.6247760447267403 -0.18158506397688276 0.9884006878723245
2934 0.6098221554915813 -1.87156120194566 0.07112692906410661
2383 -0.4585734302094515 0.4049941786125518 -0.4982431109866493
2384 0.22246997031560656 -0.2327161870623182 -0.4597809115267923
1601 -1.1428342277447179 -0.970583867750959 -2.1668608939644347
45 2.0846843859783073 -2.8260633360553404 0.2684669891480107
1600 0.577894010311375 -0.905118260533551 1.3292555089711569
2656 0.3099074410740627 0.6365071801930426 0.4524217892220341
2198 0.8870027985423179 0.23543281725856027 -0.31264604767006776
142 0.1847296703271175 0.262068675629827 -0.7353675260460537
143 0.20553141087113322 -0.6089762813878089 -0.25872422601608985
2385 -0.07794665688981785 -0.04129950073919446 -0.5312290936424111
2657 0.7684535570460548 -0.2991704622027994 -0.2876667983802005
1386 -0.08693333644161709 -0.6155639451155357 -1.8504936945174038
1128 -0.6617868045163477 -0.2168717185811259 -1.2897541024306236
1527 0.31249200610241407 -2.5114015422508342 -1.2132135228203358
26 1.1199143069240263 -1.6929250276999532 0.9580222535071337
241 -1.2197346016019022 -0.9210654582491539 0.35227596127192534
1582 0.05676033767702174 0.1906205177915375 -0.46041224135673176
1129 0.701231183014921 -0.0031939038804654958 0.2362457833504146
1130 -0.26289790651569883 0.05443479547533492 0.7353009098427312
1583 0.7622768369355081 0.9454336729318545 0.8704312187855039
1137 0.6087985466726547 -0.2270354297668156 -1.577709381082302
1587 1.0996393967050642 -0.08575437588921887 -0.48961764407531366
1528 2.120143463174791 -1.3977493307900157 0.7780249614993242
1588 0.32588823616316026 0.09371495527742024 -0.651760555158954
1529 1.4588294772845554 0.1147368532841434 -0.6816789697000147
1589 1.4977617915158588 -0.3169028685133311 -1.162067095414429
1547 0.2501721701858688 -0.9147344342933142 -1.597552127441509
2247 0.7220098699306695 1.1196535788022521 1.7962575106217822
2316 0.6490748619408161 -1.9434551522380954 -0.11083426057723916
1548 -1.759712089199233 -0.9055848607037591 0.8641957427292148
2245 -0.7145977210171318 -0.45615886149300755 0.4048686546594218
2244 0.5130335004797769 1.4200697934505406 0.7306751276492167
2314 0.444246619103717 -0.8607546897263337 -0.036792351963972035
2416 2.0857403046117446 0.0933667876740197 -0.2924384882867638
2315 -0.22026644629942665 -1.7564508951958053 0.4772068383300802
1391 -0.14831668844016926 0.47368499653057033 -0.3504821041490781
1701 -0.8817546462165401 -0.2759860336607232 0.5406658971792294
1700 0.5608395321043392 -0.5527486348579409 -0.44630694527215603
1379 0.05333719991172947 -1.437117849183705 -0.7340728722275046
1651 -0.3313917816350055 -1.4450247427753835 -0.20427647440678828
1650 -2.8394501203588796 -0.48290838708619604 2.0726496393594616
1390 0.5678523381558086 0.11580133851562038 -0.7257730717480197
1380 3.365864858540299 1.630706999670948 -0.20223020270640166
1699 -0.42781901662518507 0.6594540452735385 0.520192553710134
1706 -0.013661554583436805 -0.7013344363101603 -0.0748757180602121
1146 -1.3940186639491259 1.1446721626794099 1.6310519981427196
2415 -0.751386527334398 -0.1647452867785844 -0.8571629485606996
1145 -0.6606921881729575 -0.3433416415604986 -0.27388983316852816
301 0.09316101628634928 0.6547781441319518 0.3729300155437248
1698 -1.080041592303949 -0.3577530073183093 1.9187712712866933
300 0.47291996562828004 -1.1971552594723445 -0.20493694782326555
2306 -0.20264584232135957 0.5938517387116743 -0.07421185736849883
1309 -1.194511364003591 0.8466230050804047 0.09562114332701183
2418 0.5520032388763773 2.214922570234926 0.8239229330767815
1707 1.350477998348292 -0.9192375662781302 0.1769875952433007
2575 0.9392785677553553 -0.02123757836141337 0.9635961849134294
2574 -1.746298002962564 -1.1973611428041515 0.7060041653009522
2417 0.06948113800136939 -0.02608388400043397 -0.31459710570509536
2399 -2.5627657988793047 -0.1333822588682669 -0.5368707042537273
1311 -0.08868026982814442 -0.12655300351041537 -0.2566007372726708
2647 0.4080674705898192 1.7654017634318115 -1.3583401041943868
2435 1.5925301568019317 1.0997262136822032 -0.2424127447908213
24 0.022956099945171213 0.2620117712374638 -0.4416459048366485
429 1.4188993308539946 1.8772105262059984 -0.1508739663956827
1416 -0.9719201396804665 0.5678965261374179 -0.49962013535551847
2434 0.08267354775907122 1.5260543267749105 1.3299661508565728
430 -0.29321190342446685 -0.06482240363454983 -0.6225513164065669
431 0.11231969612543179 -0.7524380669292874 -1.501835031566339
442 -0.7921920520407927 -1.2523215529809613 0.6691503690225834
2646 0.3160591064374248 -1.346428031141709 0.9961983910918932
2645 0.13770051069145278 -0.8202846229736034 0.2056382652829488
3396 0.9040333370938297 0.19766698246362155 -0.028358164918537022
1502 -0.12854991101438862 -0.6373375405814851 -0.9561306737357831
1306 0.01635105197814364 0.0200655587329627 0.34058039992700173
456 0.19011229391113313 0.66576726238509 0.24019546543744738
443 -0.31518746248321683 0.22019858914859655 -1.9796978886314707
1725 -0.4988747892984386 -0.7008124230892967 -1.8849941479919783
3394 0.6304524562267653 -0.7362691726923745 -0.14388592915495713
1726 -1.4286222898184757 0.5293753026837575 -0.16371100788489834
3395 -0.7688335831177737 3.1125940154704486 -0.7328048731002281
146 0.5112222429145578 -1.1256597366732075 1.1689072648802707
1727 0.1705837230003272 0.4968683315983669 0.8121280430990703
145 -0.7798210209211923 -0.1397321025850391 1.407925395005101
144 -0.6618436279522426 2.1087808737064324 -1.0602448679157792
1 -0.14989749681494435 0.4528654190754628 0.374154729091666
158 -0.6701459865398316 -0.47780673558695824 1.7446770017917974
1747 0.6032130115277751 -0.05811491146431209 1.2663866469243024
157 0.01258593220730993 1.2570213803467312 0.15279430387581572
1520 -0.41350318993538493 -0.669129167348262 -0.143344706456332
1599 1.214433503086023 -0.12884514483754317 1.1608791910671665
1519 0.31495969177586663 -0.468477312260169 0.027911904709622827
1748 -0.3346553618911491 -0.3330936774805962 -0.25644802458766947
122 0.6144675954679605 1.2503183974431324 0.679362289064857
688 -1.8935590853463442 -0.5554680045569743 0.676675399623603
1746 -0.9150452861279379 0.8624554791270524 -0.31765716869809796
1518 0.8718162098357447 -1.3732101142097048 0.5876669852361132
149 0.16457603354085895 1.2497626475211192 0.058906493183901155
1559 -2.739812420683346 -0.2531083738178926 -1.4481758976104173
1508 -0.2676339652876168 0.976976026305418 0.8048712368943063
1598 -0.4064900415054073 1.5367945248514832 -0.09840738907022979
148 -0.3152600739063866 0.8236759061672511 -2.539124172142258
123 -0.5876880597395779 0.20725063939119076 0.6272714430215824
124 0.7671462199961339 -1.0118569093628367 0.46518828510580607
1597 -0.5143371861829645 0.013906150420402264 1.0791315404580482
1509 0.1873613150352319 -0.5740266279980752 1.413068552786708
147 0.9954932949833116 0.3208173957723874 -0.06878875089377844
1138 0.06864956758839552 -1.0404352373876662 -1.8460313503427226
125 0.6867165678495616 0.43695736130280416 -1.1672384906136952
1139 -0.09936336767074844 -1.1510949719979662 -0.6796198913131007
1575 -1.6466882559666827 0.7602574421731095 0.5486636041880071
2246 0.1677659131815576 2.1139405001040505 0.9972277298538775
1530 0.23040966578308872 0.7820273979544324 0.2455295146132405
1574 -0.5819808634582566 -0.43177264109719005 1.370560948486163
1533 0.8173693132529088 0.14975709864069756 -1.7350161514933513
1510 1.337732103412212 0.6348352547482117 -0.12944372411599026
206 2.642831622485248 0.767232776019394 1.0785228678985066
126 -0.4398777888802388 0.9784729159769512 0.6698474234928814
1532 -1.221236971898475 0.28719740877228483 -0.06426601606242245
1531 1.1326996580151927 -1.1550768050652465 -0.5197903421669915
294 1.9405721496025747 -0.9486932799412746 -1.0332561771344078
1534 1.2355019125304199 2.232381775486634 0.5589547165175764
1628 -0.7683569957276261 -0.03815273825751946 0.43018573759252904
295 1.5118902424220193 0.10053403219445067 0.2091067375752936
296 1.133834617146293 1.3227370277505661 -0.2792762849567166
1627 1.1380884714134132 1.8622571329814381 -0.8686175613607658
205 0.23029130960902408 0.6373295895241735 1.7787541486600003
1629 0.6032181847334099 -0.6515636009098718 0.17533451950578444
2265 0.8764492387079799 -0.28885702891820497 -0.48347730374696396
284 0.612253405480125 -0.15770086381447887 0.3160711224595274
297 -0.0056575704899814745 1.2308800081227034 1.9408325128098172
298 0.9572685108788723 -0.5355615729767816 -0.32588212025863245
283 -0.2851503427392495 0.7272616919284274 0.8377459941393118
282 0.5994797032951285 -0.857866420066583 -0.8948858779435921
299 -0.729244041897299 -0.2628009325003236 -0.13279519129484685
390 1.0551255723160977 -0.02932865921200215 -1.3467459854363983
389 -2.4705597735787026 1.4469096798371601 1.2565617272906886
1709 -0.5160477614217895 -1.5587585628988592 -0.9197473001168399
1710 -0.25560518145007133 0.10382656127413557 -0.031099375980138243
1711 -2.540261409329178 -1.18947524306542 -1.0146670831167954
391 0.18007968980262837 -0.4321413155532728 0.537609247511817
2517 0.10652360233013111 -0.20061404369041455 -0.20512052523073315
1697 -0.8949185359728944 -0.7526012950700474 1.037288915689081
2403 -0.2655990311116378 -0.6354599906714964 -0.4854944003731098
361 1.5484640975020938 -0.5607533248631387 2.1020773749423025
2573 -0.8025072709940013 -0.8391556586698004 2.9958612323944998
2402 -0.18074368129688367 -1.0329012524455585 -0.828462982391733
2516 1.2083511902691588 -0.9312116584964674 -1.4109961922230092
2572 -0.955908056973656 -1.0054040858086555 0.4338325807235199
2571 -1.0835963809761622 -1.6516359363807078 0.2501360807121541
2400 0.9937497823676056 -0.2922012479246938 -1.1616958066836374
2401 1.505309687402939 1.7677699346245566 1.2612880902737054
1893 0.8256768403113228 -1.3497274935079715 -0.6514615924513678
2515 -0.9141118871564172 0.8582624490296392 -1.3232154000883551
1493 1.2410885717417013 0.846871216474894 0.7671166761146091
1504 1.1589123745767922 -0.15133908180071318 0.3082805755746301
1492 0.31957748750907283 -0.5028712002893295 -0.5102290028624651
1491 1.5934046805563862 -0.2595530619642933 1.3462975418177898
1657 0.6159810424098319 0.8078810630232484 1.089325522439701
434 -0.5587838162815496 -2.1000002292239146 0.4673277974640327
432 -0.42762891505693035 -1.8701224486641266 0.5806121012877238
1658 0.8042689181086383 -0.39192728793665094 -1.7440519244922912
1659 -0.4593127616109957 0.29429679983618123 0.8237104200258974
433 -1.3997052733357476 0.7633975899908889 -0.8643391437962132
1503 -0.8144930682685789 -0.07339959454713282 -0.2686328790728446
1656 0.646815422353428 -0.06795671423232298 1.9011799038844093
455 -1.8149195750408063 0.4520794261127915 0.29093675664331087
3397 -1.2635002488812197 -0.5154693186144423 0.7165795193284614
159 -0.7406260317086898 -0.4378131662968647 -1.0945464729024401
1728 -0.6074700747391063 -0.6843546446530033 0.9039781490770991
1730 -0.8520845208568372 -1.5891814344923596 0.5962822786179387
687 -0.30386170393497713 -0.5697678623221095 1.0048473406100926
1729 -0.1926362070294831 0.848294307754725 2.1766472580030363
689 -0.7185838103215869 -1.2881589044362614 0.3455753886615481
467 -0.722945930873252 0.44353108824763654 -1.471342914728726
1565 1.0813253504323797 -0.287299046097861 1.1111345503024386
3515 -0.10857174888741512 1.225961903009807 1.007608476553528
1566 -0.08811400459562961 0.6165580305818027 -0.3653112080385957
1772 -1.105495610427354 0.2784261201013155 0.712845306718468
3514 -0.006853964183310131 -0.4151541558107899 -1.3690144612307116
3513 0.1732552398190266 -1.5372982379554532 -0.9726622363552774
1564 -0.3562569214647513 -3.06488529348476 -0.6264935011027871
1740 -0.37313198986823204 0.3580699948533519 0.2732966765174528
2693 0.3088524398347195 -1.0824109821237422 -0.6711821206016148
2729 -0.0554225046405772 1.0215980782109395 -0.8321176325357863
3516 -0.047540540504105784 -0.225016079466765 1.4807249533126958
2673 -0.5349513215580075 -0.15864087574838376 0.036511197607664816
3517 0.4764776921888895 -0.9527683764583498 0.19826518013026956
1741 -0.3025143879896559 0.23632215395553283 1.4507231582728772
3518 -0.02131887724031672 0.5971286807273859 0.27454677742753214
1773 1.6500580007681847 1.4981609230536501 -0.13491155686456968
1742 0.17385916458965184 -0.5085325342814166 0.13523404112134957
1477 -0.07107478603424919 0.13922604668663996 -1.1311546377425024
2674 1.3526501323340876 -0.1328759314183102 1.2609408315549362
2478 -0.12729913733703843 0.04748824977128547 0.5339976174772451
1743 -0.25292635616322945 0.8676282395558307 -1.0823856130108063
1567 -0.2702258005920744 0.38406462042718803 1.1621097186344038
1568 0.5410803288878663 -1.0155972802718285 -1.9160755967317544
2479 -0.6870475439455753 0.5709314608488862 0.374357420423853
2481 0.3032753765347191 -0.2883527417120324 0.34264247195221614
2675 -0.8681694305489404 0.6620360276659302 0.41701376829569853
1617 -1.45434647414697 -0.3337286394926294 -0.9324787565639739
3520 2.1515534371742433 -0.4905054093228858 0.2973346549281366
2676 0.8299802040653637 -3.6650834124881224 1.2957022086667556
2482 -0.08072797354428343 -1.5212092593135553 0.6534713685587374
3521 -0.39387929597926474 -0.8631787223692892 -1.8016966345382892
541 -0.2638537692753304 -0.7548973851855546 0.18085556411599085
1616 2.0535735831884327 -0.11495255920836675 -0.5468779242027081
2483 -1.2573915526117845 -0.9553802040857211 -0.313717920211723
1615 -1.3422825103357334 -3.07757284173911 -0.8892593253618924
1614 0.5935664499150591 0.6286898966340285 -0.745403968172667
1632 -1.1027886021141908 -1.1118021253150328 0.4136231849614863
579 -0.5547025085660269 0.9805109223604443 0.6169745746688856
2461 0.9767210234590228 0.8001868938241653 -3.2332649438036802
581 0.23949574929534256 -0.21087448960891933 -0.5677512895103757
580 -0.26809090584558376 -0.6445572549573038 -0.5626934254164884
1674 -1.0521830915689736 -1.2746968187900425 -0.11814339495197046
578 -0.4569341650666218 -0.08000597934316386 1.236572979437999
577 -0.4104799096274397 1.3976547746470536 1.307690573545873
1613 0.2951014925113476 1.2357914227174864 0.5049977297424163
1612 -0.4564034316839974 0.26693756946652386 1.074534088653515
1675 0.5905452211913225 -0.5415898656787921 0.3372972731293753
2584 0.61651613003059 -1.0068494787223792 0.6141608091140783
2583 0.6166666828137986 0.34781551209197087 0.9953876573120747
2586 -0.37487847386371514 1.4688602924400394 -0.18259667304936086
2610 -0.067088637080718 -0.15537257257919757 -0.7962631888181626
2611 -0.6761788307654572 -1.7368594036150966 0.10259846620218073
1735 -0.2114366044877424 1.7999546610110586 1.8926637801810797
2567 0.32544355124208973 -0.2720848526646559 0.1568583508935269
2857 0.4125667663753404 -1.579638243488853 0.48209734274051236
2592 -0.13096987032777513 0.023083159275480516 0.13074350583117234
57 1.2126557512999534 -0.7928749331014644 1.098979821373956
2593 1.1982175212321446 0.984345707887283 -0.5438069048283846
2565 -0.4096291032201629 -1.0418271852873935 -1.4502383574364743
2566 -0.025057354340964143 0.507976957008399 -0.13160826133622108
450 -1.3388541543335162 -0.9280803534130202 0.4747562124490174
2594 0.21369635039336218 1.4766123944800413 1.377380614329886
2512 -1.2192709063115967 0.45025111382808614 -1.4007257990665591
2533 -1.1188357827817308 0.6243343457771359 1.0080551699935971
2534 -1.4394351788818107 1.739281403120643 -0.5110968518584752
2756 0.9314196143404404 -0.8787242619355502 0.05676098245958899
1895 -0.5994352896098446 2.6153503782682876 -0.08111793913363152
2532 0.654150287186144 2.1060144837324315 -0.17944788324268388
449 -0.544585198327807 -0.980990016425547 -0.5066628527739907
2755 1.1693169247190607 -0.4688526698709713 0.48984206625288923
1894 -0.24869916921519827 -0.9181076527566325 -0.6068763226105037
2757 -1.8713955855463198 -0.8057016107146635 -1.0353550646911076
2535 1.90796143836372 -0.6677055379961127 0.06798461294242213
1896 1.4499383547109903 0.9385689756332976 0.30772650854889705
691 -0.6840381432856186 -0.6661434344145788 1.6147167437543388
34 0.2675433156214501 0.6165074226019153 0.904968361249963
469 1.0693134233918784 -1.0293761855539265 0.07762303230177203
2694 0.8033814070400156 0.02032533505673372 0.3365798513617985
2696 -0.4608734260093604 1.205566990230748 -0.07909511609667615
690 -1.2985438065586816 1.6950976748727815 -0.5214718049712052
468 -0.035345692154708605 -0.7194688643814706 0.46775561172959246
470 -0.9580454556908186 0.6298165807334938 -0.43389604477098137
1967 0.1758632636828807 0.4207603339465929 0.042008351814206424
1829 0.017818089055654178 0.6011860480376838 0.7307719247346226
1830 1.3600401950066463 0.25280772379488065 -0.6294806032662588
2748 0.4470175609293499 -0.8655338523414904 1.076574078116446
1831 0.9087345768357864 1.8653940676382432 1.5456795445262972
2747 0.3032174453486139 1.4226207972411569 -0.26606858224569996
1965 -0.3788858905797231 1.5803062491321813 0.44525856220083826
1467 -1.1198866809675687 1.7012300922807098 -0.8152387742275383
1964 -1.0149758090925942 -1.1532511931678984 -1.1549441621956176
35 0.7290040804524107 0.7516240887351479 2.6687406988926257
2762 -0.06758314705199228 -1.1660632116482967 1.8798712577350971
1465 0.8748474756954515 0.0857692994993777 -0.9313985429685392
1469 1.2135039763454774 -0.1980995898215898 0.8535845802112866
1828 -0.5734612978616135 1.5571770680256103 -2.0660878935893265
1556 -0.06189257882552519 1.5083516109928605 -1.847265206147652
1466 -0.658176964827158 -1.1172189963289667 0.821659154481289
1774 -0.28167707777541495 -0.15481747330214699 2.461505512756135
1775 -0.3878023600652089 -0.4538888403731552 0.2745633697690366
1776 0.12462631260079883 0.9474446605533795 -1.0343303504069918
1468 -0.8597961075908361 -0.0009337738882316196 1.000327797926341
2809 -1.483418363461685 -0.15526497256753283 -0.34338566260348535
1806 -0.8955382806548208 0.1609604443094573 0.16450651214142803
2810 1.5488978926512396 -0.6586208854144694 1.648869442034656
2763 0.0982999352926903 1.4442692865426876 -0.033772837245192304
1804 -1.1585685332317193 -1.2117011023528896 0.9369392301879481
2001 -2.8151646690292047 0.7815549248023269 -0.8518495834125122
2812 -1.1693325449303722 -0.0073613643412738135 -0.27201114884110994
2000 0.059606818116599875 0.9246996474152535 0.31486669660929184
2049 -1.418131924425204 0.8672180663043658 -0.1761505313362036
2811 -0.9100744682614819 1.1094026062511793 -0.6850378543407998
2050 -0.7696530846950025 -1.321597341007067 -0.9369076785905817
1866 -1.2196028494489008 1.9466596777399505 -0.6011670828139246
2051 -1.0089485223607566 0.27871684788828216 -0.4660257555225466
1865 0.07711733089970046 -0.2656070962748451 0.5136902900636079
1864 -0.4811711404192818 -1.815788154034776 -1.2908618925879263
2677 -0.012459896298246646 0.09533980800850375 0.9960319595931162
2678 -0.7039246597332162 1.3050433238660277 0.02435614636147355
2785 -0.5038084546647648 -1.1629894679569135 -0.5632052681446896
2815 -0.5016757377177992 0.8256286719330833 1.1888079269667424
3023 0.7410738041101791 0.47035102849130433 -0.711621898332542
2484 0.9756484494094255 0.518230717884545 -1.7612060881713436
1862 0.6977709561605284 -0.4444627978366239 -0.7040694119828863
582 0.8981249905377574 -1.010921213814183 1.5217321542749638
583 0.5660994221720245 0.5296614045718273 -0.4294423888461186
1863 -0.04107611835492275 1.1570209294216895 -0.3995540610995241
2816 -0.7691764105360058 1.1655007844940464 0.7945866552988585
2817 -0.4501439574526021 -2.6764417750765723 0.814878564221925
1861 1.159707600502479 -0.9624897546228917 -1.5644169029752568
1819 0.7110176291392571 -0.7851237802816596 -1.0498481236954125
1818 2.3496484095729926 0.7032254293600112 1.8202515896395013
3020 1.6414826879026854 1.2804795497431933 -0.6952481776442007
1676 -1.18563461885856 0.21337640726835283 2.167401202524548
2818 0.39041463238824164 -1.6017578585404795 -0.10262830855959694
576 1.0160905040101205 0.2211322876322436 0.843714656189559
3019 1.2475343584499858 0.664595120350858 -1.3053140247115886
1860 -0.03627026390644916 1.0987597383703664 0.7645144910406796
3018 0.5859994221224668 1.1923841821313446 -0.07728596686119987
3017 0.5006169843149687 1.0243060584597985 -1.2405263310317811
2891 0.1755028294847094 0.1055702650748768 0.7215354393599697
1677 0.9483202448930588 -1.6889726642557228 -0.5715196627657322
1679 1.0372743757544696 0.2686791727700435 0.9846386382489232
1906 1.1631168063895523 -1.1853789879736938 -1.2877879924337678
1907 0.7343717614399882 0.08037864684377466 0.42500843865563875
1908 -1.525202462815688 -0.17106000370573332 1.3468218827614806
1920 -0.8800487992673763 -0.6332010359865092 0.06760069644178004
1919 1.2777269394523127 0.8588472004746656 -0.45591264366550516
1951 -0.9579582160679251 -0.4718022056948645 0.12568045910654768
2094 -0.005049319646242357 0.28052973648957324 -0.2808251804859467
2071 -0.5736202876325457 -1.1351616046021031 1.288365044500152
2603 -0.18847171883013383 -0.4454028491997198 -0.5130407337728876
2072 0.6061081202112164 0.9054694411047737 0.8729676290424354
451 1.4621557432295818 -0.4019867165230192 -0.6736498245310992
1918 1.6690893119646462 1.09367809844943 0.42923342609865384
2754 -1.0771316294145448 -0.97664999119682 -1.3705560350974486
2073 1.6560239971993411 1.5663186745066777 -2.0632678788266756
2880 -0.673407089957692 -1.1952456962044888 -1.6565352540314349
2878 -0.5998383870187884 1.0399686490586308 -0.6710692745036786
2881 0.5217586035635556 0.4612929761956774 -1.0629232609250654
2879 0.47989989018682067 -0.2071323504341929 0.42755341073936964
2753 0.5517123652359877 1.5540639504636782 -0.20874510686643716
2695 0.6359902352243608 0.9142989034458279 0.8613202082650339
2746 -0.5446670067350649 -1.0892866501043326 -0.461048658404956
1966 -0.01023044917880795 0.49483500972841166 0.03040196512997249
2602 0.28736770515505977 -1.579292967752192 0.684742020658462
2745 -1.704918273804895 -1.177238246852356 -0.4667019258966126
2601 -1.0118417470304686 0.41517375868991735 1.2500497352398487
2751 -1.160183075355272 1.7427956451276496 0.21285047638644103
2752 -1.0649124522720748 -0.09813695567131463 0.3552382011787756
2706 -0.006453932570381078 0.7316138552353831 -0.2884261503944518
2707 0.345803562208228 1.5948547199283418 -1.0004418704801727
1791 -1.7157587296432504 0.15247828045162592 0.6702357970977604
1963 0.9038066555403177 -1.3069886571619131 0.846511814339048
1962 0.7776821002710931 -0.003966989359073417 1.4193766270724322
1792 -0.9351647500152159 -0.3145656017932534 -2.4654788345632896
1982 -0.5070720020721826 0.17586540061748626 0.2205913425827175
1793 0.12464254478416413 -2.26947814533494 -1.2390848708533713
746 0.6742493250796987 0.0849446269655335 -1.5323478093857679
1983 -0.22829441503037665 0.27222482469767756 0.30494656664045233
1759 -0.9625824738638429 -0.14046696264923755 -1.1248671366100644
2980 -0.4742727198377776 0.2713022864832878 -0.6844608839723738
1812 0.9611404887441777 -0.4377123691362432 -0.7511751371330689
1802 0.8288397733065426 1.523225260728741 0.370112935294653
2003 0.683461225818878 -1.1745837208408976 -0.34064471681536557
4026 -0.20618542570653428 -0.07362506813898875 -0.9128126305466792
2004 -0.6564078725299627 -0.3602151524772052 -0.24744033293572873
1803 -1.3423013500312295 0.6088204800026412 0.2842697219315226
1805 -0.13171329342772567 -1.1646189525623154 -1.4518507937957144
3090 1.5944752254442063 1.0117989814473416 -1.525672280331941
3036 -0.01717920337565058 -0.537795336271324 -0.8980123460573904
3035 1.337543216459942 0.3024960295667831 1.7976791888606223
2002 -1.1090691255828962 -0.43592097762722753 0.4726685097544704
1813 0.4192213402089475 1.6572285412354946 0.721784953875727
1814 -1.1181066911051891 -1.7120749866921454 1.2747906682240036
3089 0.042071498603835675 2.273037838583093 -1.738722352635268
1815 1.4978802023883953 0.473377325695827 1.4156907963775363
2787 0.4770503530093702 -0.06375534324686137 1.5165592184103003
2786 0.37510318748857485 -0.37155766303699167 2.4598688971808595
1816 -2.571093280553717 -0.3615236009956395 -0.05024938706042382
2052 -1.1234059356131494 -0.7741114235823143 -0.037525841655190344
3032 -0.5773214033304715 0.5491380643955742 0.1472934035631664
584 0.09890249113822402 0.14097882220106236 -0.11271372288572988
1844 0.07430710208074802 1.1848386371593305 -1.4175011966272202
1842 -2.420431210946273 -0.038527370767024775 1.688379886671514
1817 0.41025263884024055 -1.0643777061811608 -0.9734521152642424
3024 0.7537248995612075 -1.0108318327129284 1.844927624917298
3134 1.4297435324131762 -1.952497131884784 -0.7274094354428138
3133 0.35981152684868933 -0.32621720877607646 -0.928296526598284
3025 -0.2514979741983712 0.1265481287379978 2.259307393065136
3088 0.17351730889364989 -0.8483260394627894 1.0406749874714936
1843 0.18808748410147053 -0.0010532663192932348 0.6140831320005042
2853 1.659706004282131 0.43702725820988 -0.5364486381522214
3120 0.11562035776271962 -0.17092115865419372 1.241430533461736
3037 0.5767082495814322 0.9873091301006809 0.02260068555373073
3029 -0.0447595416456113 0.48806607578774674 0.6663344129501033
3026 -0.7161786338787409 0.19545028024711752 -0.27307828211720575
1859 -0.8364475683415404 1.489688699179609 -1.8534928175575898
3016 2.070166503501748 0.40115421484821434 0.46125747037456244
3027 0.5509830596521351 0.16507771683592345 -1.7883160150522681
3028 0.9487638147568628 0.17986231313772455 0.5034276149610883
3118 3.105409002398017 1.6786441192731076 -0.9031524902209028
3030 -0.0473383036622007 -0.4258077518143337 -1.8998207459993588
3117 -1.5325184302335397 0.19997211925869984 -2.0820093075558885
3038 -0.024556734341642013 1.163146456760483 -0.496133272683981
1934 -0.5134735209984705 -0.6453097369573655 -1.150896440873701
3039 -0.7979025855602473 0.13630276790622148 1.3691739548092423
1947 0.43540133522081537 0.39978970716502693 -0.604381954037576
1949 0.6912159544986082 0.3353782750246563 -1.34093367921109
1948 0.5524672923893639 -1.8715702013739806 -1.688610463162723
2872 0.27442659103433603 -0.7203051537707977 -0.14221506183406948
1950 0.31541013590673767 -0.8000962749791372 -0.18488350744144955
4181 0.004551511096725417 0.1451799895238079 -0.10175053669894081
2095 -1.2997689375311665 1.157933259502692 0.14950929303079727
3041 -0.028762630440618404 0.7822280704022687 0.962809784413657
1933 -0.3447882426367673 0.21836795799169326 -0.016176776920020966
2169 -2.0712967980656813 -0.2125904465170437 1.5167579316854998
2096 0.7538403915600436 -1.6172118260139725 0.3836226626735704
2097 -0.3473138741062927 -1.6859239945032387 -0.8033914634022206
2075 -0.20111750535222586 -0.8029567577549866 -0.7087665197613118
2074 -0.5744793661402556 -0.7181149786614616 -0.2915873872456379
2098 0.4720221714354574 0.5319280712483473 1.4218540590620738
4182 0.4694042750108867 -0.03525489121594725 -1.4782703059728943
4183 -0.4622346282299082 0.23873554774747213 0.40743062078648523
2170 1.0262747538995949 -2.25373932633545 0.6462003780841714
2705 1.815138463314895 -1.4000701592777813 0.9989426744235889
1761 0.18712779078268998 1.5973210447263673 -0.7728634537335541
3990 0.970128191870134 1.1997426010456649 0.3103432958873199
2704 0.9301515100904126 -0.7662417509005517 1.3425804908268135
1762 0.623661335645449 -1.087799739980137 -1.8643421605777524
1763 -0.9222398937869701 0.6637172848215391 -0.26341833260247977
2703 -0.7850855419818065 -0.8793116629603345 0.2556549064513657
3988 -1.5839564812367692 0.9293051872434104 -2.458305540096624
3989 0.48897916426147825 0.9452589913714977 0.26058619704763963
2230 -1.53424567090067 0.2570309585711908 0.17097606820908715
2229 -0.1444412785255338 1.716452587058733 0.01908443611295567
2231 0.36655356579196885 -1.317711109666545 -1.063664956731069
1760 -1.4685566041172236 -0.021159099912019114 -1.5782324830831782
4091 0.7904316241222571 -0.5118823007545317 -0.7412148336893674
1984 -0.9382156711807851 -1.1375627998337436 0.006915840371818704
1985 -2.398646464909683 2.534744453780345 -1.3519283584998398
4023 0.006836059865030109 -2.3376131278433614 -0.20379359548626774
63 -0.3028968930565914 1.408105830910579 1.0236774711560983
4022 0.4892270331032433 -0.2637620081700486 0.22070847698802223
3172 0.35091761889329776 -0.48729151849262725 -1.3155472189373212
2981 0.44693589677004497 1.0181720902655491 0.29849303724841997
4021 -0.10469117327900937 0.09369461741504188 0.5980291158049976
4037 0.38794206009623683 -0.47197726196171697 0.579990218241769
1986 -0.5223695737701213 0.7776504575103058 -0.2841003786604991
3173 -1.081974002375473 -0.03609725298140759 -0.11058752327502083
4024 -1.0372364250683177 0.8116647517538509 -1.0514749359410849
1794 -0.7445582022802397 0.8539326736886682 -0.0980898949389247
4025 -0.9859642159131373 -0.5510335123857258 0.6460455402573395
1795 -0.1380398857589486 -0.07797202807823206 0.12276451614396795
2360 1.5406575309925226 0.7000449011264193 -0.8111969161795934
2984 0.004745335256636441 1.0044745112802946 -0.37091527765348603
2983 -0.8348490627516242 -1.101369799299758 0.3164827760808199
2985 0.3898520088147833 2.4089198314783395 0.5070990664775332
1796 -0.630216040727579 0.5542836777898369 0.8370966101506677
4304 1.1722069259277426 1.9682578938160966 0.4447279551122309
2359 -0.848037133416332 0.582751239367728 -1.5294811951578995
2358 0.6881865223113591 -1.4583759853932614 0.530292237769424
36 -0.5920044946151827 1.122858126415382 -0.7415405845782728
2357 0.2897742401242202 0.42296155612583747 1.9274101297619237
2005 1.0794134895494298 -0.22494493996423462 -0.096630213135712
2006 -0.14636252214757187 -0.2386872213553396 -0.47468511663464213
1836 0.7694907313021742 -0.07404353296320587 -0.23746893081424889
835 -0.9061186374811969 -0.2410476056891781 -0.23308610041987718
1837 -0.13212675395498158 2.0394957381178207 -1.0996197312180274
3058 -1.0347269933174446 0.9209650752664567 1.8126764158485982
836 0.5295597214752005 0.06773650213566358 -0.7580866643838825
834 0.6877440257565792 -0.22435567008831356 0.8967791630029692
3093 0.009428646703088921 1.1424656711861714 1.2415212540921798
3221 -0.5959523446550785 0.5448207012439016 -0.8469344346622696
3092 0.20845294312911367 0.48214710284597917 0.07747893528074544
3094 -0.4070995271863714 0.8733630471359745 -1.2556178321323062
3095 0.14684898826471682 1.214430132202117 1.7534177331226246
3033 0.6658725889458376 1.1864643027505595 -0.20990644756060153
1838 -1.021735745009482 -0.5472802079148933 1.3386253032404896
2854 -0.19022725303781307 1.8047449066968466 -1.1032630655433706
833 0.7943830524307085 0.03223624240193049 -0.2505832359951761
3087 -0.6420755658182724 0.9273803521641208 -0.6645148750267114
3075 0.874681097900182 -1.476824545427364 -1.1848163308506692
3074 1.2512597568101307 0.5937025660420028 -0.018190378668647596
4210 0.7002967756820077 0.06160583371462714 0.17428843791444681
4211 -1.3667991177637908 0.8679836004013766 -0.38929789983711977
3219 -0.743919544650747 0.7172061357842903 -0.6521935031308248
2852 -0.7668194721282369 -1.721472529989312 -0.6550664529554361
3121 -1.4477216262049708 1.5133228774314895 -0.31442627342863755
3119 -0.127381109970093 -0.1894945499318376 -0.9366609656448107
3101 -0.8737484849506235 -1.379244389469174 -0.03492841180980686
2120 -0.6954705688072733 1.6093744483198464 -1.9746817420678922
4209 -3.3596270303939284 -0.13262792589478065 -0.5184057041723436
3102 -1.0483993700197654 2.107661697732497 -1.1513664687110365
3100 1.034781251149898 -1.7445748109094437 0.10195270279320238
2121 -0.9937806986674511 0.26079804016085745 -2.1418414538437673
4208 0.9389499436361011 -0.2525187590778005 0.6932788055033381
4207 1.3691654726534193 0.7368833684004914 -1.5060056543785165
2038 -2.122545690940569 -0.8739769602367413 0.5178345155808649
3040 -1.5120977860540217 -0.039245709661064436 -0.25931617375206706
3067 -1.2044625816169519 -1.1293399271397964 1.3893515832539816
3285 1.571132355835924 -0.036419271441400294 -0.8600534932951864
3286 0.34303294386205063 -1.3325081710093685 -0.07696718114577676
2141 -0.9274640116172467 0.39108381689185756 0.4527349505524093
3158 -0.14236202624467872 -0.37028319180126024 1.3869107882994447
2142 -0.16969402354132793 -1.6560757864323006 0.40214714654633127
3284 0.08223840413167705 -1.1826085371405064 2.3670117059696585
3157 0.7188270650113201 -1.3050467036733684 0.43861433525128896
3068 1.4826181939065737 0.4617282282067657 -1.0485097161497559
2870 0.42462516690763735 0.6744537253893104 0.49896436506179964
2168 0.14743786572712253 0.7642429050115688 -0.6217685665464524
2100 0.15064129771582982 -0.4978767521605492 1.3735356812776385
2104 0.7963545553791684 -0.8412040611297326 -1.3130446158346005
2337 -0.7729011112222601 0.29717232682982225 0.95258163008484
2143 -0.12315257604977939 -0.7905855977897734 -1.2316215767455425
2167 0.05975895337666522 -1.1212246279740015 1.4416926558331178
2101 -0.6178904528127155 0.7274273544615961 -0.07515802865143399
2102 -0.2763535893266991 -0.7067454066408542 -0.9963249506559659
2103 1.7082751112446513 0.8984278822312168 -1.4240960425441367
2144 0.172573397768011 -0.028426396958470625 -0.259375369025661
4185 -0.6453979454369007 -0.9063307815635174 -1.2167891410910159
4184 -0.31032477692100263 -1.7159942858054924 1.075576334479053
4186 0.007452856544156247 0.2556024281156077 0.12989542205814092
3338 0.9197218750572581 0.6097575904136376 -1.1143746056347976
4040 0.42800284537107625 0.23440972406535127 -0.05335162727817765
4038 -1.0468501692485905 -1.9887582880486332 -0.327904029434445
4039 -0.48034717664727355 0.9547124063167368 -0.08170753713385653
2916 -0.532983750915701 -1.682429971898902 -0.3024062661872037
3339 -0.32168393340196394 2.748743388207479 2.3741668173379367
2917 -0.11184252501028548 -0.10889735160438987 -1.1839722406200102
3981 -0.2890669826903341 -0.09349648083606218 -0.30616503761153313
2204 1.4826928992967348 0.6624586902914699 0.027346174671138895
2222 0.5804184851399586 -0.891609173983256 -0.9561549708705386
2188 -2.214678756221963 0.1208322103462625 0.29051237200005664
2223 0.16654095923596746 -1.0624602838733883 1.1156877662087359
2189 -0.1975693570696135 -1.4139922922469776 -0.24624010249993836
2944 1.6631973961384352 -0.9347898043453927 -0.6695751154548824
2187 1.646173572012498 -0.9945039951857241 -1.033120733654325
3174 -0.785547139142303 -0.8031019028501554 0.4288567658899535
2289 -1.9532492124246794 0.20463329354876214 1.0887608439511651
2290 -0.31211541517201224 1.169574952324644 -0.45587324554446546
2288 -0.7276461949020308 0.1954345085437912 0.3527499129365558
2271 -0.9481290241158918 -0.7946323877865723 -0.30186871751991584
3243 -0.3807504626125912 0.5265648739887193 0.47281086858747
2287 0.7021613841473126 -0.2584727842725646 -0.8404018727295063
3245 -0.20467224417032506 -0.1434269062656663 -0.01041731833170899
3244 0.23675996665091933 2.088770870446388 2.440267718218475
2270 0.0117398832767766 -0.04252419282594409 0.7874818187565235
2354 0.9523220070202355 -1.9710086787519072 0.6458345055750183
3242 0.06559682206520337 0.019048813565615826 -2.8782327816174793
3224 -1.9906826603940675 0.2961333770360251 -0.5415970245697063
865 1.1548687456764926 -0.18596918428888737 0.8600094346039836
3223 0.43742777428014024 1.3832971918648451 1.5193153394569392
3059 2.433993798298924 -1.2419333452020975 -0.22073488711718708
3222 -1.0217006198206322 -1.2832883351066295 -0.6702441358351506
2391 -0.8298723650130757 -1.2224192319015008 -2.506157747543565
3060 1.0452070304544272 0.2854045009932891 0.9610667086961842
2390 -0.3173960998151445 -0.24673588308966243 -0.5510505877139746
2389 0.44498291051678907 0.3102392601213459 -0.2912510937991114
2029 -1.518426453314395 -1.1554524856403883 -0.11080049900333039
3047 -0.010490067112178716 -0.11825475984725746 0.5306759038516051
4212 0.9739325783464253 0.49275907573148486 -0.39588948924572304
2028 -0.37778484688730757 -0.6254083164626076 0.23051346876096387
2037 -0.08486986089617313 0.19077461826422973 -0.5092775655513095
2964 0.06389422023845048 0.26042942260114754 0.0947461962747445
2965 0.4317571371328476 0.0544638688999174 0.00846230882397655
3103 0.6720373783587524 -0.7008878412489923 -1.1968920354230728
3104 -0.21485679281772974 -0.6467020349551551 0.17857667426123658
3061 -0.1080257220607298 0.011732744708259716 0.4661666060360126
2966 1.4525146507947613 -0.48790432493195507 -0.9041383827804655
2027 1.0583485721014387 -1.9290954260382909 1.8552606959538702
64 0.6819949305948974 0.5400472571267092 0.7016505474957235
3217 0.4175945633059074 0.6209146257147141 -0.1950552670143692
3218 -0.059375844130621684 1.3364744306818905 0.506805512285065
3323 0.07099208956578514 -0.17784661422146006 -0.49119082809476966
4213 1.6118385851578902 1.3409588851133092 0.42547627432210516
2122 1.5575605904255692 -0.13496623597356916 -2.3597191618909656
3324 0.014725278241777547 -1.0611692627106493 -1.0379966390140631
2123 0.9774402747062215 1.194207391407684 -1.4525702134513778
2300 1.750286798017875 -1.6135750548872616 1.4891009856659856
2301 -1.6995931202616037 0.46350334478974303 -1.7249535460402843
2299 -0.24817121141426657 2.5857727190407216 -0.3852827481993744
2124 -0.3210311098951418 -0.3402058834598208 0.5127655397065845
3307 -1.6707006826765645 0.21467742759310465 -1.3277349553471642
65 0.09085389363156332 -0.14797443289277118 -0.2031290801432268
3327 0.3603568284797884 0.9185940763607504 0.7103353363832334
42 1.0139319481721063 0.4300709070484665 0.23534854539446085
3115 0.8775256054999232 0.9057674082103381 -0.46430299989472656
3116 0.3904692810742918 0.510913870433993 -0.020221570539932572
3156 2.610373007918217 0.09024279083120267 0.882769342255936
3155 -0.14879796635777776 0.09075793005731854 0.8255049489628831
2261 -0.5032988781865649 -0.8832358006413358 0.7238787853821815
2106 -0.1474018836100479 -2.156230698247461 0.45987257281629584
3277 -0.24301052855283514 -0.8798446264309137 0.1311894048217569
2446 -0.0982052889738801 1.7713899188202522 -0.04030436605757961
2445 -1.3109901550822045 0.16883695698774373 -1.1487444144674055
2447 -1.6388217517094275 0.8904833035882761 0.8279847606669019
2105 0.7706329239485756 0.5545434313946813 0.5630955653456408
3154 0.10586421404519962 -0.9143335109742771 -0.9358189294947795
2336 -0.841353567080764 -0.6334054695892058 1.6744614932326545
2145 -0.12157050586507366 -2.2834596808592504 -0.7497686317568971
2146 -0.07230766529369 -1.4217533699368021 0.9383886686952061
2448 -0.5403963918195074 1.1795371635609058 0.49900031277985
2449 1.3638163199095323 1.8851934177214427 -0.2017919941918621
3167 -0.35678370420211486 -1.554226007172399 -0.8442831283750769
3351 -0.7509339711886447 1.326770644885403 -0.2526822936230759
3353 -0.8314470153323978 -0.3621143431327543 0.3847652800509815
3354 -2.0751836940088224 2.0881671233308756 -0.3254452284535287
2191 -1.008285370333592 1.6452484203059063 -0.8158048651192131
3352 0.3676482185684136 0.39220950891201006 0.4390169336371313
2915 0.20669401347119704 0.4878603088905767 -1.405308591740739
2932 0.8436732010673924 0.377029875754711 -0.18961172811780883
2933 1.415722753808262 -0.11816553037719632 0.13786069821966307
2190 2.158734459700152 -0.8166739090133585 -0.020676149616654517
3340 0.34075889676147053 -1.2958688590223348 -1.78930144101385
3341 -0.8714818460762848 0.521462901123717 -0.07453999615107001
3175 0.07301900082137235 0.7332579892834339 0.25636950589976
4187 -0.9605271656532259 -0.7312385085490786 0.355967611080666
2386 1.2695258164696477 -2.086396461255821 -1.0577209589324346
2943 -0.19626035497077735 0.15080855464583162 -0.2039088418315927
2350 0.5568255324864018 0.9928375832632804 1.669989338779237
3386 0.2652489587983592 1.443616692503418 -0.7984502228608298
3191 2.320445978630929 -0.1341293009615372 -0.17691154407717513
68 -0.29339177579466535 0.2224762241381543 2.1360058425250785
3369 1.2240783267600535 0.8490795042665672 -0.0225938006607379
2351 0.10621456086875986 1.6767683480170137 -0.4346092979829871
3368 0.6944225204884349 0.8503621198769893 -0.761837028868368
4511 -0.8548926996570356 -1.7405113473196634 0.1989247667061588
4510 -0.8951006694599332 0.3097945328270903 0.5792674143706307
3190 1.4282046578389909 1.1624466258588688 -0.686702769963529
3188 0.3822801057020863 0.5663053566309242 0.5767131764337683
3189 0.49042111620164525 0.3788721832922884 -0.40429805771991617
2269 -0.620334807363385 -0.24059366136459467 0.19836300337291865
2268 0.8234291919776661 -1.0078785316009093 -1.4912900398010411
2352 -0.46186392108412616 0.33592250932181494 -0.95940079377365
4514 1.1253795655614816 -1.4255236397770845 0.6270956382553883
2267 -1.6903033292538931 0.7692533365407982 0.20162403923084557
3414 0.03153759813953277 2.210908773025456 0.6834723217134561
2353 3.4137229392673545 -1.423315300580307 -0.029678895576196768
4513 0.6615552012884712 0.2093425114654308 -0.8423701754387272
3186 -1.4407614121716015 -0.027594265339578133 -0.9438637792730525
1550 1.0506966074011652 1.172968511341829 -2.373579328328011
3187 1.018091694228419 1.7197676134890696 0.19173996203345037
2031 -0.43862175221628086 0.038109898504575156 -0.6844923536182833
1551 0.9791154775996401 -0.21980739979131225 1.204641590088319
2030 1.425540935700814 -0.2428647145252936 1.558689523263187
4516 0.738723491548716 0.47349487665504303 -2.120841713220035
3185 0.66239208111057 0.8173063454858484 0.49287803603749714
4517 -1.408305848005759 1.2512355046091788 -1.3585691733327188
4518 -0.2404604461377237 1.4246058895404223 0.8143092856691696
2286 0.018596002402776386 0.8870986037427416 -0.8580094858609301
1377 0.5622579855932461 -0.32796240080690126 -2.025585913274497
2453 -1.2444723346012436 1.722440996949553 -0.05186483775375942
3049 -0.9440592977153421 -0.09854146438578021 0.43089888820338756
3048 0.6671474834342161 0.07528437412031348 0.5606410477508353
2285 1.5585870054533755 0.9027313624701817 0.48126838919633774
1378 1.2398457540726426 -0.1886374688872166 1.23365369130807
2297 0.30694682308136806 -0.8078406311255935 0.6178670653547638
2454 0.8176067608622757 0.337851129794233 0.04044177501532016
3320 -1.7942746798670601 -0.38413794395577183 0.2569432517452213
3248 -2.465691319190662 -0.2025312568630357 0.3197684656146158
3322 1.1669181620482125 -0.4494317878032623 -0.05787419278331322
3247 -0.26525003057657087 0.6381835185829878 -0.03026238172374388
3250 -1.2471574208239633 -0.6781338833793044 -0.5733749686972444
1432 0.4524599468813577 0.7793807149419808 0.08498293557006932
3321 -1.0721876677400628 -0.1316906854521246 -0.8626098095090579
3328 -1.304372183762658 1.1985675589469968 0.26189218893928123
2298 -1.329924291690585 0.6024205623478759 -1.2444626851963407
1433 1.606180813659398 1.0168477100209201 -0.5451218858700482
1434 -0.6985073636922199 -0.8028793938125476 1.3137166102742008
2577 -0.5738469692975442 0.3449985635630928 -2.3812395272274025
3430 -0.03857756935356421 -1.070463542159246 -1.1163335342847323
2578 0.6571765995823464 0.4211736160244683 0.6001519202676906
2302 2.0110544662675336 -1.0305616002156306 1.1174807265870914
3431 -0.9157666159162897 1.4534234538687592 1.9955447903640993
3297 -1.9184162721275073 -0.24769794572892065 2.213170981572385
69 0.1291300720800011 0.7060907213444553 -0.14480971578081742
3171 -1.5606035933300544 1.7227435496357002 0.823181704872422
3170 -0.6830546999194559 -0.18024657900943136 1.1521207755463685
2441 0.7243393476336923 0.7046048111513795 -0.8574511825928635
3298 -0.005671651390124374 1.3965059041625243 -0.7381976653679315
3169 -0.10676793865181322 0.032067683965440526 -0.012786011190261517
3299 -0.12408042904653645 -2.5800737108046143 -0.4335613380295214
2450 1.1118083898171354 -1.2162596202564704 -0.7420866909371878
3168 0.8803240691369595 0.756142532239282 0.08144612446656611
2440 -1.449816156387568 -0.5602360186915094 1.4396033813948301
3450 0.4776890513598795 -0.6590011914653439 1.336769917380813
3451 2.1420902699490516 -0.27857242437947893 -1.4007574039863704
2451 -0.5973856055565454 -0.4152918102891335 0.2147673669322301
71 0.216859307683736 1.9941884678176585 -0.062364402895850664
3477 -0.6546258383809017 -0.2397322717328409 1.399991564594795
4504 -0.889835038756903 0.5203400890419396 0.0770000135309311
3350 0.46168553109430355 1.6381993382582831 -0.9440195097295019
2439 0.505849542111948 0.8687338879954725 0.28399475165727767
4503 0.9891716270484043 -0.678050056363242 0.619549440314959
67 -0.12282851706910015 -2.4332532358183134 -0.7002780607760967
3392 0.24572328854968206 -0.11382862885109073 -0.6864195846731225
3367 -0.0669964893803645 -0.20270772653140848 1.0388173043358089
4554 0.4209811985347099 0.7386208037587922 -0.09560883055785134
3385 0.31896239343066296 -1.0810380189163151 -0.302125843754687
4555 0.556804558882468 0.07093770069405213 0.3892039630731895
4556 0.18939578001657634 1.0019867604367612 0.9188003296572084
3384 0.0056353456331615474 0.034667203046148856 -0.6820653714692942
4557 -0.858000213639269 -0.07822868223272904 -0.545855545223494
3176 -0.10266839629183086 -0.6752735167402596 -0.871884897568676
3383 1.8615620373792234 0.22197530637930893 0.14086228115292904
4512 0.7562373450329615 -0.17060592453068102 1.622109540901824
2658 0.3210516065378422 -0.9138031048574129 0.45272847138974476
4575 0.37803288003516816 -0.007595464964195409 0.8457458473109964
3412 -0.7788177275865228 0.717586557861263 0.9993201518252861
4574 -0.3188035259621116 -1.0427660740018496 0.1311991648718226
3413 1.4018615896546536 0.8012048632082304 -0.9809262300462125
4573 -1.8902675888397298 0.24142883542535878 0.006724112286934525
4576 -1.7396379696835045 -0.33935672381140497 -0.502415561702281
1586 0.8576125585973973 -0.2591681887970825 0.6995729791069375
1584 0.4096957540700674 0.24554991098774792 -1.5814726756066242
1585 2.1105421654180536 -0.864352835183359 0.3963263452052962
1131 -0.38752017541838313 -0.2290986196283379 -0.2119188780389107
2474 -0.6539958121659643 -0.24644611931625393 0.1483209817807034
41 -0.5601418120447913 0.7186992063055186 0.39081541794005925
2473 0.9663124218587817 -0.9515936967925794 -0.8284693361206817
3415 1.269895266521002 -0.5210991593929982 -1.9181469022756803
2242 1.4357484980698474 -0.5471113782129161 -0.5578389753073628
2452 -0.40565714378869827 -0.04955966318109392 -0.7442832253974402
1383 1.426432726229337 -0.5536869379842206 0.6046446712463643
1382 -0.031415968638321114 -0.8941267832945283 -2.1108973462201965
2318 0.954590958489987 2.2947324624012775 0.29887397622216305
2243 0.14451344293344467 -0.2735599750756843 0.2972209981155136
1381 -1.287395957056233 0.1956253309580616 -0.19964491793638178
3556 -0.8879069976970627 -0.47250351964194764 0.6388376646294062
3555 -0.09850111305549376 -0.20572791917704175 -0.033229696728750716
2472 1.0329849693044686 -1.303273400177595 0.2067961953885254
50 -0.603380993519074 0.4579240843509782 -0.022719020609797635
1644 -1.541943595349102 0.6360988598511798 -0.08164261376924861
1389 1.1480797866881458 -0.883208754892452 -1.2410284083962984
1388 0.3332170986052002 -1.2094809910232405 -0.7340168177648231
2319 0.057745634134677516 -0.5809265936745102 -0.052632687223308834
2455 0.4369276734615289 -3.4130258806292857 -0.9493432535919616
2456 -1.4687021631316612 1.7885427311985571 -0.30903648213260543
2320 1.485388740712395 0.9715066284640796 -0.2764070831642397
2520 3.102665601869324 0.7330207606563496 -0.501082935860694
1648 0.6302559392137579 0.4574776186952917 1.3230601010017988
3319 -0.7387401251482281 0.41416043258669394 -1.5020727704707728
2321 0.6152971148556503 -0.09416928939295349 0.3858086383605341
1436 -0.1898254287748646 -0.3966586392059378 0.9718203722219063
2414 -0.29749689327528467 -0.2587424489614776 1.20366378294076
2413 1.506705775373114 -1.124642707776527 -0.06105139434771616
2576 -0.813923032702226 0.6379872527423164 1.1310339446345532
2519 0.7306287156611976 0.17248169207251235 -1.2385235250579127
3318 -0.0798441438242774 -2.375803573471114 0.30690197693271853
3317 -0.5993947619996126 1.131878904727151 0.9833531791699143
2518 0.03461162682260103 -0.18918286547770088 1.7860721296306574
3445 0.437091675979331 -2.601608032547429 0.8242395441854584
2588 -0.9732946099566456 -0.5305256981939681 0.04904637185918244
2587 -0.8927384751993149 0.9920451911759604 -0.7639557239252371
3316 -0.2378591149546429 -1.0283442790399102 0.028990171454675515
3446 0.11065326592027637 0.39748912323221497 -0.25038139643353174
3449 0.3266026553048823 0.07246485985121968 1.3562730616445449
2436 -0.23824013156498855 0.051021161170299374 -0.0031617055949604857
2412 -2.008966613142209 -0.5390699254622394 -0.21364218781282274
2398 -0.1678052005914215 -1.3683030596264625 -0.0553539960758666
3448 0.471865127655879 -2.760520704197879 0.06523071750179238
2616 -0.33157032830956995 -0.5399466672107349 1.328439219664696
3447 -0.1955291844375263 0.7747341920977202 0.9357018500428051
2615 -1.7916148492413564 -0.030708500198450842 -0.20127529681720022
2397 1.6417925544239915 0.18863529150708933 -0.7112605297043897
2614 0.6650224494996164 0.8552440342846775 1.8554018047090037
2396 -1.3449778750667973 0.7225729126650726 0.41850393506162115
2438 0.08495679099588026 -0.5419556178053434 0.19372797008338274
2644 -0.09750972315712807 -0.24331117790051754 0.27075118739092785
2619 0.6009286567015977 0.7233360403262739 -0.5242083995315429
2437 -1.2635532012734405 -0.6184037120784459 0.654820973235207
2617 0.7638782525675059 -0.6457297175029783 -2.254768106455379
1506 -0.8535212874044752 0.7483703210778773 0.5524627766092867
2618 0.9288024511476737 -0.4074536527946695 -0.4944230261790098
2774 1.131226238840741 -1.2225537359180234 -1.8536198480224342
2775 -0.8175845690812277 0.10882106929719673 1.8298591970512457
2776 0.7577123706817719 0.8464845829195644 1.8585116231534613
4505 -0.081926240739136 -0.38323463700490096 1.9071015645713685
2620 2.152539237403468 -0.1356989179112505 -0.10656821392730062
2661 -1.5345429185529866 0.07613016297257891 -2.50157321840825
2660 -2.2062748786800728 -0.8425986323266702 0.8279590230634644
4572 2.5794993032218905 -0.3000629830718188 -0.2618564763525469
2659 0.528681671849513 -0.41461418779811726 -1.6352144030044473
2662 -1.0646800224177644 0.5975812315662765 0.23987855858320528
2621 0.34877948643161066 -0.7602037889461912 -0.5664492985745171
2663 -1.2122063148110376 -0.9203973382329004 0.5364461530604601
2664 -0.006872980130576224 1.7534638857113216 -0.8773366329055363
3401 -0.8121601002309247 -0.01926122167603734 -0.32710228293853
3402 -0.10840116263326012 0.20464884335234185 -0.915972146881546
1517 0.7024953008354863 -2.145637044953799 -1.7515145117717195
2623 0.6260716244718736 2.581789581646818 0.18071491307738172
1745 -0.45339753873906824 -0.8567346197643816 -0.03371114648559137
2475 0.16309614984939896 -0.7445494155396222 -0.21870195949350926
1513 2.217969204969897 1.326185486236623 -0.10617133238520189
1512 0.6299423289965213 0.8076400613645821 -0.34337521030748974
1140 -0.1712475866717986 0.5977167694021931 1.5271259978270724
1744 0.6241283247289907 0.20440816712702883 -0.016803831900816066
1516 0.034514558537956604 0.3771545927807926 0.09880605647302117
1515 0.45995309859334516 0.7756682226546974 -0.9692953348371525
1514 1.0355415112976034 1.425207588659333 -0.40751971139661997
2476 -0.8065059544355094 -1.1433660024715677 2.1002173688434866
2477 0.6269053611230314 -0.7362554909692758 1.5558304096422721
1569 -1.8797685848282661 -0.33488609576029416 1.203049879392189
1511 -1.0582427350471688 -0.05273151324554711 -1.6959954517545113
1141 1.8813577752737378 0.609437957962866 -0.674795690391709
3554 3.029381422464196 -0.8305553768910495 -0.2508620927345051
3552 -1.6997179244324674 -0.016235494365455357 0.45038556141402514
3553 1.2716595028149908 -0.20362013482834831 1.6345709383619549
1573 1.3859194104979127 1.6820560943989458 0.3267831821512458
73 -0.3527376182119846 0.7910015342258159 -0.42986296358532433
1638 0.8850725872748043 -1.3986963870304585 -1.3669803380988725
1572 -0.6092250162969712 0.7939974109290168 0.46257613042882045
1571 0.011878400162760027 -1.1864011342573904 -0.11615632717227958
1630 0.8881177264473397 0.767324532462551 -0.06319681870043925
2458 0.3550832559735348 -0.9480273131735123 -1.0511060142356023
1639 0.4664104340494863 1.296596433912855 -1.5472888028683345
2457 2.021377782015154 -0.37769477707908833 1.1410521553628021
2521 0.44520457651078893 0.7632739231773844 -0.48152033165280395
1641 -0.016401497371950624 -0.4564732275106377 0.35161273473399535
1640 1.2275725040018006 1.4707396039865184 2.3224559907614024
1642 -2.0115263363207614 -0.4134480048875409 0.0859977974822793
1631 0.9551316743226478 -1.272361817565047 -0.8856474444600665
1647 0.4543136610286547 -0.31815353953808645 0.42122656201748626
2460 0.04086450051939975 -0.020948352422351102 1.8587503364828382
1649 -0.3509105074088106 0.3967437081892213 -0.03476427577075812
2591 -0.16445998682683605 -1.2561703169831842 -0.8129276045322389
2504 -0.40821949234071675 -0.24118016375345472 -1.3900603440501746
1712 1.8547492381719979 0.523633612333277 -0.5609682036547683
1673 -0.15362174720831287 1.0430193380447463 -0.897441731788121
2589 -1.0556718104960576 0.6089644666805698 0.09252249581568056
2459 1.9827756060406587 3.254197017293645 -1.4622279484894747
2590 0.9841682049076148 0.13239130677993172 -1.1134281399777517
1713 -1.471440068105724 -1.5392886327260153 0.9448522624883062
1714 0.8230765513634359 1.333737334207201 -0.08539149588194561
28 0.3667705683459655 0.7419607431275468 0.4270166223404592
1715 -0.41017185694526404 0.29014122612070986 1.032876650052804
1672 -0.33225603654348923 0.5767167850124352 -1.6528244376006807
1652 1.006899202018263 0.2798225689405448 -0.9257016209275672
2634 0.7950426526661603 -0.20592374739387959 0.5394839457798961
2636 -1.6042408067944454 0.5371999113538738 0.09193958083591366
2514 -2.546943710118204 0.5936844884687914 0.6125139529996345
2643 -0.37641290604077193 -0.6645630407550562 -0.5617199841873439
1736 -1.1715210040944992 -2.0739321412800593 -0.20103222218421468
1653 1.1375741252357006 1.1658332753056482 -0.1688206916042171
2613 -0.120256578089291 -0.13276973672606734 -0.8696821063813387
2612 -0.06834523693834633 1.4376658745845114 0.96774539959619
52 -0.03262269020484184 0.5666737629105973 -1.8541965419091573
2642 -0.16962668252660554 1.6282804866997027 0.983510908631676
2760 -0.33065533496986566 -0.48679078988547714 0.889449159713549
1654 0.48200514175129183 -0.2519799025535075 1.615660321956174
2513 0.6231380996115452 1.2913819638400856 -0.45129433302957794
2759 -1.3815126236186956 0.9360808295756919 1.11576497389992
1505 0.17453653906323127 0.46665001133250883 0.2293500172651633
2637 1.4290741113939072 -1.209362343039194 1.0151315759099715
2638 -0.6158158042610571 -0.23945001745416378 -1.680785808895511
1655 -0.5210799547583785 -0.3363118058474882 -1.3084513326310379
2758 -0.15320371105495711 0.4294441767917364 0.8599416416854313
2641 0.1704556119297012 0.22649790506986459 -0.23768978352636225
2640 -1.486873727434412 -0.9215568486607995 -0.5752163758094091
2639 0.07370123030773146 -2.283093633049639 0.5605269734915189
2724 -1.4964291467553796 -1.665290784631049 -2.5982978902621663
3484 -1.040195334441189 -1.050393836780733 1.2154394617616484
3400 -0.19729279446707426 -0.5459351572156218 -0.10292185794927433
2622 -0.25666697033227165 0.5813665350984523 1.6503103602974833
3399 -1.0993527307785305 2.1120574546710995 -1.9771754596642384
3398 -0.7759157331436435 -1.0005044050389948 -1.190314351731175
2665 0.46774973434204986 -0.8639275523853247 0.9211772569545021
2728 1.646622116316817 -1.191754008456815 1.6556356771846836
2625 -0.4236808394307335 -0.7326638511615214 1.1254478164389679
2624 0.13559731951541418 0.6027127570892119 0.6886972158528917
2725 0.4733220485260317 -0.33185735972083746 -0.4323719345078776
2727 -1.120488383201086 -1.4806492879509112 0.33035181432872146
2726 0.9061893456199913 -1.0560267365293126 -0.2608776461963571
2626 -0.7749686707612999 -0.17061761247387552 0.8458726063570062
2730 0.5167021444277158 0.3408884557632406 -0.7833645063005037
2731 0.3558037543567968 0.005121173438049141 0.4778754595469547
2732 -0.16116706632154795 -0.20388997448983154 0.7133924660975458
3512 1.2247358193955211 1.4908239142975317 0.6443816947669302
3511 0.2471756577694433 2.511541799808463 1.5831938948972675
3510 0.5072610550317583 0.43804608152231306 0.8230797098830465
1867 -1.2773619582423 -0.7042355753900813 -0.7659360467290768
1471 0.39505483906186006 -0.49990195236935686 -0.7582581302557901
1472 -0.24735478272207911 0.2769403137992598 -1.1504817722270364
1473 0.631377839559814 -0.5686124086015034 0.8352009519190187
1478 -0.7630662491466734 1.3342492389522496 -0.5155768063278051
1479 -0.6411085900576531 1.0594058035755598 1.6861152528450567
1480 -0.545048677258632 0.0562536036251129 0.39373567049828584
1826 -0.6210524270776079 -0.11879666730550334 0.7855726874813119
49 -0.1791131489802264 0.33194535360517424 -0.8227524891552023
2690 -0.9400653077854104 0.27311935960868844 1.5559417966239828
2689 -0.6296509981584154 -0.37516365625604775 -0.3089749213852201
2480 0.5036419615777972 1.0755321825169781 -1.1744682858558102
1868 1.8702843465259005 0.5140730347429993 -1.2342752556629597
1824 1.0817977708525057 0.5513364742743322 0.6585037574387903
2508 -0.7414061959229221 0.3278793000218197 0.720365683478407
3830 -1.8521781445620746 -0.4506779998290911 0.8971419377194393
3604 0.04086965900258959 0.4319915693126507 -0.09810829074625273
1823 0.6153321885514639 0.24941133495597517 -0.8674541540179059
1822 0.8743031098318629 0.35319098066433646 0.13796010773008116
2507 -0.2614015899664448 -0.7995395312486355 1.1860601346418802
2509 -0.6541220777728298 0.46402091759873054 -0.5101060262422958
3831 0.42230281081952686 1.1872020814166635 0.30799160623527966
3605 0.054125065425864656 0.42904927755402483 0.14258165394760627
3603 0.2772560052351459 -1.2532361215124768 -0.16228382043247924
1825 1.0497790782763643 -1.0026995057386785 -1.2890209496800222
2485 -0.46736513956301007 -0.9995323024131314 -0.8707293754387387
1633 0.1706497694548692 0.2275883994622182 -1.3466524588557478
3917 -0.25297913584595766 2.067830338176883 1.2590748727824794
79 0.7377640045816489 -0.7134154278897297 -0.8632069864215555
3887 1.3545027057466201 1.5249215389528301 0.7453412688522061
3596 -0.47060308637426473 0.07430797855300962 -0.6121866075716871
3606 0.022417553532399714 0.32026884212888745 1.4886238490052008
1634 0.17104448481124965 0.23131992683095975 -0.9516412507283398
3918 0.652963912761004 0.4072904208874049 -0.15330125172822515
2524 -2.3491281971967166 0.4829743593162154 1.5395078781189566
2462 -0.6588996163333912 1.1968458440460057 0.23298542802400035
2585 0.9545231246480484 0.238168527100143 0.4042157481148543
2463 -1.5742542475307957 -1.0755388190580053 0.5780140963839253
2464 1.4158368229119764 0.7096135079209773 -0.6307093085145542
3595 -1.1856763504071917 1.9963611459660742 -0.21450664106606943
3594 0.7452022192864717 1.0726161333298267 -0.34104925099287475
2465 -0.025322694423517297 -1.9522855131836085 0.3317404605773809
3593 0.4324697465132883 0.7077264100777406 -0.48528633884001976
2582 0.7933933584467312 0.25325152108913335 -0.4825315454975132
2892 -0.7233044700889073 0.4243491986988955 0.5003884862965374
3919 0.8332444660032741 -0.5570153437300722 1.4982402948263764
51 -0.3507493617509635 1.4996160495732886 0.7664140708162975
2858 -0.1791002689244036 -0.40281605687436467 -0.3630630446256527
2563 0.9964029405351382 0.995742307498502 0.1865182849324834
3677 -1.079523189136404 -0.8321544881424092 0.23554312778531192
2562 -1.6934025137339 -0.45478982761643266 0.9067215416949052
3678 -0.3343118517565795 -1.6341728712046286 -0.1266654579718977
2564 1.232534738799926 0.07134852440070016 0.26801381281184466
2859 0.1770367278342094 -0.08307916724359282 -2.021207943959386
3592 -0.24701180833319664 0.10193651990480693 -0.7986337509944201
2471 -0.6298551026762141 1.6757136676523257 -0.8340934106430882
3946 0.03558124841243704 -0.23165705945426898 0.21859023772770142
3755 0.29722701188577494 0.32392567830844976 1.0918353954197497
3945 0.7770226338925058 -0.8134811226454787 0.18408667269472903
3944 0.9772346549202262 0.22499911596177574 -1.1935970087454828
2595 1.3561477249640999 -0.3008298728073215 1.8286526999188928
2596 0.5096240795368644 2.3130169077288487 -0.7721964838766117
2741 0.4464331975291251 0.9948988310313309 1.2514159762350108
2597 0.6412639122921145 -1.3348805363178966 -1.282359220390017
3754 0.19590410483862722 0.7260994996278073 -0.1263423957091177
471 -1.2825456520842156 -0.18029400377230206 1.0165067060641317
472 0.8778189852988613 -1.1299957834744825 0.8072342839364546
3770 -0.34890530257421104 -2.700672299408238 -0.011244110867228502
2627 1.7010154024721125 -2.3714992857170674 1.6635888056120733
1739 0.5194066500956717 -0.09037865500023452 1.8770400698469303
2749 -1.2762587835084835 -0.23779382312062564 -0.6324016413379242
1738 -0.1414975265368105 -0.8647104661960479 -1.3490427596363532
1737 -2.4929971858688935 1.1643199064344791 -1.1626029281507717
2750 -0.842808893760925 -0.2290349236697691 0.0216186714645936
2734 1.4079709535095195 -2.8386607304445812 -0.1916355052881527
2735 -1.218994374919416 0.3376161607163879 0.8086809127770248
1758 -3.0647438058220016 1.5224449778820985 -0.8662997944828388
30 -2.519995941372107 -0.20236114822517356 0.15654902399347834
2736 -0.7773400752600212 -1.387168813187227 -0.7011448211471203
3005 -1.4831600658524489 -1.166271515829435 0.847712828317022
2717 0.012626789484466685 1.6277398105278227 -0.8618289506895834
1757 -1.582154336333384 -0.28286268741326664 1.4726161784634262
2733 -0.20814557046169774 -1.2173688711430546 1.562127832459716
1470 1.0968312875717432 0.29726159697864807 -1.527535653664673
3006 0.5241023641087049 -1.324069511735 -0.7857924465634063
2808 2.3122541945456723 0.23874330581036557 1.075850643768505
2807 0.28254658584166265 1.192830929419828 -0.6922877172671142
54 -1.220816341898282 -1.200663520696533 1.746808363649598
2977 0.8124163519608757 -0.6022438671295848 1.465472983971376
2777 -1.760621758962709 1.428559651645805 0.7440877800909634
1869 -1.1147701763584943 -1.7072228690312248 -0.5740554038686697
3827 -0.4271344473714175 -0.19821445128658416 0.4027808486252583
3829 -1.8128045645794268 -0.3973814514183885 -0.15233494247133647
3828 0.5351044035218583 0.23550284579438693 1.014378513886608
2679 0.9515281764581348 0.07789484294940524 -1.5128783915444144
2680 1.1357839366111535 -2.639586286551443 -1.1342326176356947
1821 -0.3454664880041305 0.345119156861054 0.570444286265753
1870 0.7980282356730471 -0.32217465214674107 -1.8194545054949063
2782 -1.3533937472988138 -0.09831071522819984 -0.3813703488352349
2486 -0.10494663944626659 -0.02701073884165969 2.8672417756124204
3867 1.0301122866964514 -0.318216279008959 0.2556663160466792
3868 -1.6051138953909962 -1.3736732935055767 -1.3201792255452804
1820 0.9561008596119515 0.4609602184959196 -0.3521256653965533
2783 -2.1074455524554376 -0.1628019753772328 -0.35420159659461303
3869 -1.620323838278552 -1.0527305801553164 0.7620741368775859
2821 -0.299547137654905 0.435587776761599 0.44548326677944067
2820 0.7777238917061702 0.8104361089317101 0.3792929267108173
3870 -0.6229530616481845 0.30375065697159126 1.473542844045477
3888 1.2682463297428084 0.6823008084318772 2.482192840640076
2819 -1.7758486381568008 -0.9193276320999793 -0.2414509480552796
2487 1.1101567123755005 0.8924193516836567 1.266685365072166
3123 -0.6951166069270811 -0.6911193687347235 1.0859951394692897
2890 -0.5344573456834366 -2.418874531055963 -1.0742155211364885
3679 0.3645210075314135 -1.742431061129073 -0.36307350829052526
2889 0.20572879283854206 -1.537771867038583 0.6031278622367366
1921 0.03399443791593589 -0.6443618987049851 -1.4688907595677392
2888 0.5976382710328866 0.40287608856631424 0.05300179966068681
1909 0.9244690682914363 0.46110538843491305 0.455860882262251
1910 2.495746453007868 -1.120289356950581 -1.418469457755422
2874 1.3116219373429034 -0.05344142916622983 -0.4044304599745512
3124 -1.5899318418155448 0.5046772653633508 -1.311917355747223
2887 1.0555541873691159 0.3779129265886859 0.9406729208133081
3949 0.04167401020172104 0.6725211219126951 -1.8920602282442822
4921 -0.36983528074887434 0.35694239226784263 0.6032761752543058
3948 0.10528565365591726 0.36315599806820226 0.030440957156227622
4920 -0.5520200239528763 -1.2405558827760979 1.0465851075293047
2875 0.9915143118451705 -1.4004960713300338 -0.6027871561169796
3947 -2.06596473763937 0.2739280528486924 -1.2634117793801711
2598 -0.015624199149737894 0.006859749712796364 -1.0396378084183429
2599 -0.8626116384716032 2.2884795477475244 0.11860248871267051
4922 0.0022267120708831583 0.4434846132738935 0.004551830787008989
2860 -0.3592136041634096 1.1652892861597786 0.42456082579428195
2877 -0.07107504725941537 0.65085841734837 0.4903578284555518
2861 -2.230414478281895 0.6007371856029058 -0.2754546815639471
2862 0.04363767614306547 0.47470613012409524 0.051274723132299346
2863 -0.12265069508080644 0.8230407681009858 -0.41511217729111427
3969 -0.7445608208698931 0.3452747073872001 0.06512481873179425
2768 -0.17740996380428314 -0.3455380821448951 0.5209247024048707
2876 -0.022404249128129786 0.02809788248623943 1.7991463165168937
3968 1.5394889710068023 0.013597429637510266 0.39978943582889986
2600 0.6230853621293273 -0.5722201769385394 0.2572097561324272
3769 0.022731861700368082 0.1045220398186051 0.00433906695114021
2767 1.273735595461361 0.5352189107043478 -0.335745852842466
3768 -0.09432662992381921 0.3952910010666977 -1.0329269455328207
2697 1.7128570300742558 -0.5033293911508376 0.4882804916133902
2698 0.2490430244832024 -0.43465081314712795 -0.08932834461472225
2737 1.3384900145396397 -1.1821837777997246 -1.5796270962821444
2769 0.5553111197883251 -2.3312045396997605 -1.6303987459925262
2699 -1.6448012256294913 0.10547303943961248 0.05902192940166829
3767 1.595879556513936 0.7308112926929543 1.339280708698534
2770 -0.2164322390835772 -0.06744069062110022 2.2734346261751623
2978 0.6690954074814058 -2.3710320347867166 -1.1679182975798788
2979 -0.9739951206502233 -0.34898842381731354 0.37572818792306856
2952 0.6372664983101723 0.8135125113833261 0.6037079781158458
2766 -0.9393786587335513 0.456890112972011 1.2942155492711611
2951 -1.564992867111635 -0.014562301987401265 -1.4391369053322816
4082 -0.9552557907414168 -0.04097237043301175 0.5822125391176062
4083 0.6357031830559831 -0.5197503935480219 -0.27819239176596205
4090 -0.45414384523290907 1.517299781809281 -0.04551744947003224
2922 -1.0341725120474745 -0.7418243143854948 -0.0995943885999663
2923 -1.490906297922157 -1.4182887039693368 0.10944050531157923
2990 0.06457952522971729 1.0965458477780858 1.781759996980225
2950 -0.3614240272729683 -2.309010314528373 -0.7626613200490243
2851 -2.1941127346836775 -0.8551579936710367 -2.552089359009362
2764 0.024346782119592368 1.0089582528451317 1.1701429922404685
4027 1.709790846617337 0.902449028653213 0.07249483836106553
2976 -0.6200388545866744 0.3543247177392962 -1.2931278109479396
2765 -0.8519585711126582 -0.0809893568359407 0.4289133109838076
4085 0.19635114746762874 0.9291161685431721 -0.7374228387573214
4084 1.267581423404364 0.48807147732057055 -0.10388130486523613
4028 0.5953998011698737 0.06449786538440098 0.26320399986940873
2925 -0.3903064385574645 -0.37805991587631815 1.9357282282000363
4086 -2.0135623725257803 -0.5982877913684554 1.0772494143148983
2924 1.6214103266525892 0.32696716645909035 -2.156783450209491
3826 -0.8650275629596428 -0.687528171655083 -2.2719591233652423
2850 1.4075653111519697 -0.23798242448515067 0.5975081810913502
4303 -1.2876842079660271 -0.8806454931334409 -0.462439511021584
4270 -0.09419682575163398 -0.3547130006824063 -0.7449435613840941
2053 -0.356553336438356 1.651515158342875 -0.8682660460882693
4271 -0.022145486237417973 0.4226899684943396 1.2051122161265573
2054 0.04253928702840196 1.1825544645704515 0.3691925401903961
2055 0.8771641827197434 -0.5713875875453236 -1.8468649450526553
4302 -1.626964459226595 -1.4200050605602275 -2.1963072314089582
88 -0.4110628210667236 0.19976511894510374 0.006639086499947407
2849 -1.2894262688389997 -0.8863132679618136 -0.9343309729391612
2848 0.42727238584450233 1.6315400701329896 0.500106386293677
3135 0.3537926549784621 -0.5863718032726709 -1.0489964533842833
2784 0.4398552951736896 -0.7868608808837102 -2.9038103864213642
3099 0.1186468127340182 -1.6948323898363211 -1.4555221373080094
1841 -0.9151347646227254 -0.43230286879039576 0.2837295317385126
3211 -0.958194476481372 -0.06461977543830646 -0.3569142833688859
3013 -0.8975953149118745 0.38742039540247475 -1.0843839081410345
3012 0.6957770491500455 0.24968393496472202 -0.8641280803939123
60 0.4112717641440514 1.0583411621486334 -1.2382167965002029
1840 -0.2979130273565465 -0.5453719376383849 0.7189382319188475
3210 0.10856847222137497 -0.0288393162633484 -1.716415101886576
2056 0.9426924153430826 0.353502491848397 0.3738744276492775
3098 -0.011809492487076736 -0.07291057018153521 1.484945069323512
3014 1.6186991298361004 0.22440363692305867 2.029141655229412
3132 0.5710568538174321 0.31924580663812097 -2.410847000675124
3131 1.7593378242147837 -0.38192977235911024 -1.654942196951763
3015 0.14235334309192288 0.5664759415831939 -0.047964148218112665
3122 -0.6221348531645438 -0.13183322504429137 2.458264319079545
3097 -0.04375352584854865 -0.7631034469142961 1.8599357280355935
3031 0.028858831063715125 -0.7972890618075222 2.389649204411004
61 -0.8133517630008965 -0.5635139881435347 0.4193054483291292
2131 -1.495373697630191 -1.5224968341823606 0.43811404655138
2842 0.2485369730569744 -0.7009928331997854 0.261566770605477
1911 0.902663537353831 1.6696821894789637 -0.5131741772456556
2843 0.3286508124337964 -0.07355407066107317 -0.5414380950927437
2873 0.46155686399201007 0.26021537523847765 1.4095879020297906
2871 0.6310389415394662 0.16494846466899588 -0.37690859641534324
3130 0.9608498039088971 0.7933158077910305 -0.1652764225140122
4180 0.952452531556376 -0.09315891094668081 -1.9992137833771855
4179 -0.28022873326520226 -0.07086213951917478 -1.08874331153737
3127 -0.7474917711056902 -0.7688616078922427 -0.7324795197934622
3129 -0.44830833775102064 -0.3908697269118833 -1.2391492947174192
3128 0.17305898908099765 0.08273274841572768 -1.1276269567711266
4178 -1.6965055971263188 -1.1605666933568657 0.08528905003031964
3971 -0.7363914381680975 -1.941172924762532 -1.592531005107171
3970 -0.0017884717824576926 1.0887879039197246 0.677569264356983
2171 1.1156666562711561 -1.878643047661305 0.6186841829576858
2099 -0.23900388837456207 -1.8677995252444846 1.538648984077818
2956 0.6764838866622768 -0.6508905009646297 -0.7669400864301877
3148 -0.4851394826038799 1.5506198656913703 1.2318423332157744
3147 -1.7917595468832452 -0.8821276890374591 -1.3490156987632533
62 0.8732667094252191 -0.2517136469137143 -0.541396352579842
4230 -1.1423225037632174 2.2639536152084303 -0.06617527610071815
4231 -2.6516390330553046 1.1864394719513336 -1.2054286727645172
2867 -0.21053772252102243 1.5968798985567492 -0.5339547414807916
2882 0.4662468840218137 -0.6307535683232025 -0.9401145019436876
2702 2.8319394386073125 -2.554192887052324 1.760162600404725
2955 -0.4281767242253289 -0.09326123492335685 -0.4203175329926024
2954 0.2789290711580498 -0.4645932283870376 1.2554305193225017
2953 1.0253589514156538 -0.5223232184460319 -0.9850505092328804
2701 0.19602402635870242 0.4746851340315815 -0.9063778591423848
4089 -1.3870524827994337 -1.5251700971833237 -1.2054126846953017
2700 1.3769687691301706 1.1129543604929553 1.0119892038777458
4232 -0.33638485605920593 -0.11970638933167688 -0.7695109562919942
4088 -0.8506878167623576 0.2682626087419394 -1.9884020477309836
3192 -0.8317235843946359 -0.04372622815348432 -0.8380561971835168
2987 0.7559826161664102 -0.44262246460961374 0.4144989414553466
2921 0.2948240525807449 -0.9575261910613555 -0.3895462589159154
2948 -0.457499900904997 -1.0828515846741147 0.8632007767260016
2989 -1.9049770258038046 0.7721506600164868 -1.4396488533603498
4020 -0.4886780093470931 0.033383270828584076 -1.3660281587816236
2947 -1.5379499953692268 -0.2712865637936516 1.2532895866767608
4019 -0.8389905498449794 -0.12099641283331378 -2.1869354477000753
2949 -0.45347436619030357 0.8065998022359714 2.0048939772585608
4283 -1.695205966625319 0.533093192386065 -1.903974961363876
4305 -0.13109078682678538 0.07644810794564229 -0.4083494123233639
2988 -1.5470489505827736 -0.9155050024208978 -0.6477716537854393
2986 -0.31740791859295103 -0.20927619309388718 0.11295036457470585
4307 -1.8103043593575319 0.8674866110314527 -0.12267822945910109
4029 0.4034286178734195 -0.0537638108957065 -1.2792634945081758
4308 -0.24918355435225018 1.1198202185205226 0.45610575956636057
4306 1.5547707238409723 0.17307765373476494 0.3418955358014326
4309 0.7521042335299901 -0.21152401343484445 -1.62638973292088
3246 -0.24558166671243498 -0.7987372710392934 0.9153269783927942
3011 0.3332757575595188 -0.7364330278119116 -0.034545563647900436
4277 -0.13311341090892548 0.07469300507902983 0.8946894276215027
4266 -0.7895058174697038 -0.5018969722856301 0.18040527523207583
4322 -0.9128052416051927 0.5262142184709655 -0.19444964879142076
4269 -0.10943825523418 1.0100457468815272 0.24099180386630253
3270 -0.8127824919366062 0.1273121270759781 0.1358639721057623
3271 -0.4315882346059428 0.6307186243946192 -1.6576978820688555
3136 0.26054473667470196 1.6793354239964937 1.660865465139295
3269 -0.6597286956462077 1.129257510287204 -0.6388823206244671
3137 0.3351030880196405 0.8484525126637343 0.1428278326376292
4323 -1.5599753894618589 0.8435964983768622 -0.21155007119048658
3138 1.6755356546103204 3.3173415711087597 0.9646712314333098
4324 -0.6844921593147707 0.0012614651820584456 -1.1039581082598178
3096 0.10502667014598525 0.0604644044227672 0.7014528366043394
3220 -0.7416766803887671 0.09436923821181395 0.0158814837393064
1839 -1.2911041901674678 -2.3681753927991127 -0.32021903414890807
3062 -2.792166022966882 0.11785148105590676 0.6542128950259211
3076 -0.12113591359307718 -0.5397078937353174 0.5231533788497814
3043 1.3679969493024915 -0.578130196804932 -0.6925291899377508
3077 -0.8476902819238168 -0.9037123972966701 -0.6992568940613947
3042 0.8727443935997159 -0.719475011945225 1.012289311325061
2839 0.33307905183023323 0.53445826002906 -0.4807508605756477
3078 -2.1956681944959344 -0.4202167211049097 -0.666537500201741
2969 0.7016687474181833 0.1138356364817938 -1.2178591127012854
3232 -0.09132921682434787 -1.9440455269553636 0.12204191182716599
4451 0.40515629525168595 0.1927592066795051 0.010103219418638655
3238 0.7759075812795255 -1.3424864960861924 -1.6079840489729533
3063 1.300699205299212 1.2246196303747372 0.04464222949822385
2840 0.9656503355943934 -0.12994833260097097 -0.7564765059154731
3239 -2.3665249389319873 0.8800138495322757 -0.4372332783375554
2841 -1.517109250023582 -0.6199028015850694 -1.0060052750468702
3237 -0.8667651685538824 2.6578326959429175 0.11158640160116404
3240 0.019921966541388624 1.1339200078506704 0.9642403784017991
3065 1.588128178178363 0.700376951863378 0.6940195571958828
3064 -0.15147668590570132 2.1263613654945055 -0.5919758095187557
3233 0.9110787395251047 -0.6908321443203682 0.46338670525758374
2129 -0.6089823002691153 0.39730420002516176 -1.4215581460604412
2128 -0.23392873564676825 0.48098486519260925 -1.0433669783775723
2130 1.0850208101096306 0.5061656177175954 -0.7613102965470189
3241 -0.3234772003557339 2.7869733581728258 -0.5371270318024547
3972 -0.46851379900109474 0.8560792870284635 0.3681590472259435
4206 0.730263894523278 1.3559820916344072 0.012199593927717634
4194 -1.1238235030225077 1.988819685672188 -0.30283372185332447
4205 -0.012233047442145192 -0.48508767519646606 -1.773598785747614
4204 1.0310372865290078 -0.0854696109757793 -0.05540974942406976
3283 0.7391253246161085 -3.472969018171745 0.16659801319760645
3142 0.8113369371851239 -2.35898443557102 -0.9406181573960815
3143 1.269943211176906 -0.5647740384260203 -0.6729449688507211
3144 -0.056446299442506884 -1.001865093622386 -1.8018475878821265
3973 -0.39912120890092395 0.06319181840562693 -0.8510976964744242
3151 -0.3975687961335866 -1.7944111709208896 -0.9135782123660408
3152 -0.860760422108689 -0.34853753045496905 0.9217394614067741
4192 1.3944358604661282 -0.6958575956504383 -0.5580916409036789
3145 -2.7339990571134347 -0.9016729701995893 2.553653775370929
3150 0.2514117281773585 -1.4480527313334526 0.3445390853143616
2884 -0.04121765152603218 1.9342748142860058 -0.21479330777193936
2869 1.2814612667206007 -0.5956842960880647 -0.7430308496270912
2886 -0.18000792489732706 -0.6022983461541868 1.7023974910559876
2868 -0.6031707959021747 0.6432568430472603 0.7243151435270927
3974 -1.8788352892438733 -0.20084725729213226 -0.4943756771237738
3363 -1.0310008413612632 0.3616575065093114 0.6428705271723474
3975 -1.4447404581688474 0.4993553443726924 -0.08679198411327266
2885 0.7881888259371286 0.3678005247913747 0.254844406833377
3364 -0.6912403873229762 -0.3960727316686587 -0.9881908367223455
3366 0.7087098999838745 2.2600884328960404 1.083277831101784
3362 -0.15639445651825248 -0.6750107400256334 -0.17795358376907303
3976 -0.26725272001759237 -1.2574109710342245 -1.6078729434337935
3149 -0.44864603874024095 0.2567308753919291 0.8477310142113511
3980 2.8027626873353437 0.38558305083236155 -0.36152782053332444
3979 0.613580192799855 0.5684634245327498 -1.6414196935370413
3987 1.9537395437090328 0.1568946667333813 -0.491942848103061
2883 0.6678030503039444 0.06465383567403374 -0.9188604012834998
2920 2.2397882464456287 -0.13365017997437373 -0.5017695645717485
2918 0.7731571826130538 -0.29638305807239534 0.7876367126776889
3982 -0.4120206454612701 -0.09840050862748478 1.4111437844683041
3983 1.11762631041398 0.3504395714820399 0.21844972392090523
2919 2.1682929026369893 -0.06823208724664898 -0.016661793697174233
3977 1.2453241979818035 -1.178920058817205 -0.5480496812785683
4018 0.7276542079852621 0.9920072891987036 0.877137902063617
3984 1.302802241834022 -0.461640271609731 0.09178134830634238
2224 -1.1711414858713518 -2.423070093284861 -0.22159461850880918
3193 -0.5969552358759159 0.8608115772346995 0.8609345820650639
2945 0.7586602092705507 0.18327197085827038 -1.4430621512974149
4284 0.7290393480739996 -0.5332115647395484 0.6178035367542776
4285 -0.500325127613776 1.0573328568810823 0.3990037634352706
2946 -1.9225707763423125 -1.9130711940566767 0.6401379326443621
4286 0.1061858631381431 -0.5645924374923497 1.3877763465716904
3407 2.3519856743058694 1.810627437628659 -0.5009194892724629
3374 -0.251761054122094 -0.3663435046692531 -1.414752765772292
5136 0.6220785837612117 0.32200748596245826 -2.1782567140428535
5137 0.948247232661634 1.0171943798531402 -1.529234625905718
5138 0.17375743894370452 -1.2195054131759664 0.6496103244965321
3194 -1.3097859687525277 0.6335236006584486 -0.6008590220716818
3195 0.06735976019887446 0.3036436198034519 0.8621678739044197
3196 1.2088928935343857 -0.31972384646750296 0.6282976661946706
2291 0.604734939538591 0.045683698670044105 -0.3536187327380691
3225 -0.9366733214273477 -0.745330350401227 0.5517583687610571
3373 0.8561324343239644 -0.07979942209068054 -0.24449874532508384
3226 -1.3613872297681624 0.9073915571693921 0.6304492067719438
3227 0.14087023884077496 1.0485259048497315 -0.08520707628313572
3372 0.5374007611322459 -2.2960150755787185 1.1490216736629073
3183 1.834796118281314 -0.9301027597748944 0.015063501536693367
4279 -1.0107567815367362 -0.7187807802274823 -1.0131278479866357
4278 0.7545114323115347 0.007226894696103292 0.07683824898289479
2355 -1.437870518654072 0.6903263046281081 -2.1405522972009936
2356 -0.35377081538581046 0.17822639211977975 0.5792521356629908
4264 0.9581513764594766 -0.8802612859909283 0.016680132406148147
3045 -1.3261692676162866 -1.3631168267907185 0.10429027601489788
3046 -0.2882446730836111 0.9635838550788578 0.7096077034894149
3257 -1.873057148000822 -1.0140092212400165 -0.8393060322286464
4265 -0.3691554196521254 0.5320417172529849 -1.683257673663699
3255 -1.1636747607346216 -1.139180091204437 -0.7899027302752372
2968 -0.7004636708947071 -0.3224643276628696 -0.5807399164502903
3044 0.300827344668737 -1.3881554339719337 -0.4620532441104845
3256 0.5392400106911027 0.4462787945798823 0.4656548833010094
2967 1.327414927554624 -0.35851193986869645 -0.49633090954511183
4214 1.6706256627255567 0.014820311754639676 1.2395151780654714
4215 1.0241184976642244 0.18147843863184965 1.2929737191870958
2838 0.3269290930987665 -0.20814783787217145 1.6065876809971074
4216 0.6542651859053736 0.017413281544447084 -0.9569627597610465
3231 1.3964418729689503 -0.9311051448472487 0.45895433851166073
3425 -0.5265382088036182 0.4290831407111305 -0.5437509069439939
3066 -0.49595178270193213 0.9803977224506703 0.8719100905740704
3234 0.8180719022945617 0.25166710351640403 -1.862918533649279
2837 -1.6246790345263897 1.2506945922269859 -0.5844482471160963
3326 0.8504587444177274 -0.366707885987444 1.8590329408203545
3235 -1.6961967623056802 -1.497514926345394 0.27032765480144266
2127 0.26387275081421485 0.7508094536142222 0.6619065614587835
3325 0.4565695110883373 0.5148839245976639 0.3147810688795145
2125 -0.27462649867091043 -0.3703219941492055 1.4251831870479041
2126 -0.5616195104862245 -0.8169341663739245 -0.48463865197137984
3236 1.0550175863875044 0.7343616035186549 0.40271854527213696
3432 1.0136973485834835 2.492206757238998 -0.44654936475903767
3309 -0.40822484434470074 1.082388604180205 -1.9042592028077499
3361 0.9431551579202128 0.08924601519406598 -0.596690515329434
3360 0.22928899735049807 0.22225256424506656 -0.5348828093065453
3282 -0.2971560974672359 -0.623589951689771 0.6336946685078211
3359 1.2832505502304956 0.7249847714981068 -0.6682888904813645
3281 0.8806787630191194 0.2083825979469509 -1.2543410858592379
2444 -1.0391881562806875 0.6320723586771796 0.4426546430640322
3278 1.0137502310413462 0.8525153835067302 -0.9526715249283515
3279 -2.0895299403206886 1.41486261954614 -1.399326876241811
3280 -0.8800037138681025 0.6359505182845807 -0.7091968737082711
2443 -0.8529077698136641 -0.9427416608132888 1.5309221479597928
3357 -0.22887313584051436 1.0373155799716516 1.3779571966755646
3358 -1.2849275823587398 -1.6468099844690998 2.3001571287071982
4390 -1.9154846770404226 0.36031390157889 -1.3066975624824555
3153 0.35299848141912554 1.6045213818584967 -0.08231200713871804
4391 -0.37001198321052164 0.4021554915455798 1.5913579491943612
91 -0.5188388811412888 0.7505762592243302 0.8929284433600753
3356 1.673160481652389 -0.9042523261089427 -0.4278109108496977
3355 0.15657511266542856 0.49903288374875443 -1.199755725060733
4188 1.318562399399138 0.7635161748723136 1.1269959987062839
4189 1.049079324566358 0.19531163415589145 -2.0386058457269365
3344 0.9337528060718535 0.24366961291364525 -0.6709752633217362
3343 -1.766227926935644 -0.7675437855851545 -0.8436940540954507
3345 1.6062113046400788 -0.7086370067696802 0.2999621746835801
4383 -0.23284824195509665 0.6251501034896934 -0.1828962284984466
4301 0.586826847219063 0.014822215886560595 -1.2396976497698533
3342 -1.4609351708026765 0.617388044973349 0.22479431282397627
2225 -0.2602314110751509 0.24132441651598097 -1.6433458819957936
4553 -0.3329351989428339 1.2671727321181727 -1.8457545819049541
3411 -0.1806229814931274 -0.4025995072461204 0.9431575830542663
3978 -0.8921084625423137 0.18851122992702093 -2.2105718155290375
2226 0.5268907982740676 2.3221263376271875 -0.5310596293187801
3408 -0.299152911314799 -1.1596218903652948 1.61941973623057
3409 0.9768924327363981 1.7590425073731524 1.0185702918767663
3410 -1.4510461759019782 -0.7679910387406254 1.251202307616735
3380 0.13001234761847053 0.17285715909344132 1.7964745372183253
3381 0.8018469945437738 -0.3325084335025698 -0.6722703878435862
4496 -0.31821686846643576 -0.19231108377677678 0.2854794989868679
3370 0.8585109816666292 -0.6199060936562901 1.1289070415296891
3371 1.5750806233869927 1.5704112405136093 -1.0470079162893613
4287 0.4055471430632013 1.8838563888547595 -0.42457230225273934
3177 -1.6522122783629787 -1.0309337650196941 1.3006093568361772
3178 -0.33081088501988454 1.103516776646854 -0.08951679708194396
4288 0.1505481118595517 -0.7376101725661383 -1.5508716233490925
3405 1.4057779169069957 -1.9007341963716733 1.3362720597394975
3404 0.9635147811557653 1.156773872005547 0.40260153315555736
3406 -1.9996359340446224 0.9534536599092802 0.8514038607126845
3179 0.39701966887990503 -1.2792740342728077 -0.823791067263052
3180 -0.9725829807417106 0.41996108208833816 0.5064588730271309
4515 0.3329858807058089 -0.2981989145967565 0.8606263070913713
3390 -0.4499020080963601 1.4937436441369611 0.23654855203090414
3387 0.02812437385790404 0.8071958551419218 0.846495962927748
3389 -1.445595182247301 -0.23255566925963708 0.8270225396195203
3388 0.5773666607279659 -0.1868368019423081 0.12014650253647888
3576 -0.23106733625706302 0.9039442350555011 0.2374617999225461
3182 -1.1282808302156395 -0.32903724257572525 -0.8460110654002497
3181 0.07175266374868354 -0.9123919744312811 -0.0166080888576429
4263 2.475924510817351 -0.27962181138296555 1.8385868048193206
3575 0.7372315730491693 0.5814649269207364 -1.982022588347382
3184 0.08088356113504167 -1.0464494892152931 -0.773491204642356
3671 1.4088355848329523 0.9769406153259323 -0.31390824902737957
3254 -0.6983134230259026 0.0002676962180966303 -0.08909278878381535
3670 -0.44171344776249755 -0.9631485590051578 -0.6240713883768055
2493 0.7970558197448365 1.3751667395120852 1.1374037715006537
94 0.45093549540044187 0.09656160887239852 0.9529219734216356
3422 -1.0481598825573488 -0.7733169470475446 -0.7167969164073746
3253 0.2914686786892159 0.4491964005771426 -0.32737155482610536
4637 0.015724680807358702 -0.06813557581029109 -0.43348405467724244
3423 0.6580188136039867 -1.7288545687927448 0.1393526375756197
3249 0.9861712878251367 -1.3145435548283586 0.5769476190245462
4519 -1.793539101276451 -0.5638679487609259 0.28911934385000493
3426 -0.5472238181569324 -0.14144747942796504 0.148546881075804
3427 0.4750201691983775 -0.07007322968964765 -0.2156216897914149
4520 -0.5503647532581325 -0.17445831937114692 1.1633071031991036
4521 0.8441276863317508 1.4731771047446682 -1.348916780135845
3252 -1.6588137085165202 0.014304947519518734 -0.6067525773184141
3251 0.2732472240470171 0.0733659682163047 -0.9942893766613732
3457 0.6754416966758535 0.6445336881516515 -0.1657299264525829
3666 1.5378396682444957 -0.15891512539467653 1.420350387194681
3424 -1.4582021461818993 0.6614261492578541 0.757761328496851
93 -0.9682678302667699 -0.38965457646739904 1.5083993628759418
3458 -1.3173832738275746 0.23216337942481352 -1.2809220554150336
1435 -1.1323689016363274 0.8705191191060901 0.619551919868874
3308 -0.23353910413282297 0.6280874983187299 2.31103820512961
3429 1.239377734539387 1.487177047862604 0.19880777535218921
70 1.2657232095416402 -0.5612492985605742 0.563695423036675
3428 1.6085634992937115 0.31229949665039014 0.9033286171836565
2581 0.38039815174533925 -0.3597704900697474 -0.09263518556294469
2580 -1.7528822582949706 2.1292681380387073 -0.4605898445712779
3310 -1.296763147991488 1.1481236146452576 0.70850353866242
3311 0.4068589805217744 0.9809007724155592 -0.8892311353088053
2579 -0.7683536510360794 0.4383131943442211 -1.2544076331110376
2544 -0.09160473488477715 0.046087598829018826 -0.7729203371839347
3312 -1.2265676531806062 -1.0578595168858367 0.9250331581296374
3665 -0.5157484655472818 0.6118622127695296 1.3417288817638797
2543 -0.8878139192677154 0.3698981808282281 1.835374248561262
3301 -0.7356305104692132 -0.11189027242515569 -2.5498190147801796
2442 1.6360362549478578 -0.11052366611397797 1.9949082988740552
2545 -0.12435637789452236 -0.7638903197242316 0.7112566462287568
4389 -0.04221506296041701 0.09713147700826677 -0.17626705088137382
3300 1.4794456725445333 -2.2046172572933354 1.1937560506361293
2546 -0.5372545466573663 -1.3369147559562033 2.5131077524493413
4388 2.1442821631197333 -2.0827562069507346 1.64117482005526
4396 -0.27686068170339323 -0.1359613931369711 0.6589950879343145
3313 -0.11229715555259144 1.2397442369806762 -0.2606019607182723
4411 0.34348909475144823 -0.8837486644600194 -1.7210026624695913
4402 -0.8947302069732676 1.2566189331512618 -1.4615556114883101
4384 -2.275778933067967 0.8347807139184135 -0.9057406245822095
3348 0.468197318695945 0.15143565203549075 -0.7271725207070846
3501 0.9667837259022795 -0.1804343885415309 1.0456941646401388
3349 1.460451389415268 -1.1578796619969933 1.3009451978366056
3346 0.022260604516962806 -0.8242467854741051 -0.07976400946260602
3347 -0.45711465383689964 0.09555698929182951 -1.0313423019605144
4502 0.9986076806754023 -1.3077931249832848 0.8373397476592306
92 1.2083756576226676 -2.3414216541994834 -0.2623945915453297
3497 0.1548891819143971 0.4307849960588003 -0.8076425948330211
4552 -0.2588646329210144 0.23765166732028484 -0.17330798541267203
3478 1.5630576677541006 0.2290603424971305 1.3039437094969246
3499 1.0015587512672244 -1.4163772382143058 -1.1335282432017195
3479 2.248640368506165 -0.2597989697988139 0.5843085680968896
4386 -0.13935233905401295 -0.22813634603735572 0.6086753681319939
4289 2.157414578090695 -0.5689650684180565 -1.525812953096339
3382 1.5823847082739588 0.019258351926588126 0.8525681589309877
4558 2.2545963939734066 2.275951099816316 0.6775876628079879
4559 1.5927011846391896 1.1699240790227081 -0.42733211253138575
4290 -1.2430147742895479 0.15596882630349554 -0.25586204491847503
4291 0.10298045338549394 0.05766248881265807 -1.1533856827102194
4560 1.2341890117967176 -1.8592283637323963 -1.002495469595204
4509 1.3798367492556993 -0.19400878813550512 2.047530301640277
112 -0.24350875565359217 -1.1213368001985842 0.41136739641597453
3403 -0.5491802891810919 -0.015249742468608333 0.29840262134917944
3391 -0.0529355132322878 -0.22099893146616753 0.8590946946865105
3416 0.36656952489144734 0.6204574777179972 -1.5218087610472313
3417 -0.42739719374963586 0.8502913129632489 -0.4443230151316822
3421 0.7304069828747879 -0.07393821259369532 -0.3666618340033845
3574 -1.9756568285849025 -1.3235267236742254 -0.16958157236575122
3557 -1.6375292835344863 -0.7097194634161119 -1.4904815797220796
3669 -1.4761596159309427 0.8053371021095858 0.1115944608862772
1646 1.3133974096154062 1.366099353550883 0.7590646105339146
2492 -1.0265251665725645 -0.8806303979239585 0.7705844757960236
3420 -1.785042552616295 1.0795387910120524 -1.5032270935585315
3573 -0.803881003300909 -1.2208691066116386 0.049426434912892864
3572 -0.4121545459766006 1.6697875766395833 1.3539744078665028
1645 -1.8283174865064638 -0.16825824217654844 -0.9311890886280956
3419 0.11495785305666673 0.8777825802972999 0.8647520093357768
1643 -0.600812410379035 -0.0694055828723642 0.25001941549674067
3667 -1.0916665428724739 -1.7985543891465303 0.25307949658631007
3558 -0.6220318340892793 -1.4781470501976648 -1.238252557881756
3668 -1.2524272992950305 -0.538885740681711 1.654116449525985
2500 -1.2547009202420987 -1.1023594899460811 -0.29753762213745777
2499 -0.5918061772045743 -0.6756330078174759 0.12980163821457288
2498 1.3012510321629231 0.13476816819748152 -0.506175675097772
3571 -0.00015926741560047254 0.2807700508726467 -0.10891485416801584
47 1.4293366676443124 0.1958103319148092 0.4265202030573854
4582 -1.7368542187991247 0.08724739346333231 -1.4110110321294405
3569 0.12041766544975652 -0.3214890438969719 0.44600293520158957
3315 0.669383791806392 0.4793001086157657 -0.5907653019779747
3570 -0.1642806449911315 -0.20618143107214776 0.739674341455613
3664 -0.76323590103412 0.03261261807216366 -1.0655485469804062
2392 0.3864280441074362 0.41632466764926357 1.041019101763661
2393 0.7074766378165971 -1.8541180518931595 0.9017596877654298
3442 -1.6888329334718823 -1.75847132336576 0.3102518462197491
1716 1.6705220020264613 -1.1834612216522056 -1.0103308781359985
3443 1.0181319413912706 2.5120565213505346 -0.7110651603584666
3332 1.1269270622490084 1.5517026597223689 0.01656384362416976
2542 1.6901999468637505 0.5648927978033548 0.9684669357070885
2541 -0.2970086683825581 0.7675658408806454 -1.8253251979647527
2540 0.10787920324886358 -1.1406730078902425 2.061122055322527
2539 -1.0757299245958676 0.3101065427856118 0.8059586571188557
4394 -1.6199972983091016 -0.9520669152457829 1.4775796507696288
4395 0.6599486722211032 0.1371624297485949 0.490423728584108
2395 -0.9829573119192812 0.2314493238101242 -0.06967389368545754
2394 -0.8716456995340115 -0.4378491888548118 -0.421480050361007
3314 -0.24461617491512205 0.45052274818385946 0.6253211108910266
3615 0.6944941409172225 -0.8958179961521505 -0.4824050848901525
3616 -2.224173002386985 1.8851708748994045 -0.042780679660371336
3333 2.45605100413958 0.20352578625938694 -0.22281782800375557
4506 -1.2543490278721692 -0.3421406026771098 -0.1375030019938826
2773 -0.35670488202850914 -0.9837472522301286 -1.14656997793735
3482 -1.5479171893633847 -0.5955809615289425 0.7688035435290042
3500 -0.4629517892004799 -0.5499313329285455 -2.208033003902942
3739 -0.5822532525593213 0.7744268488117813 -0.7104371090898122
3498 -0.14067547979108327 0.33859597587336415 0.8677632128360578
3738 0.14177602306598583 0.6453666430157001 -0.10038024988903585
3740 -0.5868853913717679 0.7445773054852826 -0.06490527459721604
4507 -1.1545728541683957 0.15396067206975783 1.2061543899865825
4292 1.9840211388804778 0.9004174224761096 -0.0701335161670777
3480 -0.3019239958553133 0.2497064007011165 1.0096138338326905
3481 -0.22465848374916794 0.1510003288119203 0.9208588265754013
4508 0.018730832187635875 -1.092238335951174 -0.7504994094700613
2666 -0.10743744663179884 1.74606712101301 -0.600422726195195
2691 -0.0636252665369467 3.1602414196906263 -0.33995380743699233
1481 1.2091701368331547 -0.5567336317753337 0.22386441292420145
1570 -1.7813868409919837 0.024817485670297755 -1.3027374741931645
3527 -0.650216394486675 -0.40833363727763516 0.39378311099245894
1637 -1.047115793585502 0.005188787097267655 0.2202370979454813
3528 -0.5809932808129642 0.19697611398118622 -1.2808488644339548
3529 0.18397421942588968 -0.5447131641435029 -0.7768443419573168
3619 2.0351040725317877 0.37857207826139916 0.7772530389848115
1636 -0.7009500305455483 0.9640506533301855 -0.7339421188024582
3846 0.6139794220317008 1.6930947413625557 -0.8786471459663342
3618 0.5196405753760486 -1.0818640365385166 -0.19002963620127034
1635 -0.3470876062861674 -0.8234810163404815 0.23654272339309226
2505 0.26174495727055225 -0.18875545856775422 -1.2853994895490513
2506 0.8463309206887225 -0.6922563910924804 2.5571292248383983
4635 -1.2627413569452464 -0.0828445491676807 0.10142510783315307
3598 -0.8730071314787066 0.8575809358397567 -0.2397845921687806
3620 0.6024432732275794 -1.6056992845781783 1.4372969115857215
3621 2.1978172766943262 1.9513341041978423 0.8154504298876841
2522 0.6015376359996645 -0.8433888517769383 0.04452089841399857
2523 0.06376827004735855 -0.17858398168458528 -1.2682839564224362
4634 -2.6781226906276077 1.4059706080354661 0.24089975075136238
3617 -1.7055086088936418 -1.1935461983438447 -0.4287300399935345
3444 1.0000704321076728 0.6093251818825822 -1.0569454796993534
2501 0.9725609078962492 0.6357659771185736 -0.17617251825760646
2894 0.10550104252570358 1.2082097096033018 1.274984095278522
2635 0.5529028780150695 -0.9969862174250859 0.0940896669543703
2502 1.5654742266213337 0.6300084953408698 0.7480933522178567
4633 -0.35315995438937986 -1.813178839379021 1.3407618223894555
2503 -0.41692151333480243 -0.2770639576535007 2.260684167325545
4632 -0.6178708548204632 0.8956624285738249 0.3166676425168021
2893 -1.3082785973471576 -0.09380528746710472 0.4514340415376399
3920 0.4997224894632588 0.05580309867537733 0.28040512714084004
3613 0.024887024731764285 0.043694140609121974 -1.0873982932740964
2633 -0.46698142554030464 -1.9070941947170448 0.4441594652418505
2761 -2.2634118468694804 0.27289598312246494 -0.5808380991838913
2632 1.4088104028235506 0.23551536842739382 0.8206802911498912
2772 -2.072612751297805 2.2426422714237937 0.1363857491954912
3614 -0.9832256947196184 0.6564332381420063 0.2765068108847421
2470 -0.48391441442029703 0.8414273027076723 -1.2986260897191306
3612 -1.3419712778279207 -2.160520913375407 0.5643396633905423
2538 0.8683338780553759 -0.5995225572377207 0.5134863825805734
2537 2.6826407598536064 -1.1171590372720988 0.06003877946504743
3741 -0.953147043913635 0.08936330673886712 -1.0533595098798083
3483 -1.231250022160407 -0.11490059235356276 0.5198855444995507
3756 1.0435201124992728 0.7768619673311112 0.9792194237242174
3752 0.5758880739357183 -0.4181211919654514 -0.4305930165612116
3753 1.1068165782868913 0.7844287245501197 -0.6168254218672853
3486 -1.0388173649038563 -1.3355977939907628 0.8571881552186157
3487 0.9270134939073154 -0.6443815891668485 -1.74015121190104
3485 0.19072883201084476 0.19216542095160308 2.15851985930541
2628 0.8633136982588943 -1.8972795287496549 0.37465302886549856
2629 2.161353937846153 0.5200811951738199 -0.7749288451649315
3771 -0.17976690210943402 0.17852802003307794 0.1470588365869956
3772 1.3254399608015146 0.7778065124832376 0.1662442997846198
3509 2.0525935814440657 -0.6794313519888115 0.28270487266783084
3773 -1.2883057023550986 -0.4991361585416007 -0.1434367638994206
3774 -0.36991157156928883 -0.44947343933777706 -0.6948720628502357
3508 1.4330447384272533 -1.985789485034518 -1.5050410667627754
2688 -0.38756710233727143 0.5614794296874984 -0.5905896297985201
4815 -0.7639154862647071 -0.2672680319959004 -1.1904104769125043
3850 -0.8981299358939475 -0.056429730915626405 -0.20857996798004938
1474 0.7030033947644561 1.0271051080431104 1.4318425388894334
1476 1.529926188770756 -0.5435973374197786 0.0752920990733873
1475 -0.8091360275905092 -0.513501592207178 1.089022303743666
4788 -1.1551634479171453 0.4555982817564145 -0.5183147414735906
4787 0.9862670620709774 0.034915570152773495 0.35458592743217215
3851 -0.1791242538788539 1.5198834533632763 -0.17510591557490615
4814 -2.0785032529331655 -0.5180991174652698 1.1644120779450469
2823 1.2371027178101506 -2.070403985682656 1.5091338061418387
3849 1.3370339711667938 -0.5604981044444816 -1.0457024701598068
2510 1.2660797648382667 -1.8827072265988232 -1.6997601691423174
2826 0.22090201453592875 0.6333253210910849 -0.5517701812411537
2511 1.5039190768113921 -1.5865533658869218 1.6058401391029424
74 1.6455959611226185 -0.34737806596311654 0.18486382930945996
2824 0.18524967755135144 0.7560643733765231 1.544293259758577
2825 0.6475121946830965 0.9722475290288166 -1.1987350818537326
3909 -0.14633648723245316 -0.9121036033396718 0.5517825901894335
3622 0.3920451922505507 -1.2012826033333954 0.5748135693101809
3597 -1.6419236877802175 -0.22240832416370382 -0.5418873513301468
2525 -1.1394890240408782 -2.3199838524250116 -0.5035707514641071
3911 -0.11333809016524066 -1.1611321864441413 -0.4478878001669741
3910 1.309190377643877 0.337965019541268 0.8670603006265601
3908 -0.24694342374052555 0.053948864025933664 1.9229210109580042
3843 -1.1115965298279062 0.44558055850502254 0.06239342795926845
3926 0.5382409883986045 1.8279715042259277 -0.10432705346221437
3842 -0.13699702255798202 0.31173689394917176 -0.07164070170265266
3927 -1.1115354643313962 2.1225317166605184 -0.4180794330163467
3841 -1.725591077455952 0.8732319349943374 0.12201907054389652
3907 -0.6379802317554738 0.7105078955329308 1.1592953614058057
3928 0.022084422188989414 -0.5861370615676836 -0.08060335626203952
2895 0.1636209756898097 -1.3945543259843827 2.227144101693363
2526 1.3065111534957758 0.40153197639616844 0.59008528845928
2527 0.13099071613103846 -1.4383908163930996 0.17602312576544565
3681 -2.073529819827591 -0.47640243974263324 -0.4478454741882021
2896 -0.7745294374418803 0.6414095032333178 -0.5992775095951333
3682 0.5674907636512472 -0.2876775781209921 -1.4914833108936267
3683 -0.7625901482003405 1.5087428925198785 -1.124536211000042
4627 0.9498453922241853 0.6351977673121133 1.150139967739569
3880 -1.1687369582439795 0.3902062077100897 -0.567761266893841
2897 -0.4864247717875341 -0.16211271742548583 1.2228485565620804
4628 1.4039704853997492 0.9806279762115279 -0.43862127195631284
3929 -0.13483728929031188 -1.3590225187054006 -0.6262276653038087
3879 0.71010575107022 0.6852335335602319 -0.5932891107719288
2469 0.8113910089408157 0.16376647308744458 -0.78318619665724
2468 -0.41207030751347196 -0.5033379649516798 0.8049073964368065
2466 -0.771226731976599 -0.5863239666950159 0.41883693711213715
3881 0.5700358880982509 0.5025619446369998 -1.2107811656713103
3675 -1.8590699933515722 -0.19414929755191368 1.431606602092545
3676 0.2659389984855771 -1.1457411575245071 0.5585132071042751
2467 -0.856277321893049 1.3255550899407291 2.5111389152228023
3882 -0.8316084854442249 0.6631818897666387 -0.8222336110089518
3699 -0.9464178879934623 -0.4795679504975399 1.3845291009356397
4925 1.9045184761938532 0.6489459570316976 -0.24159550516879502
3783 0.17203552364353122 -0.7166008745183933 1.3159353431799965
3951 0.5699663052233748 0.46017773642218607 -1.143670111303678
3883 -0.2628970380374048 0.5860127247835797 -0.4639326005222916
77 0.7008234804073323 0.08508919164388766 1.8737525517724891
3782 -0.5868710498342243 1.3364051977119467 -0.2149238424134619
3884 -1.0672625458387923 -0.8905066282274893 -1.1382436714005975
3469 -0.17341239683563447 -1.0261859241656923 -0.854511521844511
3757 -0.8255827708366947 0.24029952588520226 -0.3257020208787944
3885 0.7056607579974684 -0.8322223594256192 -1.0124170866453037
3470 0.6918377232068512 -0.7359271538497424 0.9267552261671904
491 -3.0813222182365414 -1.9553528897777213 0.21002847048454387
3966 1.1443589771877543 -0.4371701958682099 1.4909873179720572
3471 2.002156715463526 -0.9589195697676995 1.86013007038998
3504 1.5794780330755178 -0.4205672506051041 0.6302836678760908
2740 0.028969160299679168 1.5685618210910757 -1.612546989930354
3965 -0.9237247494207317 0.9859860065158564 -0.6835162323443369
490 0.2331746467574485 -1.288499269115129 0.4332302171345036
3943 -1.3775599165560306 -0.6535187267385044 -0.22098718571669812
3886 -0.34624713346434777 0.2642736643171618 -0.21333898945694665
473 0.42433162591774365 -0.38687422496795293 1.4406719347906543
3942 0.37758802950076137 0.4779615890236506 1.1129870089150429
80 1.6411376041496948 -1.3964387469004065 2.5623748406399827
4976 0.10044585128201884 -1.0846599727678532 -0.24068152217321928
3507 0.5293905308974062 -0.503189325496131 -1.2627574527636907
3506 -0.11942414639761832 1.2181580278616104 1.4282565863379144
3505 -0.3113389653234878 -0.4978642707981729 -0.3795360143203691
474 0.4059354232057185 -0.3132586487251698 0.2784086170982904
3522 0.5074006810414046 1.0715003181852039 0.7047274292170272
4735 -1.8704009641175519 0.9096248421127615 -0.5990546924331412
476 0.7365102213524254 -0.04025815922428322 -0.4218231231991168
4736 -0.21193603891422266 -0.856036238055238 -0.10884920147460202
2993 -2.0242386729526096 -0.7570050222400883 1.0095534881858639
2720 0.5977183230242229 0.20665623175200992 -0.299422286165454
2994 -0.8470899256709555 0.08106412919613325 -1.195424984006393
3003 -0.44680274888644955 -0.1926448377063434 -0.4539556956018723
2995 0.23443555400584626 0.2762982077838057 -0.6733923033469665
2992 -0.763142808419493 -1.3494158412154977 -0.5050780011493615
2718 -1.996199093440783 0.7087836042890279 0.5688403670414313
2687 0.41754460082074485 0.6620631256758543 -0.39235787961218616
3004 0.7845774391923136 0.5416788212132945 -0.1912010869538582
2686 0.5756861421735086 0.9574807438663676 -1.1555451154364738
4115 1.1175815384407242 -0.9792526431783941 -1.64857690800398
2685 -0.9063298265457894 -0.7471737064196533 1.0023625000744616
2684 1.3545881498703862 -1.3805339656866196 1.2381235230843683
4117 1.6367244160126886 -1.0866715380321008 0.9537581514709197
4116 1.076743378288254 -1.8159517212761838 0.41138277632615
4096 0.776445417854803 0.44845067036337877 -0.43582190091723483
2778 -0.17591545323111135 0.41878882092133723 0.2778486925376207
2779 -0.3589619366234254 -0.8698449140425604 1.535949763911132
2721 1.4730630753108653 -1.642305417293804 0.8717047120073124
2781 0.15851269786412547 -1.2546383343002714 -1.384386069070221
2681 1.0343039025771696 -0.3989528278664703 -0.7810276649340582
1871 -0.48715848450028143 0.1521463769152332 -1.3331321308032078
2683 0.5472172707038203 -0.40929884338683514 -0.9597127934711913
4118 -0.9440036806658989 -0.631477619310777 -0.5788973488295879
3938 -0.7547097445646923 -1.0016056843642118 -0.38109804230832317
2682 0.24838085825759137 0.23801564018255997 -0.5938854792893827
2780 -0.831824415266205 0.5689801110477627 1.4477652071991927
3939 0.41794217926726196 0.23880359251544714 -1.1492771625695357
3937 0.6455926269457483 -0.3758515097215572 0.01962220840811798
2822 -0.34006922973614107 0.5812526042822165 -0.04446457715778951
3889 0.8386624575498668 1.1466053637412021 0.9832983292321406
2827 -1.0688355739150046 -1.7869925749999875 -0.0757884444951371
3871 -1.5766122241560079 0.12689710299432955 0.12535827852816864
3207 0.6694650798670873 -0.6138600293389069 -0.35852731832747525
55 -2.506139890197788 0.3300125036842402 0.6623734618564551
2491 -0.07413066713346977 -0.2445744586553919 -1.006914889319308
2490 0.24471325498586466 -1.4979174234755048 0.8924433267340306
3890 -1.153675578548394 -0.34026417047811436 0.11125844382095108
3877 -0.9311227730431557 0.055209546693032234 -0.13835285398273042
3891 0.5335706418569348 1.0556166452727551 -0.40274032209388144
3875 0.09129579010936309 0.22831725983970377 1.8062394148866099
3876 -0.30744791987678705 -1.6355585900889844 -0.7494709518056721
3820 0.6507740108535759 1.8005179568888832 0.4851508291937745
3680 0.13831564433068458 0.10354022918137613 -0.7759237325269371
2488 0.6335781178073832 -1.3109922993078562 -0.6031428045411836
2489 0.195446888133467 0.2688840628033765 -0.5993636044012796
5045 0.7495614806701754 0.5951798008526944 -1.196562680976851
3878 -0.8605274221823188 -1.820974410992684 -1.1908249087836296
2898 0.8626752760077034 0.5058324488348943 2.3267872161862715
2899 -0.30093930129316504 1.979064806687297 1.6728072824454867
3930 0.0886818203100135 -1.6601364545035155 -0.6278560748980384
3931 -0.0838677496940817 0.9571037322216261 -0.8938023431550672
5044 0.09694281696502621 -0.11116320741545802 0.5838549759903622
3953 0.17417530147889504 -0.16859111547623773 0.5248104933145307
5043 0.5086531241789178 -1.8842745121074986 0.34568495595870197
2846 0.4656249104821182 -0.2680552155410032 1.8647675450979129
3950 0.9971637939814675 1.9973437389688464 -0.6453682079641827
3125 0.9035254848629032 2.5235026416237107 -1.3174441053953774
3962 0.4862381949160409 1.0499899325963788 -0.22092288401077778
3126 -1.8475554961826408 1.4296304911682391 1.7075474002465965
3963 -1.7641779538488158 0.4817437592557283 1.6224325041696588
3952 0.7201428733919669 -0.5467718055081682 -1.2231494614687373
5046 -0.7713393822112394 0.5913697320889993 0.5274554472603037
4917 -0.30763784071130157 0.6610151130502352 -0.6872966562973915
5047 1.0862175062077228 0.14431009683720739 -2.2882940631294666
5048 0.5303487318218558 1.829097024943888 -0.5085048773443858
4918 0.3555269490068326 0.056850073961227605 0.22401460923349187
5049 -0.39251391384211204 0.12488535232454794 -0.6205757860448909
3784 -1.133135329529756 -0.32831268894651555 -0.8393791271693418
4923 -0.6212901718039759 -0.8517552549626753 0.3399964226585996
3967 1.0081915795640792 0.0028932570849549534 0.13200624377512007
4924 -1.3699144351095727 1.152483025144435 -0.3688892995204391
81 1.1745442965069506 1.18407800926913 0.8283766802554736
3992 -0.5220486399904483 -0.05765213317650063 -0.4481303148957054
3765 0.14543377279510153 0.37901100546784494 0.22669379306120735
3785 2.6487144801480484 -0.26363687942313535 1.5046211104240785
3786 1.9263720399861028 -1.6166016966025685 -1.1036510222694855
3764 1.147632319646505 -1.0150059634399218 0.8881434120902033
3787 1.0065898834950748 0.3639421583505979 0.8017782428106024
4977 0.42443686817425985 -0.8307849303094603 -0.06705721580586738
3766 0.5090745661102561 0.18531642621725597 -0.5874421085233725
2771 -0.5966991269766075 0.11947839553459737 0.6187953591615813
475 0.2504624410053741 -0.9297167494281895 -0.745311053265381
2739 -0.36988133353699565 -0.10492750150617174 0.5744436021510826
2738 -0.2691253305700737 0.004189142650142059 -0.9924827940828924
3781 0.37370233662230273 0.12856495591471237 0.10354587964187509
2911 0.13738722286819288 -0.0034376057359862084 0.5366144582263699
2910 0.8192419009651172 0.4377652311832178 -0.31351537712510713
4978 -1.7506850159521266 1.5694215058576135 0.07426714548306614
2909 -0.8793808747288638 -0.9350546525291894 -0.37234120648972024
4979 -0.6441403943580764 0.4564215930037068 -1.7788917497531433
4065 -0.6555954609433444 -0.5585721753070069 0.16708201637212275
2719 -0.7913426590962626 0.8316765889098693 0.9063406624911206
4064 0.9655109282999018 1.8341248544169697 -1.3512011665368453
4063 0.5989836609006302 -0.36882248287863134 -0.37831903643565234
2997 1.284985360807181 0.30464639201816784 -1.1430974611622844
2999 -0.3133754904756431 -0.10765544814695352 -0.6534936146909094
2991 1.3843314959449229 -1.8249069242601061 -0.2691212909251911
2996 1.2634930939077156 0.4897195422256359 -1.0747151360075504
2998 0.002843136392445085 -0.9810749905054671 -0.5031511696083295
3007 -0.4317039113839421 0.4849821877897304 1.4137607416981595
2926 -0.7611902681280062 -1.2514782171882104 0.6005071722902048
4094 -1.4032225283536714 -0.05343010479180097 1.2860192479845516
3002 0.6863696835026519 -0.457794884856466 0.9159997423592267
4095 0.442036807487566 1.3578874091238378 -0.9620128005186273
2975 -0.7220963109367423 -0.7379895022979863 1.2765376415401768
2927 -0.41606602791440295 -0.19899266590986422 -1.63025149568095
3001 0.8288790120581563 1.0157002011504894 1.2520023767262154
2928 1.1483955737312999 -0.31156290221963706 0.4055741638021592
3000 0.4651999280960351 0.30380744259538445 -0.18680744633993648
2929 1.431813815448157 -0.009891230999832721 -1.642916715374643
2930 -0.5670378774960595 -0.6385001279495888 0.06565940336473185
3825 -1.372301203970497 -0.41967530734186564 0.6193475549583641
3206 0.5890130290313782 0.04966714634225856 0.04917929800185885
4119 0.6002115861633951 -1.4437155631732514 -0.6813663548349989
2974 0.5051624161145709 -1.9005657268473224 -0.7911304375550379
2973 -0.010018437958720906 -0.9725147040178904 1.4280653476531464
3824 -0.2643397281707926 -0.7282203288420029 -0.3450094366467454
3823 0.6744319556386721 0.4297238365553802 -0.27149943954276706
2847 0.4515771219744727 -0.6167942398938187 -0.03851239424081403
4120 0.5615363271008098 -0.6822043104808143 -0.329073169565989
3832 -0.7031229303537437 -0.5146926612962734 -0.9142285274648361
5303 -0.5745585461049334 2.0831336671506997 -0.108537690539136
4121 0.535772787929754 -0.33038195205865045 0.475481363929718
3822 0.8251908949212078 -1.634375355170522 0.17909983207496824
2828 -1.7028975932423494 -1.0349502060957463 -1.6021039856656432
2829 2.386106286435165 0.19199890557375038 0.6826676158457103
3209 0.0058333684776147665 -0.5643969492420935 0.0038714305280305446
3208 0.7228536180493206 -0.8712048334874559 -0.8532997003711219
3873 -0.10593400649108639 0.19771275015420248 -0.9048325342586582
3874 0.24923770237099163 -0.4302271030332203 -1.9164314507984797
2830 -0.4721848915159115 -0.34571799900746714 -1.3826048789790297
2831 0.38556568105950967 -1.0128488859266132 -2.354546549179839
3080 -0.781837975136871 -0.34718071028441017 -0.032983403158552894
3081 -1.7868724024608242 -0.6543450457086442 -0.3992026674828556
5061 -2.513074463000667 -1.1074206174420425 0.34632519814505763
3872 0.03722286220864522 -0.07350778477795344 1.0846949363909493
5221 0.9302568421676762 -1.3768764563169134 0.8821628762714316
5042 0.3901966255116465 -1.7606639403002007 0.17993930013310286
4176 0.40808118392236187 0.46482128798173283 0.07277324068526575
5057 -1.4426667102787005 2.0470894932137 -0.434014496426518
5220 -0.9878311205865912 0.06985794248343002 -1.0897976059932009
5219 0.363254918050858 0.0950041985322697 -1.0102748044197263
2844 0.15260915591659308 0.7890428890140201 -1.4578578375748792
2845 -0.6584439777557104 0.2968714973562055 0.4079083312454601
4177 0.41120726082644754 -1.02635274897512 -0.7814757561463572
4919 -1.1831874407070366 -0.4894562752686462 -0.4697204609677117
2900 -0.03978654242191993 -0.594924101314261 -0.9814530858675699
1912 0.8954609008332278 -1.7485177335427207 0.1744114348584877
4228 -1.0670687449060685 0.8120821791397249 1.246726947203367
1914 -1.8234386023813622 -1.0340143579260173 0.5477716739880687
1913 -0.9128211230214257 -0.5484848967115213 -1.279094777049147
4226 2.174384772716292 0.7076612998267856 1.1861816198245951
4227 -0.07132701530838037 1.156386993040209 0.1386002353376891
5050 -1.0548292325360504 -0.8638923295186592 -0.9545642027040024
5051 -1.9764481888592307 -0.7595005896414968 0.840304246012673
2866 0.01753968685729794 -1.6478516848602172 -0.2564500085044334
4229 0.6831542142129836 -0.1635978837209198 -0.5548731058517699
2864 -0.8792573585116498 -0.46643625881059575 -0.8016151248118838
2865 -0.8008838882887125 -0.5058476847347072 0.609298265312097
5226 -0.06969752518041598 0.9635317755942499 0.42271708197606966
5225 1.4953068615794682 -0.8662535823507125 -1.1654641641757766
5224 -1.5166650648536908 0.7795017781985196 -1.1913262624583434
4069 0.2218151928375814 -0.3715209466757554 -0.09757061290244372
4196 -0.6367244402877527 -0.2898177211874148 -0.7895262093586509
5223 -0.24510711393780582 -0.1296734425488366 -0.9071271714594595
4068 -0.8672917837135959 -1.913883226431334 -1.0629328053638973
4486 1.1630051517177824 -1.688506802673583 -1.2526559373094315
4485 -1.8591077177632043 -0.06677127399652978 -0.801167872639809
2908 -1.0855768666332217 0.5834034002499687 -0.3797890856834107
4066 -0.6528490363688957 0.9875082264258062 0.8363888394856006
4067 0.9138488407866449 0.7117949368152204 -0.470695710353155
5105 0.07048885860161848 -0.02836822829527317 -0.7189155413861705
4087 1.2999241621874098 0.82871738871039 -1.1071852982105759
5104 -0.7646166842511053 -0.5925391798699716 0.6172758590769511
4954 -0.7912945341391994 -1.1018984477108689 0.6749564263184302
4233 -0.40343008907665345 0.05176705651376294 -2.815607291802905
5131 0.6848476418433309 0.6620185591077522 2.646825857332186
5130 -1.3017088590150225 -0.8885425552669048 1.0523678920106836
5135 0.36412158960279284 0.2487385218074641 1.1058075686636013
2958 -1.685829531740486 0.13983114632596452 -1.2930870214530732
4282 0.7686437659811144 0.4864784229667405 -1.5696092595821485
2957 1.0596286570603863 -0.12471784925007039 -1.0147734342013035
4097 0.5427763473941453 -0.7406205340373508 -0.6325629254666845
4098 -0.43901917472916935 -0.28543563048537385 0.0035202082372387724
3008 -1.877602478590715 0.9564946563896134 -0.166227963594005
5134 -1.176826352962551 0.6246322418032968 0.8902279851673366
5132 0.015009525414883505 0.6753473621332479 0.5406954531770979
4015 -0.8752694835112186 1.5359016675535697 -0.8689140840244434
2959 0.48523815438562 0.20357628420982887 -0.5836161993304182
3010 0.48714097116606114 1.2345131898234483 0.6218160520435034
3009 -0.20112920886642924 -0.7475088758985394 0.12996067796503882
4030 1.0034541156366006 0.3138111035480445 -0.6249303098135657
4031 0.4866947876893394 0.9308959541854952 -0.7527666857006532
87 -0.6520984745186771 -0.041474720437661844 0.9636486429289424
5301 1.3663013786853533 1.740302227409281 -0.3668808187313237
5300 -1.3812403731485396 0.2431989969154938 -0.24329030204345914
4310 1.2200757466685368 1.1805744473957276 0.26690426451513166
4252 -1.8306040140569544 0.6866383190754867 2.1473004754950447
5302 -1.5519780577234548 -2.56987460655207 -1.3026970685547827
2972 1.0281291932607364 0.5782429786267987 0.5915610293793601
4267 -0.31005921757355476 0.7017710028773921 0.514200772272843
4268 0.37212963480289885 -0.2971419321178133 0.17645102799036902
3200 0.5590391270139642 0.7411127994807486 -0.2864290646377618
3267 -0.31102865373706723 -0.10592192238242323 -1.4865280016603246
3139 -1.8073414431949486 -0.40905245512002075 -0.5695632524453897
3140 0.9076870611072456 0.3547701446209294 0.37542538924372254
3833 -0.276296013562004 -0.8367128985236387 1.6562979357804377
3141 -1.7988553787016397 -0.2967070862307225 1.1699819994343696
2971 -0.32373534280015354 -1.0523139597671454 -0.3106960291131763
4325 0.4747492032439534 -0.5537978890132828 -1.2640772141523593
3260 -0.1739062636764317 -1.26104517788945 0.7887640121455662
2970 0.18486056801243034 0.36166648727128675 -0.09760359461960677
3079 -0.9665710413134728 0.45317481054182734 2.3335766957670088
3834 -0.4260270067093561 0.48203671411290594 0.6444411242443335
4172 1.2885654374711413 -0.12567155079973247 0.41318903253361766
3835 -0.7050339202400585 0.41324556866036033 0.9436690805667346
3836 -1.3033882338840599 0.4765973383826271 -1.3007281594123612
5185 -0.025138115950577307 -1.3911476499554738 -1.5749967883905964
4173 -0.6722968635444688 0.12412272194084135 0.24790097312248735
4450 1.3404742701300094 0.5797407324359465 0.5345449650380867
2832 0.03400383925695136 -0.015616098807442986 -0.06956612869389565
2833 -1.3428710693665697 0.7898796068033649 -0.21586173087493124
4175 0.6910282504555424 0.908190756241048 0.8473764299152392
4448 1.328902393057541 -0.3897023737282106 -0.1063361105547743
4449 1.394541500211811 0.12945838712536795 -0.8735887478611827
4174 -1.3417051658728074 0.47263789578396875 -0.48077993536072633
5184 -0.9219004534560277 0.8352553216066213 -1.9329032533512531
4201 -0.34821064460350054 1.0663840793097767 0.05274183655081681
4202 -0.223367274702796 0.39095007780965374 1.5216148016314655
964 -1.5972319114495355 0.032303397778301594 0.8300203602544709
4203 0.5721441729776785 0.8307817492534634 0.33346367648505765
5183 -0.6044365612958571 -0.8788292966144297 -2.096323776418276
4193 -0.27213449691738106 -1.8450595527598301 -0.806995775640312
4195 -1.1108230492936508 -0.5571970896548978 1.0844364674689364
3146 1.019081169463523 1.3928453354890575 1.2186328115750118
965 -1.1194353896374891 -0.05608337014126869 1.3711901653070184
4400 -0.7102188593494485 -0.4125613852386294 0.6971630445935741
5206 -0.6038033707252061 0.819109981284587 0.22977824241819264
966 -1.1862680997597377 -1.0309765114156593 0.782544604875121
4401 0.8605782901046054 0.8470720412281019 1.3431942330946374
5205 -0.29789244217830485 0.23586937425813403 2.8849971299881747
4483 0.9339322017234896 1.0516634192188095 1.11388346194708
4482 -1.4873622365131431 0.4204684338944252 -0.7018126350422712
3365 2.1650428909696795 0.1867947746994707 -0.0461800488666542
4484 -0.6277070888366801 2.292100756856979 -0.2661249558052977
86 -0.1357266983270777 1.175024996750189 0.4913557952023528
5222 -1.4109656350348854 -1.2096252434131922 0.8386011248506525
3986 -1.7275479605241242 0.41300519028915744 -0.5928287113045947
4222 0.5089289003104633 -1.3090542480181888 -0.03328584994154856
5207 0.9966785712672349 1.8772147219566846 2.0833924382767863
3985 0.7444206876658975 0.013505418137941606 -0.6980432713595691
5101 1.4781196512604913 -0.6630282095102241 0.17054199266269834
5103 1.9028361896430948 1.6403902704529272 0.53062517767081
5133 -0.11627574859609274 -1.907859509846541 -1.0335563530769363
5102 -0.16673453938661248 -0.042220607109050054 1.3280337779912237
4234 -0.2975094502343154 -0.438016358331093 -1.1082869792274255
4235 0.857142739352433 0.797860692385441 1.2843119561050478
4016 -1.4052307518946778 1.3153190104271584 -2.1989446025004717
4017 -1.1137085382857623 -1.2162055534053537 0.2536867027513537
4033 0.22872759170517765 -0.19116528940219304 -1.7495823038965266
4281 -0.9747052528291424 -0.10041057484068913 -0.6554467662723159
3377 -1.1154787312358467 0.8758755490465145 0.13321169456549073
4099 0.5026113298600176 1.0751311157144439 -0.011122238373137312
3375 0.3570461269360794 0.157621289175868 2.370986054719843
2960 0.301087068344047 -0.021520853809170636 -0.6481183969856311
3376 -0.1216030644576906 0.11939717186109716 1.7302205920195783
2961 -0.08878344456927896 0.8661460711610747 -0.5388850050048195
4101 -0.2261961871193603 0.32615367574571863 1.1458318928183038
4311 -1.3218595281965244 -1.814738873400396 -1.3524492504096537
4100 -0.7663187356358028 -0.6101399676001189 0.6780975416805081
4280 -1.0031643427645656 -1.809115639408666 -0.833521560938799
3215 0.17244457490449513 3.4545250046454896 -0.20033786867950204
3214 -1.5509036871806092 1.5932053044209162 1.8269742126500643
3197 -0.7470962731257563 1.0229641121049258 1.0326668317151813
3213 -0.7618443471607356 -0.28613320656764973 -1.1764292957656577
3198 0.307076804974692 0.7487900020724422 -0.8271988845089479
4312 0.31562008516318274 -0.316039006975846 0.22698365632915812
3212 -0.5965442010049619 1.071289934951942 0.12932704368479545
4364 0.8616433411856057 -0.3457715544230188 0.9867163344127325
3268 -0.44434978172118084 -0.20814135414754625 1.1901350728271423
3259 -0.49099573283077014 0.10180992080027668 0.4627983987011508
3199 -0.7289571607863184 -1.3430272761599291 -0.5006019930223727
3228 -0.5039877045770442 0.003515353408661305 0.28969634354886314
3258 1.0467778655297215 2.5610298177563853 1.500113342416091
4161 0.23843497159544855 1.6424948566501745 0.8735886915176091
4162 -0.05540161212536973 0.30083178607807853 -0.2808303250739009
4317 -1.380142314649879 -1.9864286136357376 1.3096508921578818
3229 -0.3058162463396087 1.2104241234848336 -1.0147064820566327
5188 0.20150177192973504 -0.9892524970231826 0.5934888536060754
4318 -0.2429895218316933 -0.6858585798432216 -1.3852031348921854
4326 -0.9521138517066834 -2.3404965110568683 1.4062736250416759
5186 -0.7920517092255877 -1.8306837150813653 -0.9175116071580169
2834 -1.6794714752301465 0.6743730865764775 -0.5955044710029644
3230 -0.8963536947132345 -0.7484825974160267 0.8353758812312636
5187 0.34285923759580667 -1.4434084703254633 -0.16074424856417216
90 -0.522572379456584 1.1054456786162197 -0.5090959572292361
2836 0.05205131106529051 -0.3543707318748821 0.5969165288065958
4327 -0.19934260329236222 0.0681473297149533 -0.021789233514157118
4351 1.7275534983030296 1.0172100848003005 -2.7790505760593764
4352 1.2142142048576843 0.22008498500495954 -0.8842922867623859
2835 -2.3169276124376412 -0.3865328457247699 0.18940453996219161
4427 -1.4319174756115456 -0.20946842424523132 -0.07083088515121794
4447 -0.5732891282890777 0.2723990174691606 -0.7448540432182816
4429 0.46452592715764784 -0.05093025356425821 -0.17580219596814994
4428 0.5240459202306927 0.04796555345658523 0.09294781980809165
3433 -0.18885597763577214 -1.1019412903484722 -1.0321192302777527
4420 -1.280817255807951 0.675957995216502 -1.5818503473098307
4407 -0.19062230116759307 1.1085713388534764 0.3787623876782231
4452 -2.2058065350819533 0.00019850298827798696 0.8690552388598508
4419 -0.6417394754452954 -0.051841778678071125 -0.04672571856077159
3434 0.6149729838285022 0.6772063141581517 2.3063741140386917
4399 1.0507126505659945 1.523728344675171 1.8120437518177148
3302 -0.23252742064735202 0.9488312021658936 -0.38900128996357186
3303 -0.7605960893462973 -0.11583693880627173 -0.7740851066872864
4398 0.402652546851302 1.0131806181023646 1.4558157183920462
4397 0.43466566892594105 -1.0479178180346032 -0.6522916873751322
4380 -1.0617238389730344 0.6306930051331997 -0.4069567935077829
4565 -0.24113670513104205 -0.07252342238953816 -1.0078395906457873
4379 -1.2246838793733132 0.9001536920662677 -1.4099443059360892
3304 2.8058690003984643 -1.1185995860490103 -0.699465902788889
4453 -0.06111350609701535 0.3037390395804945 -0.12204524829348289
4463 0.9566872467922631 -0.794619534339684 -1.4292657572828074
4564 -1.0301734792100536 -1.7519103273840424 0.47615003085523033
4462 0.004858242021283379 -0.8253968290961666 0.794633795435239
4381 -1.610093428153938 0.23024181215390857 -0.5827942861054294
4190 -0.25015975795763373 -0.5092459400693954 0.14774847714723147
4191 -1.0425149501318542 -0.2727478511601073 0.5835664940413783
4382 -0.053599255121246796 0.611526316539027 1.0113231870050874
4464 -0.46133470409164445 -0.20451355351183453 -0.1484142101705251
4563 1.6491944270409922 0.9962575124918411 0.1788787094646741
4300 0.21706421153880992 -1.2943477889941424 0.7552491774337923
4562 -0.942411515264303 -0.7609851357792538 1.8075332329229339
4468 1.079943995942888 1.6154502892710179 0.021160574893252432
4469 0.48807941679352257 -0.09248619820964911 0.5267407472727786
4034 -0.5587150976704273 0.15501904965308902 -1.2059858875865292
4495 1.2804833064367611 -0.10672392947856515 0.9324826524044274
3378 0.30120293364454215 -1.3157528964960639 0.36458111556092027
4492 -2.498702559297194 -1.3350208298368347 0.4607460532456314
4494 0.9790555260158511 -0.6427517705095861 -0.1940138025551233
4493 0.6709762000086936 0.5040354333641472 0.1921135916832212
4032 0.9862109774155654 -0.34474488572639944 0.41981705108934025
4561 0.23111117343008397 -1.8458234301085308 -0.8691026407947862
4035 0.7698832300207904 0.3387968936449329 1.3070534023753229
5141 0.16974339592565296 -0.19869065436368039 1.0197680767539028
5139 -1.7374810621399182 -1.1418678427034044 -0.5288591791010641
5140 0.22218110738972613 0.20421019104862445 0.9083411863990762
3216 -0.8358796491221244 1.7365760350265584 1.213751862355124
4366 0.2804227439172608 0.33317573305475523 -0.9119859958239593
4365 1.394580629101074 -1.5865144597233551 -0.20020549287206957
4260 -1.4332714515367673 -1.3888843739342072 0.8726262713318944
1091 1.0362662194224024 -1.5220717390631358 -1.6151885602350289
4363 -1.56707198888886 0.7104851972267378 0.4295654044066545
4638 0.790719613628074 -0.40736294455745076 -0.18148962361976467
4262 1.6534435986561606 0.9839820355097726 0.6959837756268833
4362 1.2944292200126553 0.1285192799907298 -0.8471851681499949
4163 -0.45148368429011443 1.117134014280494 0.183396131745817
4261 1.8309141991347342 0.360648843816878 0.19352609659479864
4612 0.4192879250537059 -0.06243393175920064 -1.542038524735033
4613 1.8393812313126745 -0.16992280809979204 -0.6333811145281334
2495 1.3811243116694192 0.22051909630065242 -0.5596039969831111
4164 1.2385305381036797 0.4597990229231518 -0.5839001597105318
2494 1.5738289066322835 -0.2149912880693045 -1.5998754340887529
4614 0.9206244901329926 1.0407631849060575 -0.8709110843769428
1090 -0.4628215391953988 -0.05317035114738615 1.141569722379574
4372 -2.358766175240447 1.5259456184676068 0.5836175936232172
4615 -0.6604646931438377 -1.4800488889566061 -0.4883146786350782
4319 0.25655811896843084 0.582484676956269 0.5087802085000318
4320 -0.00299537970116653 0.9016288785278643 -0.5442749041961196
4321 0.0179886701513394 1.802648475860865 0.26112145240032
3459 -0.633230652047874 0.6428967606188436 0.8516293847673376
4373 -1.1111838549985644 -0.05441521594957729 -1.9993486482606153
4374 -1.283135502881892 0.6309194771872867 1.0362546125554606
4165 0.8628496035052403 -0.3134060356412944 -1.077232452979701
4409 0.5680673838694531 -0.20321756697731475 -0.4033344931667023
4408 -0.15211087664727468 0.598378811511755 0.030558313175898653
4421 0.41096097465743425 -1.5882265264411188 2.507024514990342
2548 -0.08535870364381483 -0.8716906196484301 0.28416068100769737
2549 -0.2580716008372706 0.6256409977941638 -0.09061649235337237
4422 0.3659676561873659 1.4680181352075552 -1.081780591345728
4375 1.2572121530234102 -0.4434539074084466 0.11228791286195683
4376 0.5696549481109262 0.45187976703744415 -0.949778534870914
4423 -0.10140300956234702 -0.027796061768139504 -0.5473451175964548
4410 1.413538887547489 -1.2187752656850173 2.557910403176417
2547 -0.7862666227117004 -0.4228053597056983 1.182885373930165
3661 0.8049611947709775 0.9942176523040591 -0.7809837701673152
4392 -1.8531035651846637 -2.028647670465752 1.0705249385058655
4387 1.1944118176352672 1.762150830265507 -0.16825573810625596
3435 0.5307779992827278 -0.19601568731309765 -0.8691129080876837
4377 -0.3003681385686979 1.6249726156419355 1.4679501531695718
4378 -0.4702024193121283 -1.1281729075481648 0.3051554987255713
4412 0.2878021544077314 -0.0924127992446384 0.7273924471554125
4413 0.7985165127585113 -0.2699404050391091 -0.12890128820694902
4404 0.9149136557004617 -0.18963746141314072 0.8194625032172289
4405 0.815430346306662 1.0057936734419815 0.1881797396210914
4414 0.5071744078438409 -0.7866381010719917 1.5299746768781919
4522 1.7617943637448894 -0.5952829757514971 -1.344351422553179
4385 -1.1579856120396823 1.4983882034199185 0.5197388060621863
4299 0.887142028425718 -0.5873177166809916 -1.11013171782701
4488 0.5709850788097017 -0.055332695443894346 -1.8785411354654338
4487 -0.07272616327048016 -0.28498221247980654 1.1864354893146116
4523 -0.9354539962226464 1.315215897851501 -0.2628242589749973
4489 0.7624139734901592 -0.059202364213953564 0.5776385691918037
4296 0.8229805327625743 0.10437542513214715 -0.9075318166956141
4403 -1.3670455944546593 0.10030938871768869 -0.5248829803112995
4298 0.6963913272769697 -0.6982566120717166 -0.8882413425205363
4297 -1.8221625256896417 1.0329211348459397 0.549192921728158
3379 -0.038427196520311464 0.6672384687009337 1.5863645032256004
4579 -0.990556690687212 -0.5124803750734527 0.12315748250834103
4577 1.1501239198634345 -0.9001741484367366 -1.6565467925098947
4578 -1.8940844044828873 -0.5980490933928925 0.9075960758521833
4524 -1.1749123416097902 -0.40592122210234527 2.30290183361647
3418 -0.3001908461316918 -0.7076548775646732 -1.8649121427656326
4641 0.6663456348904706 -0.8868158402326997 0.21458858859059818
4640 -0.5966299585480007 1.4465396090003928 1.6134670119284957
4639 0.9202402287938446 -1.4778212559161452 -0.21070188900198616
3560 1.1640807685940098 -0.8685954379504146 -0.9373757738996578
4585 1.1161264305013352 0.29557349709388897 -0.24445181776726
4584 -1.0733414281304183 0.2860416848655665 -0.4375761742346152
4583 -0.7989428127850853 -0.09024207099228042 0.41186704873522306
3561 1.115019840180131 -0.06984973342539655 -1.4475073011254156
3532 -0.5432031746543392 0.58115168361724 -0.7349477371778264
3531 0.42289232227213264 -0.4705101828573834 0.5824473684616112
3530 -1.2494766908402464 -0.4571051093661189 -1.4299545869669463
3656 -0.8307021322038136 -1.203257458120537 -0.8810314313620745
3559 1.392971418201289 0.2541014583864243 -1.5860730414585074
3659 -0.6415914110861538 2.0350669888552235 1.042295195238628
3660 -0.5231278895629096 0.32043345699617504 -0.797332922996037
3637 1.278281183248126 -1.185761471578837 -0.13878957400433786
3638 -0.689093022307884 0.038099680977360995 -0.23108604321315032
2496 1.6065701825816288 1.5518977702823893 1.340464803991492
4636 -0.7642077500932271 0.3317113165988545 -0.7136095468518345
3636 -0.6321861303704686 -0.0948127186019103 0.9709179644634537
3460 -0.42490796673914827 -0.9674610689317941 -2.1362985925771034
2497 1.7081274080608737 1.3256480402529287 -0.6536359911331127
3586 0.32553192004971354 0.680600821054973 0.2644499200540445
3461 -1.7550233870799474 0.5887637296926586 -1.6808382918755174
4771 0.3261627390754507 0.3827230589874697 1.7626164107080986
4426 0.5607359306337792 0.12411113248463003 0.8672456265102486
3635 1.4966958394722663 -0.7579505856555996 0.2383330810469962
3663 -0.4407636556117767 1.0220007466900785 0.8126423474706064
4425 0.10548244448258547 0.35840452335514683 1.0653854427911855
4424 1.1420509287319585 -0.7248154095278695 0.2584477222156483
3441 -0.7783890470967149 -0.7542037421617919 0.11866628334534805
3662 -0.5365994798873609 -2.381496205888199 -1.7541013032359556
3462 -0.6092658585419638 0.8257311912034186 0.9710402554286143
3440 -0.4360540847093301 -0.2372636453471553 1.1453603398141499
3439 0.4004208269022939 0.4367676506856312 1.7937055940443019
3587 0.2599492105329054 0.14320749351777254 0.4737944614801612
3463 1.0318181272828004 -0.4813980376012465 1.1168430589522922
3438 -0.4970689243133026 -0.9484967063904057 -0.8345783277363076
3334 -0.08892027029933353 0.08093060908179339 1.9030647916008185
3475 0.8720186989151698 -0.5325488100704807 -1.487303804367191
3476 0.15883039591229292 0.08799042400685604 1.4548064782855872
95 -1.6165253638415804 0.6468878251592219 -0.5420623467993169
4393 -1.6258294396329962 0.33048448222660903 -0.49379388384165657
4662 -0.6028446220976255 -0.495005211205627 -0.6989800410047292
3744 -0.589131250866138 -2.0427994998192323 0.45575200496181434
4491 0.8116945499721442 -1.0275886833345897 1.3408377292791775
4663 -0.9925443886646415 1.145893954592421 1.921330437501943
3743 1.075508101259832 -0.572261462796001 0.058328016540243874
3737 0.9957893130256289 -0.6459427944777555 -0.1542619117511311
3335 -1.0911190810256308 0.31631131127196477 -1.8493009314983186
4293 -0.04180869196167819 0.6696503407068755 -0.23242620454915475
3336 -0.008128688802368726 0.477964358131506 0.24799750003528223
3736 -1.1825529758315276 1.0966013590562087 1.3024629101276637
4490 -0.4213993360537443 0.7795998656579944 -1.4648608038099844
4295 0.16009645847683152 -0.24515002100609679 -2.82882037173136
4294 -0.013616428494653695 -0.10958330216954992 -0.14343668643581617
3733 -0.10763727904747093 0.5286814168978046 0.10403814392709174
3735 0.42566084620557004 1.4058093769389641 0.1867890335957247
4525 0.4366943627610256 0.4488608505231256 1.2892149260613395
4791 -1.049736129181943 -0.40054016434240935 -0.49394472388532584
4752 0.06098003730646842 -0.8878960386440524 -0.5410833508527053
4751 -0.4757353035913255 0.024307198054091362 0.8820858235000655
4816 0.6277890511057149 -0.3876101720782744 1.3304290297324242
4813 -2.3867878523583 1.7622448594389382 0.07414077088166228
4812 -0.2636661922994675 1.0657803926366136 -1.0147957371546514
3578 -1.1451614977647846 0.08643447877548349 1.2835356129904754
4775 2.543973870258438 1.8805270088683799 1.0634278641343984
3581 -0.3056755057857792 0.13080710280998176 -1.003621019608266
3652 -2.13076190503556 -1.0344353745774628 -0.11781298500456089
3848 0.36536423996283085 -0.6491701968333916 2.529641290290483
4772 1.0439136737930703 0.4197775892292616 0.23357241202677456
3582 0.6923061203869318 1.187679596903854 -0.09329269610145177
3602 0.6502887795675824 -0.7374801273145519 0.37759784120719514
3847 0.053133695464822266 0.8905272444700291 0.9150843950736558
3577 -0.3646238433964488 -0.7385753239723307 1.917310617210711
4774 1.4999046377390814 0.13267801725672632 -0.9396005200992159
4773 -0.8921657598308793 -0.275525490211009 0.6247697618113517
3562 2.263907648665155 -0.16023160728826302 0.1255854386364321
3563 0.5872607781486188 -0.6409287433729328 0.40518459829732334
3654 -1.0752161136249765 -1.65225124060343 -0.0966079479167615
3844 1.8996564101055033 -1.2190842121271437 1.224149426072173
3923 -0.18546058813052424 1.5879348917221634 -0.27157019838823926
3583 -1.7068102927204525 -0.7584749638092854 0.42235718434454256
3568 0.9120532735797687 -1.607944677983662 1.341895404651908
3845 -0.05193583628412174 -0.09304591283157 0.26110335552234515
3599 -1.185369124693543 -0.4384299355307917 0.3855122973528867
3584 0.7305976317978126 1.3046012609360245 -0.013213997667224489
3585 -0.33591257761576926 -0.5349989081902761 0.2344539791169975
3600 -0.27117090459433013 -1.3040942776915336 -0.6854256770323469
3566 -1.5677068550468964 0.607334780581977 0.099172115309546
3601 -0.30227961453112445 1.8954356702086221 0.48918898364548075
3565 -0.041755227354572204 -0.7570820242403357 -1.2128012129551164
3567 0.972573955454951 -0.06960812353310734 0.8492645638056543
3922 0.06613673557733162 0.9530095019670504 -0.721876138386819
4630 -1.791161536373214 0.8339780289508262 -2.337760403198395
3674 0.169938293006367 0.9740841597630517 1.1698813621731838
3921 0.003131204851962819 -0.364607822970412 -0.8336011413072142
4631 -0.6822431081787609 -0.5069204328054924 0.23313874027487003
3588 1.1352378587386807 0.5471042285286415 0.3511871518782374
4629 0.9214923291924246 0.8393680665065582 -0.484102381500466
3589 -0.33385782249216867 -0.9521585025945601 2.1112140176351453
3673 -0.3225564567338444 0.016494806973607418 -0.8860259073744154
3672 0.3655781669210554 -0.15351008862529467 0.21743410490794482
3607 0.537018910092103 -0.3999553453406332 -0.8057177770746209
3742 -0.008012034846674843 0.1558912470612546 0.5288061056528476
3591 -1.3027077610908837 -0.5038538103326431 1.012232318044074
3590 -1.3266278795449735 -1.5040854584514782 0.22864897167956386
3702 2.11318089965746 -0.42432693474409006 0.30876719735633384
3490 1.3239592229731054 0.33577754446176783 -0.05701566493011702
3714 0.24914942977618001 -0.643522642779147 -0.88877736582698
3700 0.3401880572943626 -0.08861887865039923 1.182203664124056
3701 0.09826363465535926 -0.9515855374884652 1.4156001932345557
3489 1.3107484953124886 -0.7025014188432329 0.4504087068108124
3488 0.21467995960487302 -1.183693278807625 -0.20891238544064616
3503 1.582989361652214 0.5111887872171947 -0.1723079290585636
3732 1.3195076534366128 0.6469515352643457 0.33035491268428824
3758 1.0827482685453722 -0.5197341662890851 -0.689269351270321
3759 0.323380248336777 -1.8067308454567501 0.39602626058997425
3712 -0.2984383343529981 0.8424102358379507 0.6049262273726667
3474 2.088796785919143 -1.0860166588725668 1.590641793358391
3473 0.03093651474863897 -0.08225722141616729 -0.26142601357654244
3472 1.3355967699694427 -0.546203381271892 1.1605515864229143
76 2.153722215672376 -1.1620750321268838 0.12429784704736244
2631 0.5069412581561855 -0.07744137887290177 1.34093212976116
2630 -0.16424778692543185 1.2115128043981949 0.5358090371802376
72 -0.28403424059591426 1.2412585270670726 0.0722120972169762
3502 0.5951918536824594 -1.3756630663745317 -1.1661523978884865
4940 -0.5955312476727957 0.13940962765254988 0.03611906379151053
4941 0.8489545889514625 0.007614150630165465 1.987694858046142
4114 -0.5567901711124074 0.5474334456786469 0.23545773346834908
4734 1.2197332041889282 0.3479146870659617 0.6499205691650031
4755 -2.3873035199186 -0.6324429899228233 -0.9152938147350521
4113 1.3071059933380738 0.8227115330307193 -0.2356809204972771
4754 2.3722042789348587 0.35958462507501493 0.11056404148539543
4112 1.54582068687205 0.13336573776282915 -1.4160987467698576
4950 -1.238753623602626 0.31707572924672517 -2.003190334939491
4975 -0.18716977945065388 1.225616142001603 0.3055706065137721
4756 0.0880567508708466 1.2227509782609076 -0.12586264754072846
4534 0.28198019987343037 -0.17797194303090574 -0.6498324041745349
4790 -1.8571521114593577 2.2427858806058962 -0.3378577316386687
3523 -0.5657677900746327 -1.184655265452366 1.4857128761541465
3775 -2.2188890936768053 1.7870165646990797 1.9912494872784257
3776 -0.01820023269572188 0.490825867027879 -0.7360381600856551
4789 -0.8700840334768505 2.672666613329279 0.6776999634050515
3797 -0.7098931179495038 -0.5886341279793389 0.8494947439362797
4778 -0.6683975193072336 -0.6383387605987415 0.396807744280507
3796 -0.5794367014827333 2.0297526845741585 0.15456253538396367
3857 -0.2520337455343048 0.20290847089160183 -0.4760489595483946
4779 -0.9786999090812324 -0.12592529391576296 -0.6625477747964076
4780 0.4468460986815165 1.1162881596438599 1.718474391737142
3798 -1.3880522275516254 -1.3731643090695735 -0.41355870974655523
3858 1.0103999635610825 -2.175493351248227 0.9813428288426236
3859 1.1668787829982064 -0.2924881900208244 -1.0474981776122823
78 -2.6431376194472693 1.2363632511577514 -0.9731279802654753
3812 0.856180383449227 0.8521165053893542 -0.0035193130995439053
3623 -0.7419618700750013 -0.42119354196027664 1.594317055162191
3624 1.1459454958472992 -0.18992013847870204 -1.0029155593295829
4819 2.3897770598317747 -1.5718317105899253 2.0917576931851065
4820 2.726621684131125 -0.36776740452828904 0.5540919525991793
4818 -0.8647297153272572 0.7781501538150503 -0.4263984914267921
4821 0.14211121315713038 0.8811805088244836 0.23381170817730673
3837 0.5140246284481622 -0.22753635913380627 -0.4871944074572297
3838 0.5705849435681033 -0.6496946326044768 2.009825746350491
3642 0.04857176472082077 0.7568848567997939 -1.101347557564295
4864 -2.043077961942365 -0.5375377730241903 1.8125231777688116
3924 0.9817433308046996 -0.38377695651265237 -0.1083717327142372
3925 0.6481642475931618 0.590981744299748 1.5206630421918528
3817 0.09967221118630534 -0.5055958280710083 -0.5666214086836356
3862 -0.02207768191619897 -1.5558293477471044 -0.5700883465924448
3863 -0.2511567435319073 -0.8203339422884314 1.0564546698341097
2559 2.0170475688946383 1.2498230668482955 -0.8755200661988324
3816 -0.8499235584641116 0.9442613905820622 0.18176710680172845
3840 0.7506034298954687 -0.5513006494558292 -0.7557756770858438
2561 0.2200277969025958 -0.9748562979374854 1.5313802625240798
3651 0.6006112901334216 -0.713313803509245 0.2309703725340669
3866 2.2391191340389263 -1.2059210667100289 1.159346071587511
3815 0.8521833372607541 -0.8519011358311571 0.6716862518521275
3865 0.8773870882305204 -0.46935308588819363 -1.0892058481049416
3864 0.48142807187074077 -0.8509211669016283 0.10024498335488205
2528 1.514342177454691 0.027778398778282566 -0.07782040140192345
3694 1.3449682709928013 -0.3258446020236136 -0.21813745814871688
4901 0.778670707339673 -0.06645647731019663 0.28463526826140934
3695 1.1989337495934893 -0.22550405080228922 0.919740806849935
2529 -0.7210553857385554 1.3161651255752518 1.6168692805185265
4626 0.7689928592680437 -2.1657081222649652 0.3381924214986935
3715 -0.6732287869972027 0.6306121405856036 0.9457527147238364
3698 1.4007475895976238 -0.9316106013679195 -0.6467658515811396
3716 -0.5955225196050642 -0.22478226357350423 1.5865249126628305
3684 1.5514130716937844 -1.36070304386867 0.9154444677079758
3696 0.7360366516505689 0.9662573046438055 -1.7911477740996493
3685 0.2732137073549763 -0.381625098541921 0.0019563627996429488
331 -0.7476968005511951 -0.6801947752460458 0.8794461966729387
330 0.17548455289246054 1.8095256525891772 1.622339057935135
3697 1.5512933264141906 -0.01438877076112584 -0.16570287308044215
3686 -0.22015568383000403 0.35625852800666924 -0.968580258746225
329 -0.6103593711679278 0.5186291008973051 0.5294780366276457
3717 -1.4148131913001596 -0.22927977396717114 -0.20024150818316652
3468 -1.4032962334157129 -1.1457126062695264 2.1224369037723516
651 -0.8421558814222372 1.3181542916273643 -2.135578305836413
4926 -0.37769626732660205 0.1349046393774931 -1.5304391159363828
105 -0.7224880972173866 1.1854295191754949 1.4331997279267374
3761 0.19067785722314834 -1.1260314292807232 -0.7279151625199539
5032 0.8151303805128526 0.89755670683315 -1.8849069692084413
3689 2.572852979188184 -1.0041832836395237 1.3805672445546675
3690 -0.7798233823987987 -0.4834346747903286 -0.05795123238184042
3760 0.809776111492685 -2.0528565998079142 0.9860527864922285
489 -1.1119627683500164 0.6108947857560262 2.010640207044633
3777 -1.467760121782014 -1.219519662732294 -0.4325572869722096
488 0.016986739781318445 -0.3664956109843006 0.6514424659802442
4740 -0.23518705254245717 -0.36747778785526153 0.047693561383827576
4741 1.3222217789470272 1.247203459651417 -0.7414693391999209
3691 -1.247623882457009 1.276913602975034 0.13245634265166503
4737 -0.3926406803752861 -2.640007925475942 -1.016647340725502
3778 -0.710905189894389 0.044163244308209094 -0.6747261480659588
4738 -0.14794848293603544 0.14365880451014945 0.946095008939411
4739 2.488125833667256 1.1815035100672697 0.11576294395659788
4974 0.420150513189588 0.5641130386888699 1.7957927182388511
5083 0.8532902888271008 -0.5315334954714133 -2.158514556298299
5082 -1.2382823730322707 -0.7372684506709385 0.5124613607145106
3726 -0.825427414937641 -0.05849642499585838 -1.102569594084464
5084 0.20717983446132468 0.4941494735025099 -0.03361241512680069
4532 0.3076279413717301 -0.3558411019427371 -0.3548493078618099
4953 -0.2025345985288306 1.9060355698139109 -0.11290719997545069
4733 1.6051845486275182 -0.36895846035312035 -0.9291330126834906
4732 2.289680905848988 0.3441710917317323 -0.4231839008750654
4952 4.3488798389322986e-06 -1.7992656969551706 0.46336960557767953
3792 -0.5112050455505 0.44411203910862695 -1.6803327197437397
3793 -0.6593745775553758 0.054239298962986945 1.425251170643268
4951 -0.38641144756998974 -0.4554374336528588 1.6539926091453971
3794 -1.1130534695951813 1.3443969778968994 -1.6384779357972203
4072 -0.7064800698206973 0.43807526726677853 -0.9386948232965662
3795 -0.34949329887574676 -0.7337223457546379 1.5619098754930816
3852 1.2667633011309092 0.26607402711523387 0.39596313437134856
4130 -0.19659095590640938 2.380940622435709 -0.46844020068330733
4131 0.8376418372293576 -1.7973109387389643 0.7239697193612307
4132 -1.5872226900905522 2.186552770656795 -0.05405276844410585
4129 -1.3264528657303931 1.1504160124865976 0.9736033747259091
3855 1.1778488961927716 1.9630747449646053 1.0100968627805293
3853 0.16201830152227925 0.46538587794032915 -1.8949263646516934
3854 -0.17907404365312263 0.19750664045161684 0.9132459009013036
3940 -1.013781299851005 2.4242850469843504 -0.3572734499548873
3941 -1.456480396130745 -1.7160825009812553 0.4007549071753944
3643 0.3780061308086882 -0.16397127227556701 -0.2526753499913721
3644 0.07745817658740624 0.20063072115443037 2.04221416049851
3819 0.19895425696049626 -1.5601179125645643 0.11938047545751716
3821 -1.8242848576675983 -0.12526770229233888 2.2151973641498017
3645 -0.6654876119198204 0.3514768753988296 1.2054327304470285
4866 -0.3234399015369614 0.1191966598984281 2.5253611196515755
3818 -2.094404577020375 -1.810341729792438 1.3305989183564702
5251 -0.01445466770068501 -1.6869680417601562 0.4038111322293341
3839 -0.950243714755158 0.9828661544361786 0.13698779761163926
3958 -0.006463948355919132 0.3228991924182656 -1.2634333131810618
3957 -0.42665108919876454 0.5088227334889627 0.42998625709501076
5250 -0.479991108473288 -1.3283448679784258 -0.9967775082759138
3956 -0.6816657839914383 -0.24736869644859444 1.0991813017036225
56 0.26635830092129004 -0.9282946820076508 0.5427960415609313
5249 1.6916330020708763 0.7316518113559237 1.5552763248098027
3932 0.02801794552137703 0.07234333409348373 -0.5020075800196844
4900 -1.4106472439708637 -0.8700197903617127 0.1709685267500568
3954 1.0590967460874434 0.4463051394116769 -0.1080545006420811
2530 0.00821716285257414 -0.99066960810248 -1.7438934722653177
3955 0.989662597607211 0.8913796012867631 0.13241347349805652
3933 2.030776810683034 -0.4438754079959954 0.8201055917625414
3934 0.05525733442345195 -0.830585357985445 0.4107863190058026
2531 -0.49313538101514387 -1.6281707603105946 0.22915595457517807
911 0.3991358388563287 0.07735273208847078 2.1413218808317858
5248 -0.07192192714858325 -1.4929008763876965 0.40563628587676276
4899 0.6422134290890731 0.4611853510429048 0.26178591193443773
3935 -0.035586612614248794 0.4919536757770888 -0.9679940464114153
1916 -0.8065169417095016 0.43933592655074855 1.574413695866338
4916 1.1444296277789747 0.61447755954763 2.2205405422774356
4914 -0.797001777748451 0.3041637963201737 -1.3958274633507157
332 0.4240913916025902 -0.3772357221951694 -0.704776186036974
3994 0.4572106944066086 -1.0721525968639807 0.11467887466307453
3718 0.3889606521078005 1.014379937824231 0.6266297796605167
4915 -1.277272149601784 -0.48435089507416573 -0.20388282430398624
3995 0.7976904856113899 0.12077478110121781 0.19049039718282812
3996 0.0664737793287917 1.2321161933775329 0.3739413540762689
3719 -0.14571370672491563 1.2308784543279907 1.4091753190834582
334 -0.5042549807465757 -1.6895287798827092 0.7296159674269178
333 -0.1580188803684328 -0.36187607617448675 0.8291695922226668
1915 0.008521523564573086 -0.24246052703808613 -0.37934133311288815
3720 -1.6565751463477556 -1.2087731887124977 -1.584543514870222
3964 1.1686182663863216 -0.43205957723663174 -1.6761482760960182
492 -0.5362008859021882 1.645964962795952 0.1154786327082653
3762 0.9113504488782671 1.0016257203738825 1.8067391171256912
3993 -0.0688131428511557 0.4572226013418427 -0.09500317065820733
1924 1.220606964052396 -0.46057922378238925 0.8347814607807338
3763 -0.31147138196586904 0.8052600144670456 -1.6611768557131399
494 1.144434326875211 -0.677810061039119 -0.7738739144287552
5033 -0.25899210024693026 1.3613987803866894 0.48874192780791764
5034 0.4632514726887239 -1.0191928754852226 0.403072644951518
1925 0.43896451791481694 0.6548875962309849 -0.483077353142616
493 -0.9193871448443062 0.04075828047518155 -1.0881558294099085
1926 -0.746575472931431 -1.6945171860993196 -0.5927278337847716
3780 0.3940711015830563 1.0387700236235746 -0.48516698428054117
4723 -0.6979793142328349 0.18999504842756298 -1.003819964014851
3791 -0.272455082027818 0.029565725364726344 -0.023956648613714056
3779 -0.19272130566538262 -0.5878117477590679 1.1623169598744951
4722 -0.6885973229150637 -0.7352467509603425 0.787182292522989
4071 -1.6140887373083443 -0.44670836615257453 -1.5195772514415264
4980 -0.08927681494102141 -1.2025372613696124 -0.5147373904951493
4981 -0.042462378282366625 0.39246927124055836 -1.2877430260163274
4070 0.9212316836021737 1.1929137313932288 -0.4462000904639265
3790 1.2332777189815975 -1.394581411473775 1.1572317692255836
3789 0.8614425772703208 0.5305910069892366 0.013218303521776078
4982 -1.2793346036647681 -0.3616647545174916 -0.3933381446594087
5106 0.08033139740978154 0.3496939434827367 0.9359412206343912
4062 -0.3688185572810022 0.233281860526403 1.6520899299183431
5107 0.8370799563441367 0.16554469040129613 1.5027211074654132
5109 1.333671474486711 -1.7334609099030636 -1.036614567188119
5108 -1.580852983480052 -0.6440750369522944 0.8520818930293229
4092 -1.9898536200629076 -0.43896081068531395 1.3028274463714262
4074 -1.192774547302867 -0.8490725624876343 -1.5861218199674232
4042 1.0338414362305461 -0.1280886825010859 0.43000161109699003
4073 -0.7125812680653805 0.5708481231378318 -0.5044569872502858
82 -0.5307538686813272 0.8993176289369845 0.06762035651158016
5128 0.9681145540691677 -1.4337883175637756 -1.4380754362070627
4075 -0.37308226651359777 1.7044107199678122 -0.2697810538297245
5127 -0.1203845687451711 0.44379414072482903 -1.408845178943359
5129 0.490579500043009 -0.20133245991049334 -1.2696970514354307
4093 0.5020354227889179 -2.099129789040104 -1.1659716703183898
4103 -1.202371631019913 0.7499918329727148 0.8288213735695054
4128 -1.2411536853045486 0.0171138096900439 0.8029361776644593
83 -0.20706958329097835 0.9391488146158611 -0.46366482611933924
4102 -0.14826425875914426 -0.46359671477446757 -0.2579020593474806
4127 0.326157552966823 -1.3115481183940783 -1.9056876700980314
4155 0.5788724934944841 -0.8095281620365655 0.3984632102367275
4156 -1.300584363333561 -0.8346560511879337 -1.3337730889559043
4136 1.4691383705115806 1.1508166371792634 -0.2661694296139766
4104 1.9315830048387577 -0.343287373953578 -1.0103998629426036
3904 -0.18728735464438115 -0.5389973664739027 0.2013639568022793
3205 -0.22998234543570462 -0.07274647639673541 2.014422745443963
3204 -1.4035238664257073 -0.3392304757302007 1.2496508528344201
3906 -0.6612812170973669 -0.23237581491710838 -0.33089823629151516
3905 2.6694738413510444 -1.0148560085183695 -0.38187159789074865
5159 -0.6460116950411516 -0.13087065670405165 0.48430809335299074
84 1.8141544191054413 -0.6488782819151867 0.23255361872140531
3203 -1.5949444118128415 0.15216572949302704 0.9724557829103719
5160 1.6963535344750738 -1.384602568579121 0.8702894223759117
5059 -1.2628426763275196 -1.8168067901046854 -0.29935448609033893
3913 -0.19932230472443907 0.541440887261188 0.11526227950349878
3912 0.13006477577215628 0.6395270132599448 -1.1521165092505339
5158 0.18445921453455347 0.40570024684706585 -0.21947846322773368
5060 -1.8999090019154843 -0.11215075853109403 0.3660820406400353
3960 0.15777509592346972 -0.6884386368034763 -0.1387002124444704
3959 0.5997187083546311 -0.6306481371391213 -0.7057164689010731
5157 -0.5462096216404367 1.0665737189437348 0.07680225791764117
3961 -0.3259221267242697 0.030024947038786592 -2.24430996645075
3892 -0.5563598421332243 -0.34401150272940395 1.2993877700408418
5041 1.0668494603305647 -0.2293002013521755 -0.8018270465509484
5218 0.20719186765203665 -1.4207313351081945 1.3808833549888437
5217 -1.0808813976137674 0.710543757112226 1.083458315447714
5058 1.6406514442001814 -0.23492242955422518 -1.0857657228793933
5039 1.1478012646250582 -0.8415853188079035 -0.33676914463641516
5040 -1.1107886050926186 -2.012387635129119 -0.23425655646490412
3894 -1.1400696981362866 -1.6948799797563177 -0.6829284784451297
3893 -1.3748000978363144 -0.5516899575777401 -0.914283296572706
5247 -0.09260807416257741 -1.484713672690736 0.22297687401696611
5242 1.0916222067886359 -0.17117253861487747 -0.21420668159359227
5243 -0.08394314454214434 0.047342886636851975 1.2760555447707813
5241 -0.04193135130056553 0.8942618084334321 -0.7397991221233762
2901 0.2474930234552705 -0.4443677925784245 1.1409818714460016
5096 -0.5368955255155798 -1.2228329244727671 1.6225306973247648
110 -0.18323842746985874 -1.1946373662404615 0.9623509326479507
1923 2.7389730025102583 -0.4469352681602137 0.8750835370941565
4225 -0.3424202322094486 1.0721143098942163 -1.7510429079035685
1922 1.4932227113601766 0.4457937359242468 0.06620650518419248
5037 -1.6248906422899811 -0.5912401026996247 0.6770863778564052
5038 -0.9880596134936349 1.951925486933106 -0.3471917772246051
2902 0.5005013357703367 0.5284124488790602 -1.805679494717867
2903 0.9342871725716353 -0.3342676383474754 0.4790009214702569
5244 0.22369645915689385 -1.2109080574905409 -2.8696418637683467
5227 -0.19958722784119343 -1.7104113594801857 -0.015159734131332743
2906 0.3235270800288638 0.2227126327347063 0.8099595544237592
5095 -0.5012718383718232 -0.47189535997761817 -0.946321480068706
5094 2.5850264815566675 1.5945942205306722 0.7791580382984912
5093 1.5290022008522233 0.6155533709039711 0.5506752732922927
2904 -0.059275030861314845 -0.2645373512568165 1.7902789700324708
2905 0.8341157964522466 1.8363419112857746 0.010750731538403214
5052 0.7183222341789699 1.04808414719907 0.95347628394562
3788 -0.3181811944528679 -0.13942978885394186 1.4977933865266175
5145 0.7876599687762271 -0.25537175171676074 -0.17782155242988465
5143 0.8821240936670328 0.8616891147735063 1.5620465384247402
2907 -1.6231435783797017 -0.25638346015855074 -0.5972254995726265
3802 0.45170834165764073 0.5011148102565086 0.30306898850272024
4956 -0.4194882714878708 -0.8381338053162662 -0.770569957731831
5142 -0.24859906868587453 -0.08591668330941275 1.834201276127259
4955 0.23548987203845576 0.32418327994669177 -2.026403712759258
4240 1.4373506161328344 -0.6847015963487404 -1.248540112663213
5144 -1.6087685098883888 0.5689236591746287 2.5820051189148554
4957 -1.0421233585088152 -1.117174707451267 0.8139333923931591
3803 -1.0472568170350285 -0.2385197590742442 0.05754409871490124
4076 0.1650423780745752 -0.9489988815804835 1.4472068998656282
4012 0.6256670466562211 -0.2602981838348564 0.015128519109221902
4013 0.7259552738104122 0.3577728998718723 0.8785111155384092
4959 0.3600568652974359 -0.42972366513123195 -1.8958947399758785
4014 -1.3683507973121218 0.5315370198641101 -1.6667149674781103
4077 -1.1084672199434664 -1.4501273499542655 0.5371291033238191
717 0.47552279761034244 -2.629150050226091 -1.3542529574094593
719 -2.0028421598882695 -0.41628804927231794 0.7086620240582561
5297 0.7200663763330087 -0.06405139465943392 0.2785822792508072
720 1.025025145508948 0.22141996841850406 0.41811802919680296
4960 -0.08835667790684221 1.3583444242223541 0.17297859428118884
2931 0.05640864658983614 0.9938583260910332 1.6001136786118042
3202 0.21184470650452605 0.1510438394877262 -1.2136578605103312
5298 -1.915939809977767 1.254753720967435 -0.21017869211035559
5274 0.3031076920881078 -1.805578310978227 1.5994570222718563
4157 0.3808230147216359 -0.04648313308986498 -0.29963048949691284
4253 -0.06678714469518694 -0.94258110578665 0.5733965936907501
4158 0.28772108069772157 0.0647735269733724 -0.3742389425702371
4254 -0.5605026558680918 0.5539231418839047 1.4247999147033605
4159 -0.7413985537850694 0.8688683381024955 0.41872318398161257
4255 0.2312696215811959 -0.5241017486543937 -0.7039983928456889
5273 0.13251550980417606 1.917973898896992 0.5866381139319724
5292 1.0884123751852293 1.7450573114873325 -0.09404904155919867
5293 -0.2452537454698549 0.45795318460573486 -0.4527433527547462
3201 0.7032040951108053 -1.01111589178851 0.007033915115434142
4148 -0.9756741443097583 0.6775977086924815 2.507323398938869
5304 -1.381643542963548 -1.3949903345238563 -0.25046000247087125
3261 0.09195358684932928 0.46520599289042497 1.9388484355347506
5305 -1.4419991729684885 -0.6670785289183623 0.8656630174350967
3273 -0.26977873760027293 -2.4258134174112134 1.0857160510031638
3272 0.2673508945785493 0.705242552947551 0.24405624003544216
5306 -0.3033109940001744 -0.7691403502998554 1.5759954202426585
4147 0.5944502662222809 -0.0005495049897420961 0.8203762850859982
3262 0.7310265625609442 -0.5489112312202488 -0.8112480829105295
3274 -1.5159353407241964 0.8128406621033698 -0.5258490972168183
4459 -0.1567023666169008 -0.5445828546909854 -0.42656437245990175
85 0.9151490313265254 0.8152594357981928 0.41856651335233125
960 0.5550679703805045 -1.5638247467113309 -1.49736395438223
4197 -1.6312904319522095 1.0331734055937913 0.1911567589631532
4169 0.9651777907160682 0.9005855388757587 -0.8722903593571266
4198 0.4325125107966351 2.1730879387755375 0.29122448045525773
4433 -1.5680798365603175 -0.6134382095838781 -0.2743465786316983
4199 1.7745724787774102 2.3610798564124 -0.434486236061614
3263 -0.2842964528071093 0.8497744047942425 0.7712680803503289
959 -1.1286729220401173 0.28555999530536397 -0.08386824775491108
4168 -0.04511884371517913 0.5561666575977574 1.8635254453066663
963 -0.4302649306816785 0.49483363487573273 -1.6141322260288
962 0.885987091494736 0.9763657929825452 -1.124924791295642
961 1.87421958887552 0.3804235725263689 1.1210621192981485
4200 -0.6145947903645513 1.3552893619501571 -0.3901593626516802
5182 -0.6434598480856901 0.6830072404229426 0.2669629670216471
5181 -1.1699301102804742 -0.028434112222479258 0.1978511163343238
4432 0.7440081908250269 0.33655333062477 0.7045568562678991
4245 1.5565740966011505 -1.5028310804140363 0.6285853514900601
4246 0.47883309813236286 -2.6467192328933886 0.3576009565842524
4244 -1.124636859436173 -0.2693760285872445 1.7885919326950646
4220 0.09385977400798512 1.8029626024041105 0.5847988275425042
4221 -1.8001728011415505 0.3405733817101162 0.4001810536103717
5198 0.858948620983083 -0.26540091284767214 -0.8377048348487324
5202 -0.9627147390508607 0.8810666204158847 1.2617268289835726
5203 1.680980328957781 -0.7467268410111948 0.30630999422279476
5204 0.7578758738117096 1.6730864160806598 -0.45864657351284754
4224 0.01102704910658973 -0.31214476076074776 -1.4278664663954863
4223 -0.7952474450910232 1.071403982156743 -0.09307578223847021
4242 -1.7002709919060024 1.3155798709795574 0.6831925118016686
5245 -0.36595286753176837 1.6565168660072993 -1.402470041032057
5246 -1.2338787823706974 1.1994717119798322 1.1041951651219803
4243 2.176168821105089 -0.10420122727399397 -1.1325007602100328
4456 0.1652133535448523 0.26469822202561016 0.9927069192821649
5197 0.5563853922724802 -0.4284335626288176 0.3164508216064213
5209 0.566771017780811 0.5935128819918635 0.2748832840912631
4081 0.2983627611829907 -0.19829111071472252 -0.7613763478996983
5208 -0.3512091872421185 0.5883043834430706 -0.2918805608642179
5228 -0.19638549419284415 0.8059430183250473 1.0941298399579633
5230 0.9398084808950821 1.6887013634528696 -0.5495058014278347
5229 0.8805836246861007 -2.2498603986934285 0.012696910371719904
5099 0.29456127530455045 1.0438425974527283 -0.13781553082822784
5098 0.23318207780275016 -1.1487340293658534 -1.624896909409198
3305 -1.2769902023707558 2.7153816346829247 -0.9556149322730974
5100 -0.29768074320229815 0.3640613574975331 1.4093494050275488
5210 0.14427896942490767 -0.27883916049764085 -0.36081210104850986
5146 -0.3203192415572718 -2.34172870528689 0.4067562173752098
5232 2.079246340156701 -0.09632580302965273 2.519895672983701
4236 -3.114481617815142 1.0411785292418987 -0.48402289119110686
718 -1.5422484956316045 0.4542052026612502 -1.0154440074014035
4080 0.466395308806525 -0.3708457799317447 0.14101168675538955
4238 2.451122585893273 -0.9540722813170404 -1.2565696593073519
4239 -1.522836324582505 0.5406074615186798 -0.40844012787047745
4958 -0.8380059936329033 -2.4285983471902846 0.3444055085777117
4079 -0.5654562444225446 0.3508284200266775 0.20410490529284606
4078 1.087027455313347 0.037898314063693955 -0.9952052585213255
4237 2.315365169112753 0.18894163363345623 -0.22558402663032606
4341 -0.12289128879074208 -2.448080138487717 0.03371411849267577
4274 -1.1508468576627469 0.04406219915101034 -0.8347636455657814
4275 1.3377990728675841 -0.0229953461781344 -1.1942378260784672
4276 -1.9027265623590053 0.6872285150606455 -0.6030093487040624
4606 0.09590475709804487 2.5357098018542352 0.3961850806810465
4273 0.4448904523734614 -0.6880170521101647 0.3542428565490246
5374 -0.5626682836174502 1.5940521899934543 0.19624031886267146
5373 -0.0978568231501698 0.4749614141265443 -0.5987463939725952
5299 0.9514302682947406 0.7229318824971718 -1.311239452286742
4313 -1.2871304510816046 -1.6181287998064398 1.0959190971286044
4256 -0.31181975647233745 -0.10255818537818777 1.449257186000508
4272 -0.6265568036986949 0.5327648671948508 0.5406538462612073
4258 -0.43015478258167805 -0.3968237935335104 -0.5367447584919851
4257 -0.17281495916813347 0.3322616822598034 -0.608492953327641
5372 0.42863545746646975 1.3635172035119107 0.3145941108747752
5371 -2.545082712018061 0.7531481956698037 -1.0499303666923807
4368 -0.6874034894892858 0.9170833421695446 -0.3638355653349412
5296 0.5778751263861398 -0.5411152931109905 0.45653189174105735
4369 -1.2520081382396349 1.3637713582523692 -0.04344027894561825
4370 1.3971372544929157 0.4248424123515915 0.8680754574991311
4160 -0.4116869380329438 0.23202814461901172 3.230305819751986
3275 0.08633649440953016 0.9148483296809251 -0.5172294469834231
4314 0.45028733027194945 -0.48451487987007413 -0.595133387860664
5189 -1.044507197381161 -1.0655377382176279 -2.0449901316951475
4316 0.24314402147432876 1.650098550819975 0.511428351661032
4315 -0.4734141794652936 1.619165558394415 -0.841905321408921
5190 -0.40757226336757385 -0.7071207086003035 0.7680440200136454
4329 -1.5565609940988425 -0.7335532443887507 0.9330161882239489
5191 -1.2365750182375919 -1.0530721269195882 2.0412549368143513
4330 -0.29376189291085986 1.025120547966381 1.3038172233324983
4457 -1.0911291056423391 -2.600317443376218 0.09285614620437961
4328 -2.153902059783718 0.66933220892667 -1.2307974396416157
3264 -0.16070670600396392 0.5350782681770246 1.7336716133410903
4439 -0.14808362606333023 0.22553856001335473 -1.5308400745918793
4438 0.7098159277469415 1.07536592407095 0.5056619088864813
4350 0.7703739037735469 1.0289563411274882 -0.7689317982699574
4353 1.5064663204219901 1.5363602434970203 0.10525144944540671
3265 1.4511413016593455 -0.3319784429607427 0.8343565555975446
4217 -1.0308972539866315 -0.7793847306782695 -0.06827429372480465
4171 -0.36821950982965906 -0.6660122475016335 1.7198204244954562
3266 0.7741488801486988 -0.5704798830588017 0.5421108682554391
4458 -0.5354018094413051 -2.7649292290000327 0.8739598503893201
4437 1.9215204374918353 -0.09875546923112422 -0.7340606383814148
4430 0.6936756024327062 -0.3272832787804858 0.5152143784955372
4431 0.889921776363751 1.2226847358717607 1.1014967472997155
4355 1.1095258444231701 -1.941180450950744 -0.5929453600613913
4354 -1.074362970468278 0.5342930259959424 -0.6707505979771097
4218 -2.3160621397029155 1.2075836126922532 1.2782213376677427
4568 0.06356465817636046 -1.1302911206708428 -0.1761942046396986
4356 0.7036078530391837 -1.3637167482073402 0.3332485268258838
4219 -0.6654056335379198 2.1308544777106118 0.13384351025971633
5445 -0.06581981612961671 -0.5967897192566125 0.8828636115635148
5446 -0.3805816151684448 1.6117210534394204 -0.9216738075134256
4566 1.241844845981477 -1.4048695692166795 0.7482676358731858
4418 0.07072863844420735 1.2956507670221602 -2.189193481776932
4454 -0.4732630743497677 -0.10160220223465413 1.1030029507527324
4455 1.1556190718802788 1.2378708555585052 -0.5475627867383377
4417 -1.2081793412689081 -0.6351747442718924 -0.34636206560338034
4567 2.2686524462991153 0.4421877276821109 -0.753356328644878
4416 0.23845686685083842 0.28889298355457727 -1.7256560376433279
3306 -0.21578988696897589 -0.392531763485933 2.5116667765602827
4465 -0.24906691082990592 0.0072477047978702705 -0.8444901289132783
4466 -0.7336420555527539 -1.5356382538217082 -0.5885554174289983
4474 1.3526688605286954 1.2122512261918987 0.40296322177134325
4470 -1.4838035814994772 0.2155577017367191 0.5304468957837651
4471 0.5747747190041658 -3.0521463313325348 0.5565241338568625
4472 0.9850577313599105 -0.9692890387441413 -0.4213035745650425
4497 -0.39256917005259007 0.843129145445719 0.8291500043732409
4473 0.3873766762826246 0.3084183163336989 -0.8365790658250584
4467 0.4508788704363542 0.3236873750947112 -1.3051245235175633
4247 -0.6294526461859202 1.9167219218354752 -0.668208999749768
721 0.10157755066421233 1.3311971035803554 0.30199188881591427
4036 0.4171943079327763 0.531191178331173 -0.03360192839729019
4248 1.206866402261495 -1.1817472963470483 -0.4008433560572261
4603 1.2627683334983324 0.5867585878073914 0.40499353414189815
5390 2.8509274751510576 1.5163419304503822 -0.44057264526117734
5388 1.1363599852270077 -0.933673389602822 0.018999409237115728
5389 -0.014012344686907338 -0.35392013647570125 -0.9015621718461669
4259 1.4119287479589568 0.5863469705573995 -0.7010596206269237
5391 -0.13384400866054205 -2.0079559746180355 -0.40189002062531043
5387 -0.09033060104399623 1.7424799439824201 1.498810550106039
4605 1.3259483390675384 2.0012092265453645 -0.4742699357707884
4604 0.8291776698690484 1.3964213245458703 1.2589851196487414
4602 -0.69087322841042 -1.9648797091313548 -1.6334643992516606
3551 2.366005582437652 1.166159004396233 0.23565930436698415
3550 1.0205926747896343 -0.39962684473250304 0.8737905974707616
4349 0.27946884161903796 -0.20294045425494192 0.5613043174427552
1088 0.7752136865885362 1.6291438565749936 -0.7083894026766687
4367 -0.2865019839408867 0.18095908542726075 -1.2212555715022297
4348 -0.043499176911825255 -1.8163079470595846 -0.6403241369694722
1089 -0.24509692082535917 -2.6914974285494377 1.483353740933068
4347 -2.2778108786350173 -0.8792048623662113 3.0164896660890066
4346 -0.9814449860457019 -0.9524275828194906 0.041685754757486225
4609 0.9488204642749941 1.6892486475760624 -0.09129762423978423
4608 0.8448009664927745 0.04014399202033432 0.0056539806414251355
4607 -1.1147647131165532 -0.052520744381057985 -1.8849488789515703
4703 0.7207476933024487 1.40694511170476 0.6013818482029131
4610 -0.16421000593358107 1.0950768577359684 0.5080321843155976
4345 1.2036678579457087 0.3539808040871559 -0.21143609095746485
4344 1.0066845317847535 -1.8506647435816603 0.8058540865766353
89 2.822090862947233 -0.22791521184887154 -0.4576018901296305
4166 -0.44754615954023586 0.612516810705454 -0.1445586822020444
4342 -0.16888505158145245 -0.4103438585197591 -0.7710476722665837
4343 1.3549524914452409 -2.25509844760682 -1.1635397839346122
17 1.41321858475106 0.7535669436437966 0.6629190365185115
1112 0.3969930397573763 -0.5630855469536001 -0.4746327331416803
5444 -2.1298384765010177 -0.2296745057947437 0.825959159636844
4440 -0.4215971619642525 -0.931170626848231 -0.25499618778871613
4441 0.5217921099228738 2.5456977290365583 -0.6107805557943188
5443 -0.7570498479494591 -1.3210062771796054 -0.7842551853840175
4569 1.1767057222644524 -0.7346622222592163 0.8341067718105836
5442 0.1813467420800609 0.6843306232122749 2.6691015534828773
5426 0.11598918646860801 -2.4990811423958363 -0.38068484409885717
2550 -0.3324327352992014 -0.4858624216813987 0.20583904304255615
5427 0.18598680017079483 -0.5479224693273697 2.3650480774708744
4664 -0.1816810955218014 0.23340059387094733 -0.7909930601012872
4444 0.3213084936264871 -0.4596882951079824 -0.5024199325316098
4442 1.0037210358009523 2.476858772833252 0.6349322829709234
4415 0.07093305320799542 1.4661088920610896 -1.5707542053796413
3437 0.8970293265200641 2.5355571188969073 -1.2757636329644153
3436 -0.27649095755237885 1.5646490624659775 1.5093778287953914
5428 -0.8392651909587888 0.6765038253371815 0.4100451843723918
4443 0.8254197310771644 0.20421986384434457 -1.109150442595699
5429 -1.0300584731593876 0.30781665376431955 0.3612868146982662
173 -0.9748107952456236 -2.0444766573762982 -0.3695495307089906
4932 0.5341310827029039 -0.9985871003858445 -0.3129193648959577
4406 1.8197556649965616 0.1297973017543642 0.016904033518223102
4580 -0.021479624860922333 -0.6603187093553534 1.6272112120810136
5430 1.3174595422741997 0.13821691425343366 0.535207407468548
172 -0.613616247491187 0.4229117252074954 -0.6347962576014564
5431 -1.1208909454210136 -0.4379561237742369 -0.11077463288792842
4581 0.2174432036228338 -0.8230755711419411 -0.5210241242928701
4498 -1.3583533142040203 0.8919554116627415 0.2850376511975453
4499 0.6351416958582516 0.501450578180822 0.9756370926552218
4500 -1.750943545841858 0.03379296025950578 -3.090476388672503
4587 -1.1989751242709221 0.10288439592571827 -0.28850781857981056
4589 -0.5494901316781761 0.5675163509592703 -1.2776279193916669
4588 0.8958949583965824 -0.3827128551115462 1.7598544109412213
4700 -0.3264900878750521 -0.15857094980373526 -1.3855620708754255
3548 0.5307148800073597 0.9384828404477767 -0.021607811847015053
4586 1.0959133061301227 -0.6565014321529588 -0.4070919847675214
4701 0.599958480747236 0.45395459438683233 -1.3825663351574025
3549 -1.118880667270181 0.3072818486066782 -0.3046759690905681
3533 -0.38682910259470504 -0.6291576822985889 0.8046432311059274
4642 -0.4855319302048117 0.07707621519592117 0.18011663727557775
3640 -0.7276801554153065 -0.9252758606239827 -1.2171151391380521
3639 -0.3985549699185981 -0.6819892597383634 -1.106257020669237
3547 -0.7882725083999784 0.01212802953145723 0.6939830343317996
4702 -0.2973410220028749 -0.405047431362337 1.166378701985487
3535 -1.5615553864732081 0.633938874239294 0.5926652361262373
3641 0.7632225171971019 1.7037047067626965 -1.0662462290334827
3534 1.1933410593348772 -0.5775648497537864 -1.9368551106734584
3811 1.3584355397273842 1.1323048029131797 -0.19576828067103438
4596 1.8230038826818844 0.284540080013266 -0.8097870124625026
3658 -1.3660053460170345 0.009437005496915911 -1.1453454621173322
4617 -0.2274150211927369 -0.3692867050459624 0.7470724733811622
4618 1.0322062366675964 0.61580984196824 -0.9854884822118705
4616 -0.5421700637827954 0.2178508390138341 -0.5083033122103369
3536 -0.4793948907960911 -0.16256030359202545 0.363095326082449
3657 -0.01594038546920128 -2.0690473276792885 -0.442613035821114
2554 -0.4232740092843983 -1.4015450005144385 1.1039135593918703
3537 -0.678866820180482 0.3551321464835263 -1.841962505967892
3632 -0.5954223093308626 0.34983261075945093 0.16800994924273058
2555 -1.1994707822194821 -0.06221309430475858 1.2195696185054041
2553 -1.8464367338307506 -1.1712643584690599 -0.2729499013340153
4597 0.15203733556178223 0.8991237357160164 -1.0330337539562857
4768 0.474744342628259 0.06827606269446483 1.1769340366317773
3634 0.92983967161451 -1.7221541348372427 0.32652999620112144
3496 0.9219919909222205 -2.056591492374857 -0.9540057906631741
2551 -0.22414665465057626 -2.509924502176625 -0.7110699474380264
4619 0.7970140203208882 1.737575102977004 -0.4488862291002257
3704 -0.7395607749912876 -0.9128583513651767 1.785232981928147
2552 0.7041078511734972 0.8659574711025503 1.6668311725417109
1401 -0.5555440044513681 0.5850462282357844 -0.9096216811091137
3705 -0.722078706878337 -0.1370035384755442 -0.11112437117777571
3706 -0.8401765303568521 -0.9741543127860403 1.6996868001308747
4621 0.6938855445194779 -0.1198623010209242 1.7431543414415482
4620 0.6935432929937538 0.3739173137328469 0.540723623929692
3703 0.18274121782282252 -0.304053766516065 2.2023679211873324
3493 -1.7930760495914586 -0.3578692804488403 0.2623793176179072
4933 0.14820071650804173 -1.0176928397225609 -0.8697790935081309
3495 -1.2914494187658832 0.0067579226141778245 0.530485053693167
3494 1.4361039015163588 -1.2708993712481473 2.249077828228238
4934 0.530174927800566 0.8516735813177488 -0.10554221683583905
4935 -0.6456237886744789 0.36796549247000926 1.2202429402005013
4665 -0.08691075105707696 -0.6908840081443101 -1.1670912571982668
1402 1.4974428615092925 -0.8523976368057051 -0.35024292211538854
3748 -0.6205645655862796 0.5724333415180222 -1.2148008700648285
1403 -2.5162537002423155 -1.796217906317968 -1.1128309821924005
4666 -0.12556533247325208 -1.9062035879477404 -0.30006255994370534
3745 0.1790060238184218 0.9528854865425119 0.23005600696313022
3734 0.6825176790109563 0.4822117463687142 0.8946351397700656
4937 1.103046144416976 0.013130026868262437 -0.7862942342664474
171 -0.07863605899881078 -0.0972943119606327 -0.21674098223358584
3747 1.7253783273951195 0.8935724523049251 -1.3060919681420766
3746 0.7799734838917713 -1.4492707513971346 -0.4904692100471323
170 -1.633197596749596 -0.16880265128883737 0.23584477061271353
4542 -1.1178212500733442 1.6391780443358142 -1.1787311741127489
4543 0.9512325821828662 0.30215866951562903 1.4288447465131862
4544 -0.464161166310125 -0.8852933809196243 1.1153619056289643
4546 0.13928194143010625 -1.0256046329640283 -1.0153791038340378
4526 0.1339938498795854 -1.3110881624795114 -0.04805335205212231
4551 -1.8321070412894584 -0.2795768006633186 0.579204751744621
4545 1.41907794114816 1.1221848040004592 -1.0420205525997597
4527 -0.511039733192091 -0.5260736200213408 0.3756113977232641
4550 -0.8702547468375752 -1.7241512067004752 1.0160033376548714
4548 0.645194453080771 -0.5545734846287455 0.5193971334378483
4549 -0.10686602311423496 0.6705641474979654 -1.2298489849219445
4547 0.17621988471069897 0.7099124536248994 0.009840515082528046
4905 -0.15187661138589906 0.13892367679469278 -1.3999069163954183
4904 2.5393462526834707 -1.150718453832822 -1.1711593004404797
4539 -0.6542292280261525 -0.15722304353992328 0.4813443351197926
4753 1.3830349586122022 1.0759571918987778 0.06399938907641672
4973 1.5124213148254577 0.18400387708612456 -1.6724974565715187
3526 -0.34329923464413675 -1.6166883306729096 0.7157523320569079
4535 -0.1761515488749851 0.6872182752278635 1.240924099649711
3525 0.784358314437333 -1.0018679534213006 -0.052725348982546466
4801 0.36007613148429823 1.6470046306031563 -0.10439992103108195
4750 0.15068914805377637 -0.36152116481761776 1.1192077147890434
3524 0.07770060254766367 1.1150555950709962 1.3123699220638831
4537 -0.5540720337920829 2.2028752608481703 -1.385049660242093
4972 -0.24219626007413306 0.01174535184518728 0.19642222304471213
4536 -1.3529665377693458 -0.8246804840022174 -0.7143662768372918
3579 1.8424531698162083 -0.7988548140369354 1.0038785977578832
4777 0.19012494051687678 -0.5913550558587112 1.1862808917538743
4803 0.03750881185753071 0.49134937271033935 0.5201752817445379
4699 -0.4396438461953801 1.977593076494678 -0.3185763056565794
3809 -2.135475923828356 -0.4131278799927582 -2.4287983975210956
3580 -0.6018186104844074 -1.5614973134442998 1.270270479560718
4802 -1.2504667945510206 0.5693985924858543 -0.5668804375071623
4697 -0.9928089950709199 2.9216098782983027 -1.0864742194711212
4698 0.2205910147357826 -0.5238731267362035 0.9185769879827743
3808 -0.2731877974433483 0.7028677358950545 -0.04049689830451321
4804 1.0945904449114572 0.12123036405381553 -1.5233016035183664
3807 0.8088733266589142 0.37156382177883346 -1.01766486798566
4776 0.9268666802811296 0.48373210334746514 0.304135572613595
3653 -0.9815369814198633 0.07925069482888505 0.8642212058154082
3813 0.586123791763984 1.0619045593466345 -1.0624665980085277
3810 0.25470567392562893 -1.3473328858038325 1.2018901711045515
4805 -2.2034715708052097 -1.6931400214386505 -0.014718622417135814
3655 -0.6307226915553964 -1.4179850281142978 -0.1891038701610236
4643 -0.07398132286341313 0.7595427146038506 -0.2785061958505222
4644 -0.0036970463535815168 0.2121823752072785 -0.23811345013000665
4645 -1.4533120475690913 -0.14168776515773568 0.2952774599017986
3814 -1.663870706384103 0.7418542124706083 1.5276894818583806
3633 1.8461984701189968 -0.542456718233121 0.22185917855194554
3564 -1.1208305151546842 -1.1642070864265246 -0.09995296284394257
4770 -1.0121015555115573 0.2696848719668837 0.8409592947788013
75 -0.4913456990913697 0.22093056872599134 0.9045143901406713
4769 -1.2221231460068165 0.15013295847153912 2.1157907414571047
4646 1.386876864444388 2.1408641242917867 -0.503721909751445
3692 0.25702315460201614 0.6251604905418543 -1.0505951702412364
2556 -1.055650276070421 0.3746090212759218 0.09605150298931324
2557 -0.2703212091244939 0.5565162264451268 0.9847341917232338
2558 -1.2465049470543914 -0.4820092078921187 -1.4504057116858828
3647 -0.7196878803152705 -0.43554571370368184 0.27247912876315183
4625 2.5870250003374435 1.0221827239248857 -0.035853476747154465
3693 -0.8711880172844988 0.25076518079880694 1.2437984997866236
3650 0.12248108019146096 -0.4981125181033905 0.5386738363296468
1400 1.1710464777062792 0.5491487600502613 0.8879588384824363
3649 2.697918575366256 -0.18195544609965647 -0.7340354359196476
3464 0.2291647595336402 -0.3373856423596884 -0.6334755655252122
3648 1.8683823594850546 0.0006158239573072787 -0.6171973511590328
4624 -0.06258859040836579 0.6188654347462037 -0.5511063839413182
3465 -1.2310039078556925 0.7770723650939302 0.30874321979585934
1399 -0.5332002014523045 -1.183767469216794 -0.36717327931679067
3492 -0.04274147336873014 -1.8671741238605764 -1.0492474774403435
3491 1.2246981748938934 -0.06807402084066172 1.4920855396715802
3713 1.0930268373417267 0.0012874205486074182 0.5976812102883388
4622 0.736028667460566 1.5701773376081642 0.7338360650111421
4623 -1.1972582752061396 0.17292101780415298 1.3622339689632064
3467 0.11039361076692086 1.485568431861503 0.6241591287818751
350 1.8392623479544226 -1.6541614789632926 -1.3068823386479882
3466 0.8550858345347054 1.3720511419463797 0.48041477170677765
351 -0.8025319131627972 -1.0787275168206474 -0.8240879226366142
3609 -0.5866810939072732 -0.24776288875809938 -0.26384762399079625
3608 -2.731813730593031 -1.9101081141479876 -0.16761000255570827
4006 0.044447869072243205 -0.12788524743543464 -2.1548533948360338
347 0.11019242871477865 0.12923834944515328 -0.7812122731721621
4007 -1.9581325264654477 -0.9791735164122447 -1.23178560479245
3610 -1.4885341424303533 0.043048898084805776 1.381462505866681
3611 -0.0981153707647263 -0.6810650429190114 1.020700473885549
4936 0.6819652569767495 0.6949378714618787 0.07421465185259657
349 -0.1917531005628805 1.324162132813257 -0.2750410612697933
4008 1.2336192141201527 0.605285363438898 -0.1875890030127711
348 0.008440169416039905 1.2331731126330736 -1.0582209931060622
3729 0.9806867432012375 0.0204242874095376 1.2217240945297105
4938 -0.7840601457057303 1.4812209894599324 0.6513635918495819
4939 1.7681595617278962 1.3426634141998535 -0.21294521454668275
3728 -0.5491711430415862 -1.963185944739492 1.8430653342281313
3727 -0.40672265612603414 -0.6344186686802888 0.12240324806371711
4906 0.8909350482338821 0.5033021798059566 0.613464343357726
4749 0.1209788873198249 -0.6167127700437733 -0.15708199125253325
5085 -0.15079132187412847 0.07637662270474126 1.2084439598574437
4528 1.0884284415117556 -0.6263072767240965 -0.3716537331738559
5086 -0.6452578000743108 0.5210820307142806 -0.23789842079275852
4944 -1.3245029660435266 -0.33292652778123105 0.49476962281503845
4942 -0.19898565801961993 1.3568835887009474 0.20276085120687198
4529 1.929021155703205 -0.169451833715231 0.5943946529510883
4943 0.6582807824613427 -0.729360705647876 -0.5379537317850656
4530 -1.3060022191736882 0.775361627890414 0.6786633682651457
4903 -0.9731315016302714 0.07278576271711307 -1.2015451396996792
4748 1.1198281663546041 -1.085292076046261 0.2836969087286842
4949 -0.1387096700961687 -1.4785555736582052 -1.8938738551636582
4948 -0.5277632650229848 -1.2097692072100013 1.3924356226134365
4533 0.34420347222723774 0.6228867442366838 0.39362029081749095
4947 0.15656595713097504 -0.9830848017538963 -0.6728899719602431
5088 -1.342180578666419 -0.18039410905109918 0.6158418057870597
4696 -1.0548206964888698 0.1683802751567761 -0.2620429389076619
4707 -0.39019726619990724 0.8973327874358403 -0.9173507986964877
4757 0.25243334842901294 -0.18028426414499318 -0.7755888128792884
523 0.5868665876668001 -0.8091931793868731 1.677868449722419
5089 -0.3148374244631224 1.6126817308981969 1.464409050583406
4111 -2.323936082264918 -0.12304873276714481 1.284533235790592
5091 -0.5591976611194156 -1.520990446674101 -0.5666970138673888
4110 -0.17465510634313078 0.3399869216199199 -0.6454808754977182
1322 -0.35917347763062035 0.21807981768595264 0.008020438307384243
1321 -0.8449540067944362 1.8390569671017223 -0.7976492372036503
4109 -0.550190437103068 -1.2833754051556987 0.01507325064713343
5003 -0.9360850760059037 2.114372842041899 2.160911629889151
3861 -0.7419420574667386 0.2323528607602881 -2.093974207186133
3860 -0.0019695339997004495 1.9166073264236567 0.3726773616117203
4695 -1.6402975278949485 -0.06565300852596194 -0.07641124819377404
222 1.2608580396178521 -0.327758568394896 -0.2648991920765158
3625 1.749766320525148 -0.28620322403573756 0.3653423123347201
4122 0.2586488922244913 -0.4521376910225992 1.2494943075341676
4108 0.5672199775391376 -0.393862396788386 0.27359618130566593
242 0.40142340234104334 -0.13878132542316046 -1.7662642360394272
4829 2.085977438673613 1.1853924353021592 0.7261859014458683
4123 -2.0294275963432473 -1.0221682057560588 0.228435256224181
4124 -2.2069471684295157 -0.4518977537423379 0.04916994593793268
4828 0.645481827133653 0.22306821458812046 1.6977629107989205
2 1.170641116871092 -0.3091154818783842 0.03951119875754344
2560 0.7581003870591428 0.15362109013048306 1.2210186978780735
4863 0.18511470351220943 1.768259941605174 -0.4158109515406623
4857 1.875233636856638 -2.1655119538378313 0.821590890746877
4858 -0.1760058959211392 -1.612672169292045 -0.6760237172493804
4862 0.7052066897451739 -0.7278562614876812 -0.719174003512737
4859 -1.4603814689739518 0.4452429939793548 -2.002384444850079
642 1.2501100347321878 0.5131974145851896 0.9217562329249253
377 0.596829593294908 -0.6690868176960975 0.957992775440916
376 -0.19364965206110327 0.33488950161503916 -1.04095424199303
4125 0.6482417012760687 1.6982581146033053 -0.2822045247213739
378 0.5023726448187852 -0.8997727384751777 1.2363144519205964
4871 -0.7669166787756956 -0.48181087648053944 -0.5961013972623626
4860 0.4269017102190985 0.9191836754770994 -0.12452599781684333
4867 0.31906752542509215 0.7569634466731718 2.260067520100742
4004 -0.42467400491509444 1.748261565472585 -0.9805881456163961
373 0.16838509870211035 -0.41734606098818156 2.6259844913935453
4003 -0.4257157012121099 -0.7972544440233735 -0.026786804255534147
374 0.5067229699342067 0.16779561257549952 0.02711267198292031
4002 0.4399184258645282 -1.137061913145448 1.7842396301355994
1160 -0.6338537554261784 -1.7345691011776416 1.4321992607427216
591 0.12492851194999366 0.01651026045083299 -0.6756094808917812
4868 0.47276740392557404 0.08964115025649455 -0.9595158597536309
590 -2.150854419275554 1.2151788519098088 0.3264748704699078
592 -0.016747600627884742 1.490051604258253 -0.7497194661659136
3687 1.6129611688745238 0.612666699351532 -0.2795687418775662
4913 0.5781115835685344 -0.7783122667639766 1.092329983698414
372 -1.4042641167059386 -0.23367767321754043 -0.28377162597460476
622 -0.8744611120650969 -0.6748844113462379 -1.4217280354826158
328 0.3886814431520505 0.49386761045614 -0.5135225034520565
621 0.7057251936473069 -0.786363972334741 -0.14136059336901505
327 -1.3672674922334398 -0.7668001185366874 -0.7846985328744619
4 -0.5881312722902006 -0.6789671910589856 -0.9257893071554547
4911 -0.7182953135320881 -1.1701802043219862 -0.34376959660075723
4912 1.0312510139800717 0.33895660344218714 0.8042055524835605
620 -1.5103225298223322 0.41615827751873125 1.7090961394542126
1159 -0.5011396372692795 -0.07355669540336617 0.9562227388696622
352 -0.09076376944297082 0.1124380007959826 -1.7487888997428833
3688 -0.36242741269362605 1.4696163884445237 -0.605028189390147
3724 -0.6370023181027297 -0.2958349914978126 0.3383648936102547
3725 0.7603241115939062 -1.3307414811797482 -2.554204301571842
1667 -1.8347023653053083 -0.3223432755647131 0.7134343609967848
4885 -0.37448544820474006 -1.1190008861395353 0.14919778215643448
4884 0.3681572244763687 -0.5069694802686137 0.16952839053172605
1666 -0.4432313027864709 2.2952636357718657 -0.24713582933500922
487 1.4883048735054378 -0.4701962600505368 -0.5081215107024107
4886 -0.023608302263348105 -0.9060056450476777 -1.2419130098751476
526 -1.7768143804478829 1.4594870890284928 -0.24584587157348636
4727 0.9625577400322463 -0.7493006623142849 0.3704722185504141
353 -0.23087389314542256 0.09853366771402548 0.038908156642721584
4726 1.6003813780852467 0.4334872774835002 -1.0867692387298487
5063 -1.4726289580481497 0.6326914626030979 1.0319043394289993
4725 0.02598306106384821 0.5295579938385491 -0.016400955698088138
5062 -0.0327607462823948 0.5158638136707073 -0.7499547766826795
4991 1.4051955071625923 -0.6067159642516544 0.053832585311813785
4758 2.6059087246663153 0.1695403361859941 -1.5577673358968098
106 -0.11959679827205542 0.26112636324891264 0.07270482512116647
4011 -0.8727888455984948 -0.9061995509614709 1.1616847108998505
525 -0.3644397314502599 -0.19308042497248049 0.6072475765142428
4721 0.24974816130868255 0.6608075929191425 0.9208464239879708
140 -1.583436540847659 0.2655232537661438 0.8861545496813378
5087 0.33974656732170744 0.38514509538584973 0.7018909878127079
5064 2.0973299236838776 1.8046503482266152 0.24853227171274517
5090 1.2609909827038395 0.899537354948938 1.1851166898437047
4045 0.1412055659064455 -1.1977191348072498 0.30433954112184003
4046 -0.9408512503267509 1.7631914501572843 -0.5799786744790365
4047 0.8925099895057224 0.08261826765599638 1.5317793921023262
497 -1.416512238663537 -0.026073675024868796 -0.9260227151816243
4720 -0.171590883492776 -0.7842062475372579 0.5397574258862853
4719 -0.7781069027130365 0.5584700787323502 2.769505579731732
5111 -0.4596526178494621 0.4313627261641059 -0.983177925539616
4133 -0.8992006607282068 -1.601823596722439 1.1752027387720427
4134 0.27476365980826284 -1.6831482788905847 -0.9511283175359463
3856 -0.5986134945145285 -1.7674865722666036 -0.4196698948172152
5004 0.6282073838965168 1.7933174723302465 0.9524415982395822
103 -2.3890972775154125 -0.8090595363517753 -0.06896973181381386
729 1.0665603516947846 -1.3040633037537408 0.04014219277113557
4992 -0.19838835850265257 0.7022547057149071 -2.241707888047337
4781 0.6634677949521282 -0.1915026595810754 0.49845721189534986
728 -0.6359660010797049 -0.9250918690221218 1.400431619669425
3646 -0.06391846443511044 1.4966724063089378 0.3002397227437231
4865 0.11991175578724583 -0.15745499867647125 -0.11301596955102579
4107 0.14942258598704963 1.3363712177515021 -0.6956676069929582
4993 -0.24141380045610453 -0.6129523974399314 1.3454484331936651
4830 0.5144935019556341 -1.6575440212820942 1.5052015004935269
4106 -1.3692781962377774 -0.6810071140682936 -0.18298996696394568
4994 -0.8708233329536016 -0.2562380030353864 -1.910210109954347
3902 0.3352117202533897 -0.20567371279249302 1.3819506024684893
3914 -0.4458833341205824 -0.24436187102400805 0.24601266716707662
4831 0.7705646845160171 1.47543648607084 1.2117786852454788
5015 -0.45330396976215054 -0.8863933992276313 -0.8266189083587856
5014 -0.14213793324798257 0.21391733963137904 0.5258701340519655
4832 -0.3768462017415429 -0.4474559494193609 0.0265017143227576
5012 -1.3816068776512407 0.5773763235242296 0.5789129987291607
5013 -0.25157834331359064 0.09740384417142231 0.8415457340868434
4833 -0.5297135088611896 -0.2808202279168166 -0.20385867391794932
4834 0.5933039455090268 1.1786896217241989 1.023116109417796
375 0.6351872669963297 1.6617156933527704 -0.771151035711623
104 1.016273725375883 0.41591573118937725 0.3053904085074139
4861 -1.719540269049436 0.5526791869760157 0.20416407600505002
4001 0.21585544164189294 0.18117157379464774 0.39603013263205744
3936 -0.3372935378035999 0.1838179664349612 -0.3417765631323032
4898 -1.7763443304070055 0.27964814357477413 1.232389304669475
3999 -0.7124912049048935 1.7234039810368178 -1.1484083222898238
4000 1.827518508302919 -0.3242949846832402 -2.0497931351410426
4835 1.1586599447666623 -0.3305368365249268 0.39519517785492086
4879 -0.8722762330993061 0.31511536173848775 -0.025143800594337472
606 0.8959303684993105 -2.1482317307054033 -0.6918746839260952
4878 -1.0420509738611847 -0.2627973921050695 0.5848778633002445
912 -0.3233881787899526 0.9228003690041537 -1.1731699993924622
4897 0.8202196998821135 -0.7261655131519786 0.4770321851824861
913 0.7206128964956728 -0.2151640832812887 -1.0845548449981026
915 -2.31762468617832 1.6603588073588966 -0.36416032576444324
623 0.5118987181725115 -0.7996841659268129 -0.4043338392002654
914 1.1583533327858222 1.0207126405947888 0.7854278308308396
335 -1.454277439929327 -0.5449928494993728 -0.02216328557928447
4880 0.7195174763674178 -2.1749076402868672 -0.031327418722888696
624 1.2257052074947523 1.689529770712231 2.686645923677305
336 -2.368699975950537 0.3617530070129986 -0.6944787835035018
625 -0.528184165340505 -1.1375061726945837 -0.4410425801916477
3721 0.9516689665794478 0.44048252101988994 -0.32313321695732056
627 -1.032864679376523 -0.1390310469103303 -0.549157143423101
3723 2.0129374459374114 1.1062341994929674 0.08763554088186987
3722 0.9132488971454251 -0.660665527049946 -1.3046928549679582
4883 -1.6086773460852861 -1.7975819138470688 0.36422008853078086
495 -1.3558770024744278 1.5580792845281441 0.24106604305769364
4052 0.5789603249263873 -1.2309360840102037 2.2979377120962923
4051 -1.854007378840769 0.4816960043751273 1.2790395679333382
9 0.0895591388407862 -0.7262717498451636 0.25344780399256966
496 0.32843562732101994 -0.5374582710834858 0.268521632823263
4053 0.6294312447826288 0.31385349791842565 -0.34649804162210396
411 0.9166704032879659 1.496857351461343 -1.855209859765601
626 -1.3568655659612658 -1.1184600048690108 -1.0982189856536344
4724 0.0335082926524877 0.4845495250252324 -1.1815512439572569
4050 -1.0333030522288513 2.300385042374008 -0.5257384776774046
4983 -1.7997726675123373 0.5341060868945307 1.034695816364751
4984 1.0846384488329772 0.7119820477083829 1.2028716964438875
5066 -1.1740451763867024 0.4290668852493602 1.9840628511126646
4049 0.9702386596422712 0.6708458345547642 -0.19834637061717042
4048 -0.26914995159286625 -0.23360430102259108 -0.9339790264008937
5065 0.5087978317517262 -0.8094085307706299 -0.8965771737958166
5079 -0.04153813992538382 0.6953378764326408 -0.7555948630926234
5080 -0.02422801712295632 -1.1417913924066194 1.354796308067616
5067 -1.880463569420387 0.34660505269268344 -0.13139641061478122
5081 2.7005883791926735 0.553699072833592 1.156395332670499
4043 0.6720521497567987 -0.322409202198188 0.6186615625609752
5126 -0.9202822595863627 0.8772069159258356 2.0291675222193044
5112 0.46681166175367306 0.6404617813741367 0.3839473008427482
5110 -1.5158854325535944 -0.3725494296437983 -0.8731456549635807
5254 -2.3697519896520562 -0.169657465373883 -1.6759012627792924
5253 0.5127632495743045 0.654184294479572 0.4049522793692809
752 -0.3308859080218991 -1.5523980723536404 -0.4960724309104565
753 0.4420080013942818 1.3289931623639433 0.8649490067338612
498 0.547472736754936 0.05998876703321152 0.21067137263744806
3804 -1.112801139422435 -0.2713445746936933 -0.7057443347522475
5278 -0.6594758709644035 -0.6230744847953714 0.18214290911503145
4044 2.4386419744436734 -0.26055537197239664 -0.37244765931916896
4135 -0.17412421154054034 0.3989931731993972 -1.3393060220651418
10 -0.6884091629518552 -1.5120510019045958 1.0946960033361968
4154 -0.9869160641123641 1.4842145985312607 -0.35358133308014966
4137 -0.2792031931344053 -1.0562854699823394 0.6007022481785651
727 -0.7292910686473354 0.1864384471626073 -0.8689303175856998
697 1.5543126598777244 0.7602820459947144 1.9862784807613116
5009 -1.1439978097673655 1.4784843963411103 0.6469412229477521
4153 -0.9352980298182211 -1.528189670549455 -0.9137126622071737
882 -0.4481385131633474 0.397571257417313 0.26484345365372314
4105 -0.5349920615932398 0.690587920075082 -1.3573538643118248
3903 -0.23014690925302664 -0.3115807788565696 -1.432446440271837
4152 1.1298365293931216 -1.3027372856928108 1.9119312331933813
5163 -0.4845805658798406 -0.3563987314182 -0.36616614562491884
5162 -0.6664225091193424 -0.8926314689260156 0.3883930648583664
5161 2.3547801185386996 0.5619261516720054 -0.32108689744254354
4151 0.054676657728878905 0.7189757088624326 -0.7037545378334578
5153 0.801716171150131 0.20174663957039574 0.3062096968610248
4150 0.42303723609859345 0.40901469429231835 -0.9649810538930447
3895 1.026108826892014 0.4885589978545579 0.07520283434980764
5016 -0.38627860639647477 -0.6096664861197474 -2.7505808804891765
5156 -0.06600485194934716 1.1137647580920171 -1.5422969246845557
5018 0.1316635403579233 -0.2477398579948148 0.818148815590588
5155 0.11512919979299119 0.4917746445445319 -1.523254519195554
5017 -0.6737514592810482 -1.4563006118538593 0.5998774529468565
5154 -0.3808416523874488 0.13203254196043807 2.3535016903543156
547 -1.7843365058791094 -0.5582083634285984 -0.4568376094405633
548 -0.6739455855140322 0.12722595527328096 0.5648398419865153
3896 0.32941789071024097 0.31882216601142704 0.06957422440528739
3897 0.8690849412685067 0.9045806180349993 0.3661931897238555
5167 0.12273335819769823 0.044189435661565996 -0.3881567968726628
5019 1.1624464160968608 0.20675008483014817 0.019444761805115836
910 -1.051112829382377 2.240347611869624 0.34003648577878776
3916 0.11565429596484099 1.4217831789189694 1.789722439387146
3915 -1.3713827246040617 -0.3066031427331645 0.6884786286190114
5168 -0.38277174327237523 -1.2441958799452961 -0.39939665588575
5021 0.1035180985005087 -0.7872261983106686 0.8658730836777766
5022 1.8039646281558963 -0.6302332376729082 1.4783919697482992
5171 -1.1511631237819369 1.0086501046856138 -2.5090018230959084
5169 0.5518419334309498 0.8912182550479926 0.3775093299328832
5170 0.32639170941581963 0.15167411732187105 0.6325397229183621
5036 -0.47299040752579385 -0.9596310383553571 1.6705786610448616
3998 -0.023366870391396687 -1.4873213135618133 -0.7561925531189989
3997 1.1552384864440008 -1.6776659584297104 0.1859928398707293
5200 0.7827075777209443 1.291548223943004 0.20327199699649126
5199 2.0584590184424894 -0.3229413160775887 -0.03749035520485615
909 -1.3038954777507263 0.19864753617015013 -0.7331240756411123
908 -0.3560639729075153 0.7221522367871619 -0.4062935537115468
907 -1.6638437402553976 -0.49579823821419805 2.1229138207614002
4056 -0.3224191278974938 1.0563583271428856 0.9808238144390857
4055 1.3159478791601755 0.22905557463123755 1.7915907796051624
945 0.19613400091731628 -1.1832410359234429 1.2335352638465493
628 -0.6821673342634864 -0.01530703030283462 0.4706404703031818
5092 0.31255382315677416 1.7214375909836626 -0.7490021358077699
5035 -0.5280942307632235 2.266085020621279 1.128158895462183
5069 1.4345599433309446 -1.6459930931785056 -1.747627412673986
4054 -0.6043838728401819 0.11001358706816101 -0.5173774207150282
5054 -0.727482876239369 -0.33828942657649913 0.2592881056814678
5053 -0.44109449453972527 0.6615314355158574 -1.0394291283986787
5214 -0.9671471348627984 0.7542349720265689 -0.009735807315843179
5213 -1.3522311925909118 0.5572204697844254 2.5455568457412476
5215 -0.803502318427306 0.057913399423597335 0.3788353470456781
5055 -0.04209607729951268 0.009787534870555033 -1.980492656609766
5056 1.2772591968485347 -1.1276646098554968 0.04728080026298962
5068 0.9151729997866508 -0.6412658914175233 0.906666878071595
4241 -0.5496585231797014 0.7626198061652003 -0.7634299633912608
499 -1.605164255276907 -0.11721332411616579 0.7954777645510238
500 0.661995507852555 0.3790195824717763 -0.8666518374609246
111 0.7122814296341993 0.5873315383826189 -1.9125664220141545
5252 -0.6512485589691644 0.8906278035354636 1.6381516831696423
5216 -1.1508263014425963 2.1146294807283295 -0.03873887616947206
705 1.3498950739091877 -0.19773554766725168 2.7639576566376958
704 -1.8737735381491147 -0.22003204272220056 0.6817156521274453
5276 1.4144832778483072 -0.990801174421568 0.42136496154026215
5277 1.9703954807360542 -0.028613167911743533 0.08282432890903946
4961 -0.08540627741034858 -1.6320179843434695 -2.096231677361482
5255 0.2565834004715417 0.42547671079396576 -0.8603557231769373
701 0.6533888347961608 -0.2335385075225836 1.0268719523499255
5125 0.47540386835855064 -0.0993545108724496 1.549197850270143
700 0.5036547732831921 2.552414084234614 1.2971880295655185
699 -1.0268125277283293 0.5543442442352048 0.18964007717848552
5256 -1.6546178683285653 -2.0196778166485383 0.3861607448619639
5124 1.257670774339733 0.20633854238870997 1.8597127862505571
4962 1.3014606214666005 0.1579358310630968 2.6291429767684824
998 0.09015318271282122 1.323322324080733 -0.1405649768145377
5275 -0.45666594615408296 0.252992522472665 -0.03845219835800799
5272 -0.5658064095576348 0.6785787625920549 -0.8174630083924838
4138 -0.22711136928335451 -1.1474563907313269 -0.1897110419915797
4141 1.096738513217843 -0.2414302931047197 -0.4107883321900708
698 0.12250631575383303 -0.8107557585739245 0.7989030934015829
803 1.1243289598288204 -0.2960505929337448 -0.7708721669463892
4140 0.21602376130233517 -0.8739954348408175 -0.9414546424068853
4139 -0.42120586841602836 0.1797642832149591 -2.1878861300290326
804 0.02173246683196623 0.4251421771584167 -0.18080157330808536
5294 -1.7192864408964 -0.7038631623690621 -0.11109227685506672
805 1.014564125922718 -0.6568541125145764 -1.4324383363296471
1108 1.7019798367283099 -0.5380831651388821 -0.06959186681194876
4149 1.2995845086954798 -1.9769989394641396 0.055636816211620796
4461 -1.4197885689967327 2.3101092191785777 -0.09285301231662327
5152 -2.3435949753023664 0.41008265889865164 0.3511281053518485
883 -1.1331578711475545 1.1094133473187895 -0.2795567928333894
884 -2.2953893201700573 -0.5701167648775367 -0.0312683344838143
4460 1.0034944146114455 -3.194097714171244 0.14966112286615174
5307 0.6719077081583776 0.028703513241188174 -0.10526945731230945
885 0.8328805480616528 0.3478931711773185 -0.026298263527357094
5309 0.016955289178117457 -0.1395367997057743 -0.04285110263676957
5308 -0.950542784539927 -1.827425349123059 0.8816153997601002
889 0.5468164956574593 -0.663196467573785 0.9021667945112415
4170 0.26664139335749854 0.022082305613938386 0.9616366477494529
4167 0.37947284899903794 0.4372840740149823 -0.23717104937143044
5310 0.09703642940302754 -0.17746061609142283 0.0836691851296554
5020 -0.493758072111269 -0.2846756174453668 -0.13040473681217893
5177 -0.5179701717568433 0.12844643982899773 -0.7457547315103404
5195 -0.10919388890945834 0.0900464953832404 -1.9521042889646136
958 -1.3870792706533228 -0.024028587154412286 2.0935905807405986
957 0.1796848966503026 -0.37970797261833983 -1.4217709718026517
5178 -0.3130651278103268 -1.219595271209763 0.1180338140735414
5240 0.8464462690569158 -1.6084487203141342 0.10644830387663047
5239 -0.7129449590779049 -0.6569900133616168 -2.3802942983625095
5238 -0.8329383289533429 1.3199270396040466 -0.6218654604421571
5180 1.4228766515599371 0.7520990006288906 1.372824922917741
5179 0.540448274947686 0.8596611007519581 1.7720392273335608
4360 0.24540973667011884 -0.7812090448716941 -0.35708103649531087
4361 -0.5905091250024502 -0.6686502617798331 -0.24001350978168887
4359 0.34096566976887044 0.04961214573744629 0.023576058890976054
1201 2.4728342045171967 0.9985418080898399 -1.5156231483850386
4358 0.4613175350542066 0.06463143037959844 -0.623207035677766
5023 -1.555279842937252 2.089873576731476 0.8362353166854273
1200 0.9721799669990601 0.4397820961133886 -0.9379035973810579
5201 0.09660632760743772 0.9001885866938849 0.1022582494829923
946 -0.03152591291408328 -0.5478808221026042 -0.877976517975164
115 -0.13032973355790556 1.5763205738970967 0.8141198828621108
5337 -0.011480176995106043 -1.2771439474467405 0.2690239081464386
5237 -1.2361247753597986 0.42581167082921817 -0.8177378678210644
5236 -1.026788960891185 -1.3023150445097407 0.5679838493349079
4057 -0.11642551360620888 1.363246547811194 -0.15780345996624687
5235 0.06696747337856421 0.2966498794987086 -0.8190120872456482
5212 -1.493167938073259 -1.0895893542610708 0.1391245918960141
5211 -1.1387197823536312 1.152812864856897 0.8801922944410043
1186 -0.6955539212572079 -0.2981274663157202 1.260210127353575
5231 -0.4785899356651986 -0.2420947549346983 -0.3261027228463459
1185 -0.002991220607467153 0.15107276400719355 0.756884638900232
4059 1.2709123350450713 -1.2437991091937854 0.10409609325934085
4060 -1.099981821793432 0.32571453146203755 0.3550190924420339
5233 0.6762242424045685 0.13237827792922494 0.24903032074739104
4061 0.4962590256777914 1.5453084140873625 -0.33841993427642536
1056 -0.17349591295134023 0.607535968290603 -0.5638798117821697
5070 1.1546960532605557 -1.7074374642998753 0.5116807354379934
5071 0.5862051180944816 0.10859041715302169 -0.4700214273845002
3806 1.5910950053349886 -0.060211005470820665 -0.5677392184114591
5097 1.4632490809332257 1.8047866733100153 -0.9435968221703608
501 0.8660888585895279 1.7960624046909721 -0.8078308842129397
3805 0.07583818941076603 -0.9260319815654696 0.6520253533901252
702 0.8910150791771388 -1.6118833531085441 -0.31227286729997683
703 -1.0692510381565923 0.5123344440137619 -0.418894521560965
1057 1.0812197883144552 -0.2307405030250992 -2.21889321264837
5123 1.749812935949561 0.9027194602420442 0.8954884148796318
5122 -1.4407350598321118 0.8085234698901628 0.15821084199365065
107 -0.6020764354314706 -1.6750799612501164 0.3195734985647956
4966 -0.8387017028179018 1.5359917548581021 0.2796740882350045
4340 -1.791831469507736 0.5394600874438468 -0.4117590013816346
5375 1.1177671137037737 2.0240342277546475 -0.7986678507995854
113 -1.904915992057658 -0.9577460872974873 0.1347918069824878
995 -0.12622364266986966 0.4791531156110578 1.0948588598696987
996 -0.37496841660147334 1.0227067418796383 0.7344134989739044
997 0.7812448342150939 -1.1793775966431808 0.07925812306670475
4963 1.0775741709466589 -0.3983459750052792 0.5937201085721663
5376 -0.40768538431948437 0.7983945982687252 -0.6284968144021004
4964 1.1849163911023175 0.1645322668040436 0.5088543017459788
5377 -0.2347371401996827 -0.6628966528464845 2.09442412786297
4338 0.5446679323271788 0.5347053330495981 -0.9476619998289741
5368 -0.8002411251459748 -0.8762843545500332 0.23189137250767916
726 -1.1387819016117227 -1.2247929826310864 -0.46738663904905875
999 -0.0787891467449457 0.13594774971050017 -0.783458521204269
1109 1.2978959546974316 -0.7591248137663767 -0.6933397126167087
5378 -1.138072633343339 -0.2620205729925757 1.763452680818625
1111 2.252274332733393 -0.34603720223607837 0.039443463571221325
1110 0.8646873659329852 1.1455125274836173 -0.773333292292762
5295 -0.655555306568049 1.211728766226155 -0.8336282890030083
324 -0.6288773331962936 1.2152550455515563 -0.8397895960502311
781 -0.16866943386748529 1.4449070079955944 0.22649902460826235
5369 -0.0015652670579040008 0.40949630001378445 0.9881977225444899
323 1.151887499550681 0.7173545916980709 0.7066096584938747
5379 0.47207078687430437 -0.02196955612338484 -0.9726601628172454
5370 -1.5899315095688744 2.2438832197586565 -1.1243043705869384
322 -0.386329166627934 1.5930129657111516 -0.6163537906269574
3276 -0.19815913293346213 1.466789666090348 1.940031595238794
782 -1.0119804113322675 0.5399688935108026 -0.1387301356861886
5311 -0.5336092483771614 0.3984561835960383 -0.7749386449156147
5192 0.6413984976469936 0.3945654051924748 -2.3594464447836407
4371 0.15061060166071097 0.5960767751079517 0.35077003697406
325 0.08491785367606278 2.45147985849269 1.7372456228448472
5325 0.7839634836535347 -0.6220221589399366 1.4785153437148604
4331 -0.16376253439747568 0.36369200415168407 0.3973588896413965
251 -1.1935428309112484 1.6820676466434337 -0.7781704948868093
4332 -1.9694873154156904 0.7961757650594196 -1.217174764813548
326 2.43244787040609 -0.1986170325186777 1.340601219925063
1337 1.557158680214517 1.624762822822357 0.08358485163414399
4434 -1.5906908903166537 -0.6217316801747634 1.8278388272329722
5193 -1.883308866432363 1.085009511818727 1.021134978364023
5194 -0.4497897530404967 1.5893589734897369 1.3135183474821455
4436 -0.420140993542941 0.36806161864904235 -0.8789342488848754
1344 0.30658971107229155 0.43082276766501076 0.33669971355026773
1345 -0.4588294650470132 0.6566082887391531 -0.14495675580629946
1343 0.3967386437322355 0.6529841733972804 0.553598567033478
1193 -0.9709994368803773 -1.1902255429508128 -0.0071520714190549586
5196 -0.6862205620421397 -0.0649181895929678 -1.1210442346800036
5312 0.6683154861853907 0.8407377115464012 -0.060495112385272325
4435 -0.4260258947105485 -0.11189449231049847 -0.5407410866268442
5361 0.9044880607058967 1.0022425222167346 0.17263718546069823
4674 0.2491280798790551 1.2803487838885443 -2.040157350718014
1195 0.09785327352955472 -0.22835918197917537 0.5351750246024825
1194 0.43850929563533564 1.2160599789033635 -0.18075632527702434
1196 1.1849174255471855 0.5727889339519368 0.5485680424549779
5360 0.1745101041544755 0.5864643860974985 0.885519547080392
4445 0.7150029465759566 0.38389597006634874 -0.3457067487214706
4446 3.365110170395093 -0.6732143730714166 -0.3106505730249247
5338 -0.8705275074883584 -1.37145650375714 0.3222294099046754
1252 -0.22114231564977083 0.9620567650917328 0.45422501583227404
4357 0.33540236189903017 1.2894173887671567 -0.10741934930525
5357 0.34404409148212106 -1.517359467378715 2.2045931118354907
5340 -0.18423334566213367 -0.03730349492383983 -2.3386671336817835
5341 0.18090099996385323 -1.0833738555679049 -0.7978637495116155
5339 -0.32815246629388667 1.3799104472714903 -0.17713844727182043
5359 -1.0687580912136212 -0.4177999699412033 0.1788985697904316
5358 1.0241112727918522 1.7846445754286644 -1.902140330589521
5234 0.2366074865458383 -1.578023254440825 -0.2316303199498399
4475 0.6930767822956947 0.11443407923702856 1.1127362856782541
4476 0.9818880911720413 -0.053152536652303004 0.5831128937245303
5343 -0.3909252073116796 -1.0298330486433855 0.3906950571254379
521 -0.4629844060189568 -1.8422453201204994 -1.1582599758923229
4478 -1.2125214145341803 0.3217266664805609 0.3701679228328899
1314 -0.1970229937247054 0.05107178357365724 -0.8656026398904577
4339 -0.5457442812632441 -1.374639928463405 -0.8657124705191926
4251 1.163977399974185 0.6781018322819903 1.17632429013096
4249 1.44719284577907 -0.29269456376316555 0.35521077426033165
4250 0.5684652855583201 -0.7526455996654222 -0.31113872271039983
1315 -0.6889765034883053 1.1959555305396663 0.32660982552169177
4965 1.4825947902142034 1.049162337060711 0.3708279367900902
1007 0.7216637372674809 -1.1138800666689337 -1.6469846772731935
520 1.9349085654988931 -0.1757761778171759 -1.9152923480900148
994 0.495912306504042 -0.6231662873940023 -0.6910066873785582
4337 -0.05822882431876941 1.1891095434369758 -0.18845853779926294
4336 0.5287559330508242 0.00311340166111775 -0.34654558795481893
1278 -0.5427312649188701 1.7043261550813604 -1.3774012856319706
993 -0.4907205250645216 -0.41374236007471743 0.26345293997876834
991 -0.016870501911475523 -1.263329346875885 1.0540053805557106
1279 0.028794577707175 -0.49309857300784815 0.4896983016251521
992 0.26520617086379117 0.4630814923019688 -0.05982533679681255
4335 0.6034994846214431 0.6957131531608678 -0.829125730974684
4334 0.6593806310914023 -0.10479786570938816 -0.6864412775130186
321 -0.2634789443477987 -0.20951785489808078 0.08477673940772697
4333 -0.034166271429806265 0.6770315348954385 1.0174349358592596
249 -1.0668168063671457 0.049698599875148936 0.6792907373650987
250 -0.8875596171962835 0.19346245266850073 0.2911882717989116
1329 -0.6799858821686624 -0.06526748012899927 0.8718586784182285
1330 -0.08107493817845404 0.29762016912234734 -0.45821815573368535
4611 0.7002258896845028 0.49356224497068507 0.9236214361792807
5324 1.2254016168022004 1.060689317205585 -1.100629594990557
1087 1.2233649988010986 -0.8479930647907832 0.9001145157635834
1078 -1.2278651633792843 -1.1538092980587238 0.8465362618313302
1079 2.21333407237285 -0.3768291263784414 2.027609918057328
4601 1.7477003896887005 0.42642566296107126 -1.1126044807652524
1080 0.2924585100404588 -1.3941859541317219 -1.1888348581215904
4600 0.643793858045268 -0.3559906726527747 -0.008382915454082237
4599 -0.0037650667083462454 -0.21367095603713174 -0.88794549483772
1340 -1.4615022508558384 0.45117224681285006 0.9489780247065653
5323 1.4519056890141777 0.5971273540502173 -0.11413224862156424
1113 0.8333147840795624 0.15703131836620973 0.17717448496956065
1342 1.9960364052495934 0.6277081348475673 0.6684783844907748
1362 1.1213893940817494 -0.08211989394536878 -0.6140678336480793
1341 0.5259669770922398 0.9877398366333046 -1.4526692927708733
5322 -1.0373227241047895 0.7259474534830825 -0.14584208194649387
1114 -0.7014398424216779 -0.3768618678472885 0.29775741288433644
1132 0.47023704534155514 0.3351831258464708 -0.3030909127551018
5321 1.2284060027548562 -0.7311702542254288 0.06634037768967538
3539 -0.5052688785646907 0.23402252120361142 0.5960331204315583
3540 -0.24020250089259187 -0.41234354276301155 0.7102144146702714
5423 0.5224581415759978 -1.1250383440970058 -0.566582292212854
5425 -0.6319944548368582 0.4879751302907255 0.8872664389921829
5424 -0.5898335152313439 0.003227376831754083 -0.05882049536934702
4570 1.860198221866197 -1.3414983574601325 -0.4531689820642393
4673 1.680566831994848 -0.24410089596637197 0.35354517586731604
3541 -0.8362809505714885 -1.1022250906054476 0.10614458693566826
4672 -0.020850194273447406 0.06845779510614597 -1.0849121780949582
4571 0.9429814098413067 0.37915814179540713 0.6835162655912622
5422 -2.0783589026884326 0.6372500730131765 -0.7060180308507034
5421 0.82084261696405 -0.21540913350764174 1.2720501861198363
1257 -2.381794193347269 -0.05439638787400001 0.2513097937620987
1258 -0.05625457890749233 0.03431426784402597 1.748957710742293
5342 2.09998442737475 -1.0360618766397436 0.8690543654632982
4671 -1.83707941480185 1.6766401400438389 -0.48473196113774514
1244 -0.9185932789953669 -0.06416741712440747 1.4365358318821109
4670 -2.24065496634433 -0.7346527646134887 -0.17484564160976745
4931 1.2474355311490175 -1.467384414238996 -1.7658953648329054
4669 -0.3638285412327885 0.38157401491903603 -1.110701327087053
1166 -0.40701711920526046 -0.1302186344160123 0.3280927137136272
4930 1.7211876772949872 -0.9420658601022946 -0.590838521061971
5432 1.1054148585387957 0.6771587054915553 0.5233041579591718
5345 -0.3594871272788202 -0.5550273962129603 -0.30087270375572395
5433 -0.7421416395666365 0.6480270533935866 -0.6688467749079365
5344 0.8322381573922308 -0.24848259873979606 -1.2919386231164198
4668 -1.576683905262862 -0.29971807185468985 -2.193969330375325
1165 0.368613310238583 -0.6097390803973071 0.4890324747552631
5346 0.38825855486187566 -0.5360584816060646 -1.3635289270021707
5347 -0.6097988094871364 0.2727347663356842 -1.6655768171853853
4501 0.32743724052737405 0.3819341988608529 0.9644454386346137
1277 1.1024431863004376 1.9462089611511664 0.2957901504493098
1276 0.4785743013343483 -2.361882960057258 1.727153296530121
1226 -1.4638450179416667 1.122927446571644 0.5740670859515172
1313 0.10686576299761744 -0.570183267923741 1.5595552235476988
1275 -1.6210451305623101 -0.8079516245512022 0.1450774779540672
1274 0.7725082520308204 -1.8689372971650806 -1.3682936458376824
4538 0.33269528262283343 -0.783695796158789 -0.22392280537676268
4799 0.8222596993125711 0.8254951262257154 0.9745223691747582
187 -1.571900002479008 -0.8879991585697385 0.30753827093916364
188 -0.29555598878265704 -1.8501125160306644 1.5788297333482952
186 0.04134931543859025 0.38757977792179293 -0.6657624704822958
4798 -0.04430727541268856 0.46552128566477596 -0.6686532526004945
4797 -0.316541206300495 0.07611727439916956 0.9451307465763212
1456 -0.368571521137883 -0.24766426546082831 0.6333584825288062
184 0.4852707539699851 -3.0380007445108568 -0.7628053836452368
185 1.812599762741222 0.8681888705739241 0.754492569438672
121 0.24050588567014783 -0.013905465982504032 -0.7160301106720142
1280 -0.6484354367491898 0.1716996460708668 -0.7180483241490525
1326 0.3128415647884418 0.25732198302690085 0.42857179962084435
1077 -0.2024942908311617 2.0068773014878833 0.017344119509571057
1328 0.7695967452874983 0.3260314500601744 0.15218453568215512
1327 -0.906482903111451 -1.7525532944090627 1.8007253259460947
1075 -2.6169810856374185 0.8545866638374747 -0.22992502019208516
1076 -0.07421755119541586 -0.5827489191738652 0.7693474760783903
4823 -0.16773104739725378 0.3793393043132307 1.610185294391689
4590 0.18794283712789842 -2.8620309864605717 -0.6489275671683691
4822 0.0776580437262582 0.5520912627326341 0.48896027012087045
4824 1.5010897109851176 0.5541086357219431 1.3977696507252924
4591 0.3943064135866298 1.5843193641121227 -0.9447187261610152
1074 0.490534902399074 0.9789229983216007 0.4741170678636728
4810 1.2512707986354732 0.8311921068100727 2.584698250853346
4809 1.4721441752014695 -0.304566401080797 -1.432755599209282
99 -0.05108220547102294 -1.498148680797477 0.8960746719159033
4705 -0.2859969284061509 0.18899443353933912 0.4658597394925099
4704 -0.08284997368208045 1.3834136022403183 0.07920973449781124
248 -0.2573015402620323 -1.682913030997134 -0.1549339766080258
4842 -0.5993382906871163 0.2685091650211289 0.44274272849671614
247 0.396295850633999 0.19831810252604723 -0.6546291693886522
246 1.6950492713627137 1.1571666329400567 0.06086886345133719
4598 -1.2902748892822509 2.820661553500783 1.1905807657127305
4764 0.4314624643822911 0.8322509317638008 0.7504706237204087
4808 -0.7920178971104546 0.7683491075419117 0.8891260501917178
4595 0.49250180328092874 -0.5228399649267618 1.4161443646475975
4706 0.32457756484885686 -0.06411365400304417 0.8851974788856538
3538 0.05794249686173806 -0.7244548202317685 0.2711733718967182
4843 1.003405223404686 0.12310159491489643 0.02399093936305334
3629 0.9998796685264629 -0.23374573239392185 -0.46337200939322143
3631 -0.6689766643743633 -0.9445935090082919 -0.9613708040804242
3630 0.6485101435723281 0.2263994005595188 -0.5046083686465215
1363 0.25526871092028686 1.9294070563340957 0.6875399587741455
1364 -0.5775526651868057 1.6258908484115688 0.034030666745494216
1365 0.3888191246126227 -0.5004081790035868 -1.5748871974963137
1134 -0.5469017476320193 -1.103034247529415 -1.905105017364165
4765 0.28393697092551434 -0.40584055903271604 -0.6045621087705203
4766 1.251702752589758 -0.31293506148880823 -1.4340432316004037
4844 1.2773929495473826 1.8683828959667126 -0.790627145211014
5412 -0.7987959314218035 -0.23190109097737677 -0.9733417353675112
96 0.2623807879072117 1.104472401315206 0.3922998383786481
1260 0.5847574775081762 -0.45073668867287553 1.2554932841960054
1366 1.6595800843385036 0.848278833522695 -1.140827970349877
4650 -1.4506683254207808 2.5605364172254026 -1.0454360346865694
1259 1.319335212739158 -0.0023376355973327156 -0.8826556351461715
3707 0.4975530844339697 1.8798530279029069 -0.07818608694191745
3751 -1.4098769947125962 0.11683192768361847 -0.44698607506387156
3708 -1.9922427990277454 0.8264752894051742 1.7981420369832106
3709 -0.5826781716021145 -1.296737309665932 -0.2172171021437375
1444 -0.7013307025270711 1.3949726067105854 -0.29942590134198027
4651 -1.8771335503567648 0.5557569952369187 -1.272900862363473
174 0.5688302267279387 -1.5903281314131876 0.3542963089277236
4929 -0.049725215982227865 1.4253997605295292 0.011081347097511504
3750 0.2941756599134073 -1.1433954303576477 -0.868397187072426
3749 0.664934338731416 1.1909624945950783 -1.1618108475602429
1404 -2.1980980497053686 -0.21066362373994985 0.499975065334275
175 0.40155652707495304 0.3463547890169526 -1.0176205494222037
1445 2.3836454401228555 -0.9115610564445389 0.4024176066135287
176 -0.71713029180733 -0.6709725933299171 0.9260657442356339
5 0.11844511623595369 -0.5413986995400965 0.7495288991476753
1405 -0.5582389367973858 -0.7743260545372509 0.7350104429891334
1406 -0.608918889024548 0.43838436788845164 -1.2422257381703583
670 0.7916319163565587 2.897888256741929 0.6161949503011207
5348 0.31121171565989825 0.3778179737348505 0.41993909736364715
5434 1.4451800130230337 -1.1800095550202059 -0.7755765818516525
169 1.1675482294682087 1.370767107036643 0.1616302880492612
4667 0.4117537340243653 -0.1945827265068845 -1.195915207027801
1163 -1.5445720321495804 0.7165243783805909 0.34084238988150367
3730 0.7973138207399729 0.5628252080422276 -0.7744594482515277
1162 0.6695679033180462 -0.8085825370729921 -0.35926891985424647
1164 -0.027712641075058348 2.0423685051415523 -0.480257810531107
671 1.1154304134331503 -0.08815718873805253 0.8232211412574816
3731 0.7126793975595748 -1.9848822869636071 0.5764482088352412
101 1.7773452619877546 0.3716391796510237 0.3325724948584175
669 -0.8803086249211665 0.5793082511477556 -0.46181122890566945
4927 -1.2938614782937279 -0.02371305217827425 0.9869201984149749
168 -0.6444844083441283 0.8315305331724878 0.0807908726866149
2431 -1.4001875736666094 -0.896716649901318 -0.5493964600075727
189 -0.9682930289951326 -0.4080765644712974 -0.7480376780520752
190 -1.3716794296824546 0.2792392817238478 0.8171280098955618
5435 -1.1358722774287928 -0.42277027669650463 -0.7778562897511554
4540 -2.8674498209740786 0.7926778985306289 0.6737981350662964
5436 0.13828923223454304 -0.10687765341987465 0.4685669406944187
4541 -0.6300560794278847 0.780496567595753 -0.1936379360686117
117 0.35653225530384397 -1.1004325579079408 1.0056186820403215
516 1.1231169871494406 -0.41038145956217076 -1.3407837192914565
4946 -0.47302335089333175 -0.16893365977899522 0.25532095624669665
4800 0.672096258202406 0.42417891993301504 -1.2088515537096982
102 -1.1864199022763837 -0.8678376996683616 -0.9921092265145994
4711 -0.6995996217481463 -1.0084509476310075 0.6945894372022283
3801 -0.9359316286426758 -1.9013143107926123 -0.13063272384552035
4708 0.9664195255921751 1.3386335287428348 0.5999209916096968
4710 0.2661694460541128 1.3961251373717325 0.15435956180649943
4709 -0.5947391938892252 -0.4019194870373938 0.08137247116951851
135 0.2508042537238972 -0.8186595120498771 0.07372899391409005
4945 -1.5644437649545258 -0.8241688853560809 1.2775197908220501
1325 -0.2314150725679153 2.085011098145638 -0.6593644931489107
3800 0.5272659231990658 -0.8607677694707301 0.4096118396877204
4693 0.49424968418181225 -0.6968005675172076 -1.1935735807970775
1324 1.3446607359803722 0.8182917014266654 -1.1286078184227295
3799 0.07975729218859302 0.3042388003262008 0.010815467427542564
4694 -0.5171637639153006 -0.7709461240482052 -2.809622647238737
4592 -0.21939507056404156 0.7265369421315062 -1.377017903192823
4593 -0.019986198643708725 0.35690787914625294 0.5650601559874556
1323 -0.2516776296703212 1.407355388286727 -2.1373674711949238
4817 0.4148280419150205 -1.2963630204677954 -0.12888956269296262
4806 -0.43258666384755806 0.6117312872567832 -0.26933252854733214
3626 -0.4357829951934043 -0.496582682417144 0.0855750634134092
243 -1.3872666156308424 -1.861237994623556 1.108366914124629
4807 1.602408521460726 0.6641440631352169 0.22379414541202797
244 -0.7362663934768233 -1.5968462768050449 -1.3588662834417695
245 1.7801097162805217 1.5006095638865709 0.3945578734826736
4594 0.47624247010237625 0.3728668436779836 0.3439402643360566
3627 0.12049978356870295 -0.9061610112478735 -1.6452819305057556
3628 0.9032296795400754 -0.40056596975039144 -1.3258904082547347
4827 -1.4354122551056494 -0.07514073491380202 -0.9392995656598123
5401 -0.544151215674756 -1.0162830038898056 1.0170083567326516
5403 2.049339102822292 -0.6235097455209898 -0.8700856068662984
4826 1.907470973603639 1.187490974674542 -0.7096554205707994
5402 1.377959206499565 0.8233323614051045 -0.7207633184470097
4647 -0.903905970702232 0.5732425122377568 -1.0025927349353816
643 -1.0310485732560795 0.04836158457122657 1.6913506141781962
221 -0.0767660409147371 1.602975882590778 1.317114806950122
4648 1.146160421567306 -0.39267771089023734 -0.14722877001464824
4126 0.3424244209217413 0.3094630721107324 0.6365968304540621
4767 1.0144077552018433 -0.8128936630489795 0.1902635444278417
4869 0.4892749506641767 1.9755245662838261 1.2050466283384378
5413 0.667411643171098 -1.3661119370352601 -1.1633957686641154
220 1.4021877380052628 0.6439984154101174 0.5462639724546363
4005 -0.33646048779270576 -0.4334405451172403 0.6347347509387262
644 -0.7364816857966393 1.7438094329029323 -0.26006431263584157
1161 0.6261975610238092 0.3647360260862167 0.26484015343238687
4649 1.1699461130119435 0.2494745883420154 -1.2955502574274145
645 -1.7339305060687888 -0.4745010613555666 2.551038538500499
1398 -1.591028358594128 2.4907732830205047 0.16838646731182955
1397 -0.028206690821270135 -1.3807364494340406 -0.4453869568924616
646 1.0558373292353935 -1.1930698290353088 0.9325444976881299
5414 -1.495876317574269 1.6205892108740696 0.8293930628490641
5415 -0.9941871603784657 -0.6079703520663783 -0.7074582614995208
5416 -1.553992346073331 -1.2442874474384638 -0.23857798122141208
23 0.22351285531476678 -0.4110683066228613 0.40725602838440733
1446 -1.2291913666131349 -0.07634823376596278 -0.4894044894615126
1447 -0.5239099146409291 0.04939084812414656 -1.31335164319821
647 -0.7983169535790444 -0.19622399664146306 -1.185909140029289
619 0.07148956900632367 -1.0641059696944657 0.6700695697039838
649 1.2491558818493869 0.17255158645371477 0.37854202988034313
648 -1.8443222990826924 0.48552162700235624 -0.4484370323013171
1668 0.7186655515411696 0.886046299154853 -0.25416921776535734
345 0.027980749311877693 0.16292028911831138 0.18720838574194412
392 0.8812788391466255 1.523994043908132 0.676801811626182
650 1.1166035100740348 -1.5034476792119107 1.4118381646139486
4009 -0.6446199276046208 -1.1522591636543378 -0.014774266137879064
4890 0.6144476826651616 -1.2128067192081298 0.5459588730426008
4889 -0.7829340494213218 -0.28656112534338263 0.8818882901195592
1448 0.1503917824149821 -0.3678733745478817 -0.10306625827096262
667 -1.4991667833800528 0.6102715109119629 0.7300157178770788
4010 -0.2803102397318488 0.6994224652598993 -1.3594688111976434
668 0.5383898055908376 0.15932332986740957 1.6887135433732947
486 0.17311857825575538 -2.125865570348721 -1.3709561023679278
1449 -1.402052279363514 0.653108140750903 0.056890190995806424
4887 -0.15704819406571757 1.0780660533371706 0.80774810754563
485 -1.195989778929437 0.36773131300709855 0.3414633113814813
1450 0.2591388732154538 1.0751276766421227 0.6487050214157448
4761 1.9441720937815206 -0.8671123027381724 2.1708424628810916
167 -1.1189642230133294 0.6795890002778636 1.0583605253870902
4902 -0.6617317165646349 -0.8136134195654661 0.5714888904641313
4888 0.12955146666350734 1.0077447195829599 -1.013531763843021
4531 0.2723403091853055 -1.066506196982017 -1.0559594580029865
4759 0.20711125093868582 0.24160288835988877 -0.6014416805298686
166 -0.3279598957433623 -1.7146382522402248 1.0175472348588268
4745 -0.6958891174181959 -0.7063128975682204 -0.8458036165050681
4747 1.6178129063768385 0.8860334545263308 0.01530995649848869
4760 -2.1413684058430222 -1.7454837087304123 -1.6895029708213793
4746 0.47886397120786023 -0.4356958827381805 -0.2793673535573273
1285 1.6299181997312586 0.5682943473088969 0.30972782301681284
1286 0.5255655991805923 -1.0193339498281788 -2.37252757739221
818 0.3417388282135212 0.7586861584209175 -0.3699966294347372
139 -1.185430297982992 -0.9843607427258492 -0.8770631049263693
138 1.9070884289075423 -1.4394879406996592 -0.653719098553713
837 0.13776371826366215 1.2253103259800173 -1.6562451969872007
838 0.05170390295496114 1.0153865406724574 0.4395584011619071
839 1.34193176480743 -0.020408920762603467 0.747631084958238
97 0.809097013233054 -2.0652751978941213 0.743154085187833
1282 -0.7661778049479611 -0.47027172268962636 0.12343049189850229
4689 -1.1914178368512374 1.9335083405805913 -0.7316480837367338
4998 -0.024575674459281164 0.47585756071436464 0.2839580121762256
5002 0.4784767510219017 -0.8330035625970327 -1.4720136501954406
4691 -0.5739154363750951 -0.2904305206976721 -0.4285341245015851
5001 1.242919965590491 -1.1664854745920628 0.1259942113722805
5000 -1.3986982017439058 0.6184714322290744 -0.44025229793842996
4692 0.30609030355452677 -0.9069462418913049 0.19505965701917627
4690 0.16887107737857618 1.2450319811292903 1.7289098185575023
4997 -0.9083086180409053 -0.23571422805281397 0.711352345841283
223 1.4633850097075067 0.26930237495388604 -0.17441959984273972
226 0.5646733810043202 0.7322402711287032 0.12745393622597484
4856 1.3929545661613918 -0.18129052228304657 1.8625395793805104
197 1.3556800177273407 -0.681918249935531 -0.4814417190595055
4853 0.1444317863011286 0.6946746304771209 1.2978179739883864
4855 -0.22082662887610005 0.11820064981636375 0.49341431288095694
198 -1.3667572432483155 0.16857267464747258 -0.4026951544922284
200 -0.4042553533279131 0.8846895956522592 0.6935693085272633
4854 -1.503476151946168 0.018856337134319966 -0.37648170857843194
4996 -0.5062668730792313 -1.2378187203533308 0.6198135950284338
263 -1.1819763984760336 0.8356486398482756 1.5309835148902642
199 -1.1652379025315733 0.0739868703415974 -0.9147551118122825
216 -0.21834654327202846 -0.8605521052816223 0.01565192993304674
1420 1.2399562159428046 -0.12168722062555942 -2.1192499869905426
380 -0.46511322767861984 -1.2111790158034168 -2.281538171890717
3 -0.0708722250117349 -0.08558781552289635 -1.400164058975818
262 0.5751221915707809 -1.3467598283438884 -1.314745095820114
640 -1.143150333165325 1.5903059586546486 -0.16502049263996607
641 0.9894330295812696 -0.3510854930592329 -0.37663194276023526
379 1.1393243786614171 0.25975293883853584 -1.4964407223927183
1419 0.5269966798262842 1.0403769117988195 0.7235572626192265
307 -0.6402134383654623 0.3452944193389644 -1.3439496403522453
1418 -0.36256600382827336 -0.3080025502698875 0.20790655026131838
4840 -0.09686943947369657 -1.877187847805096 -1.0386233290194888
4876 0.3710472849376364 0.2558526829581452 -0.736925143181158
341 -1.1013894582243586 -0.5470701029857551 -0.4441377959020651
4839 -0.005572444403256646 1.8918731747099922 1.246164144245652
4875 1.3545644264720766 -0.08628818249548534 1.2871375410745831
342 0.4855078342905129 -0.18008406164926702 -0.21232792955697127
593 0.660800028412132 0.4424512010914727 -1.676592187601953
4877 0.10405281779362724 -0.8668427929157139 0.902292438051284
594 -0.1402503102602302 0.8817816248631749 -0.9581079519648641
617 0.8767157516617532 0.1510842561605034 -0.4384065024100174
340 0.04358975104431917 -0.2792053853073487 -0.643829117882033
4874 0.6685979138882194 -0.8241607250739749 0.20136347523007206
595 0.19585616920862003 -0.7316886920712222 -0.527157950232109
4910 0.6683627412047266 1.0874704680239065 0.7166845058496045
1158 0.25304537513578645 1.0354847075839937 -0.041587521888136234
281 0.3019229623737676 -0.6920983571723294 2.8994619099604475
596 0.9356739857542671 0.9849824552985585 2.025116796459212
4909 -0.8728332150908377 -1.5782061100923745 0.5943744046115494
279 0.4924149720088668 -0.5608051321909232 -0.35008356573542565
280 0.19891917464757294 -0.43138691344307206 0.10107586223516372
597 1.401118470272257 1.1224596117027548 -0.6794247567344055
618 -1.5097329130197157 -0.4597470458212919 -0.4416736411945761
397 -0.3511657251861564 0.5271612089120304 -0.39122622225444864
1665 0.18434566406856856 -0.4474803991011985 0.07687468971532319
482 -0.10834011402871577 -0.5150995890849269 0.370060293439122
354 0.6885398317044475 1.2362053848784913 1.0570211210879994
396 1.0689644411193002 0.042263161406557066 -0.7631177849672115
356 0.7470851757830774 0.5798843289705973 1.0163674052289817
1664 1.086193049981754 0.24079928547160817 0.6289533030224026
483 -0.9139553140935929 0.2992791754988312 3.5527400668349682
355 1.0857635483112145 0.24081947993345867 0.4476338702166606
484 0.6782579108483485 1.5128614638685907 -1.1207036837855733
1663 -1.1594260142584192 -0.8425708870086444 1.823382234463052
4988 0.010595669025661362 0.7393765390553002 0.9184257555368153
412 0.947528406365488 0.7414075358393181 1.6502429773816465
4728 0.04319516143389004 0.8069380339177764 -0.6140736598528065
524 0.5121529577381254 0.7579331477790326 -0.5780534226913493
522 -1.1383528066038822 2.247272170320289 -1.40445986137639
4743 -0.11493741879003129 1.5893834034081102 -2.4172682279682043
509 -0.25220011799280356 0.7221237981384936 2.2965657120020113
4744 1.0448969735456406 -1.6960736191697412 -2.2393703916767183
4742 -0.586023578977486 0.4670728686780571 0.18781319528974194
4989 -0.500839306925269 -0.22668543681620848 -0.12521223469711767
4990 3.166975132931364 1.7792878893398152 1.1377546125459579
511 0.31427134469203705 0.6077653611970563 0.6292720180886996
510 -1.2626298644488207 -0.5492953869894289 0.5477498075700004
408 0.4436525596398693 0.39083482978246004 0.010802439047916059
416 0.8669087938860257 -1.1456416139706271 0.9396695824605782
6 -0.42428094035703817 -0.5567362023605348 -1.3424296256502612
817 -0.9910656085612211 0.31805491091496874 0.8772603628338836
141 -1.1431007066396286 -1.1811322932625048 -0.6098924622080649
457 0.34478464186743357 -0.242774030990561 -0.09511442768935935
797 -0.32180065399599533 0.9406113223097717 0.725470012510981
11 -0.41633328875590647 -0.24737541323627826 -0.2006056456245361
508 -0.6625057699987655 0.1542425775097353 -0.9415598850113109
798 0.5961095179788777 1.385059268841505 0.7486286998990846
458 -0.469674720723658 -0.3814140266551302 -1.7971046315380281
772 1.2145480142276908 -0.3059008510109005 -0.1267923294856059
5005 -0.08972486721133059 -0.2838902084477106 -1.8156871747390928
819 -0.41176447645467656 -0.19032793596982991 -1.493650630754292
1781 -1.0262431943380175 0.08902856785616402 0.2482135507062751
5006 0.536714228950174 -0.7997389339725718 0.2448217207080903
1780 -0.7674123107695868 -1.4925671487542713 1.0104217296314961
734 -0.44598928399718274 -0.030758896555425606 0.7215083197676487
733 0.4599687703689608 -0.6059769660423355 -2.2501417834408564
820 -1.048177276632053 -0.7373462994313505 -0.3772508503306028
732 -0.1910485677583478 -0.4230830955728412 -0.27620907724160026
821 -0.06284530012142649 -0.005216501363946018 -0.21630006555443726
822 -0.40529717542017735 1.423958834907682 1.0242531953408887
773 -0.03632786080007166 -0.1491385991729493 -0.030805079776214935
896 -0.7647425605442617 -1.0504364142033658 -0.3113094976653392
266 1.5246983761691408 0.572934477514591 -0.4254610541367615
4995 0.9885677958509432 1.448325894575847 0.854582158056757
730 -0.8427340009767588 0.503570570597928 -1.1095129271249742
3901 -0.16160158800328572 0.15002833046595607 0.1127188744349651
225 0.5689272833909574 -1.3315884868017256 1.4340654209758688
731 1.3111933429359952 -0.7745030583861263 1.946885485931809
265 -0.8056692081469805 -1.5782361380461585 1.099895579752496
5176 -0.3012964307478686 0.6763751152977393 1.1685280138424716
665 -0.48923142004757914 -0.2768713726322176 1.2156393141481945
664 -1.0169275116772838 -0.4278417011686983 0.9992201614989346
5175 0.47371259935931387 -0.5344847540200525 0.6548338949760057
224 -1.4889739145200818 -1.371692542115939 1.2930841925444112
569 0.8616136111221313 -0.7816528315642293 0.5170381612462518
663 0.8142969711930471 -0.86943626630429 -0.48971577079253603
662 0.7591944377174946 0.23299332620281146 -0.108319106943581
666 -0.67924994412553 -1.1874592397354324 0.8250433593310253
2019 -0.3257593499374933 -1.198061176006358 -1.7846279210953493
264 -0.9217179774608425 0.6456649338400001 -1.4503471710586933
639 -0.6979370997056773 -1.4275648680112158 0.2386889245933285
587 1.1172291931833804 -0.37264943044529664 0.5736678713439616
588 1.0657100080988935 -0.9830103182238948 0.9518158604283863
638 -0.10209603613868756 -0.18568979359827323 1.6525024716480106
2020 -0.9112434027491255 0.710701486137856 -1.4093252821465272
637 0.789229233611107 -0.21440277884763506 -1.2026282723712096
636 1.0098387541855247 0.13075412195087263 -0.49412084236565257
589 0.40614940608155753 -0.5098272604084463 0.5958279854395216
2024 0.19965186134299276 0.874664081522939 -0.41931619203083137
4836 1.2904250353669897 0.8549066546745837 -0.25649750630517515
2022 -0.013693310745439245 1.4981053974016545 0.16682887082108333
4838 -0.11126244315700895 1.9325136461879717 0.509483146617464
4837 1.2010567973391912 -0.8297190446015236 0.47464650046117224
604 0.46327900423517215 -0.5409267602165797 0.14718868329032997
2023 0.3747656139172839 1.3339983988051232 2.2568464639044636
605 1.3356338764699474 -1.4369372561906741 1.127422917980682
657 1.2578029977944367 1.632157851030395 0.5748530943743665
658 0.7701610615972085 0.027189288824653587 -0.24570894698529053
2026 -2.466829849046955 -0.6740716936774184 1.761715977359829
337 0.7622106411312388 0.5502833863314066 -0.19056670719171886
916 2.1101319033983685 -0.621728892895013 -0.7821863703627643
338 -1.140077650937662 0.7249421651467833 -0.0655951741472748
4881 0.7436039539115112 -0.4153848176029686 1.278092586462395
2025 -1.421796013477598 -0.03656434746147467 -0.6427389056593927
598 -0.3251765692697279 -0.25678779588378203 -0.6289771756589629
339 1.1602369392015743 0.6271760224876453 -0.320140239535611
631 0.2595780588706474 0.826396245656671 0.9251551412229765
14 1.84809846700482 -0.9203056350564389 1.3888076020029256
660 0.269993638379726 1.5952220143518763 0.43196531380080044
2062 0.6495424793372324 -0.5734827030709908 -0.7011178959115205
4882 -0.468774819118373 0.8778419943405028 -0.4289020648573766
1940 0.7314831855614641 0.99813775949405 -0.8989514243772004
967 -0.7019845748170074 0.9634925880889977 0.7446618339631604
481 -1.1751533598321509 0.31924467096571285 -0.976976543177621
771 0.45159854207937716 -0.20874973809802655 1.5076580238801252
2063 -0.8044062098026082 0.0594193365053584 0.22027902464663066
480 2.4360931954481995 -0.6942025672253256 -0.10040183749107583
672 -0.7842285792700981 -0.6721458308621449 0.9232877244638427
4985 1.0453656369786344 0.3689467863787378 0.15470356619038644
4986 0.3426699446505806 -0.2135639661168729 0.3676076557434633
4987 -0.6242283933054292 -0.3985444891892213 -0.41904458286487917
4718 0.4376107142655042 -0.07470896035875496 -1.001301164687527
410 0.05323140510530941 -1.4661863888021527 -2.04260871700192
407 -0.2968367588558733 0.1313562315242198 -0.3331237949630658
409 0.04381168507840095 -0.9269974262930816 -0.5763089197433021
477 -0.3606236076034772 0.3313523374854909 -1.4809497587980858
4717 1.5668298919449681 1.909023706742216 -0.3532493162289839
478 -1.9455166457609578 1.031123127388241 0.808804460700456
479 0.301359346341582 -0.2279244805085893 -1.2198102431776132
4716 -1.372448047082126 2.0571604748444137 0.19790089461837923
5078 1.4362171002562802 0.7194956558036383 1.6985612186448655
5077 -0.9985888140026117 -0.4741848692749844 -0.9454995182540434
4715 -0.19306003600226726 0.8534566043657792 0.0989517856580438
5076 1.301086614621193 -0.17346852555543463 0.5464986870221288
5113 0.3895450214462275 -0.8232256793465378 0.2360730154318172
754 0.14785641042692532 -1.1813016376374788 -1.745563896869995
505 -1.2537739594645234 -0.8244470498282156 0.2712799338671378
5114 -0.36668450723044876 -0.013965250062587548 -0.5362437491019874
799 -1.1671737553547976 -0.47548562302926456 -0.5032931414555643
800 -1.6961984407984427 -0.023295532577928057 -0.3962583395048131
5115 -3.0780078183845454 0.7488831025497559 0.6037820516444093
5116 -0.8369799618673945 -1.601526485610149 1.2673986449126038
1061 -1.662858159994401 -1.1399946691417602 -1.2370345139451204
504 -0.9535578653299541 -0.3957348163719006 0.461629706905169
735 0.9299114404192774 0.3022993223383995 1.2981654566639742
5279 -0.6587632930257609 -0.32847757022762464 -0.021620707632930794
801 -0.06795587863893601 1.8119365577147106 1.9313233464203639
5008 0.24961336126741684 0.18483914942666269 -0.907371469236864
5007 1.3313831251403654 -0.14360632983228025 -0.8471520639392845
881 0.3004999295737076 0.3154717990756309 -0.250990309766606
823 -0.02107690865846208 0.5800461356565609 -0.48954786578569365
5010 -0.06902332401855177 -1.447041410600071 -1.4923758925851642
5280 0.5449551955683839 0.23269873193938415 0.2529026270440392
792 -0.28435738907119185 0.611314218695749 0.8562692280724313
774 -0.5438497866340756 -2.0064067613867764 -0.10278980871776978
775 1.0546077964681497 0.26023871831394896 -0.17623156660723172
776 0.7070102828946356 -0.9354537218298957 -0.21925149492997978
880 -0.2948602595050338 -1.6586912866784196 0.13392389562905008
5011 0.31248187301532093 1.166808698801549 0.132471999643839
878 -0.28459962894987767 1.8657654738200182 -0.8168626994183897
5164 -1.7869886923881921 0.882254469719869 1.457210837442359
5174 0.10132053388287146 -0.6442549350818833 1.3591940010725436
5173 2.2066206240803905 -1.445743619414098 1.2332627028217336
5172 0.4085116102601583 -0.03775512843288518 0.05914289699426965
879 -0.09377818505305922 0.6182117718583744 -1.1898206535938438
5165 0.1833388249010515 -1.7052239721449975 0.04927162159811917
3900 -0.545819019046303 0.33901272785223496 -0.6296944633878947
2016 -0.14070689690121732 -0.5201363698974614 -0.4143336844260509
5150 1.3163332598162056 0.030722883617333444 -1.1963792277928702
1881 0.713349729318099 1.8964188565895101 0.9479326329002399
1882 0.06465419238190305 -0.25839238599343545 -0.654442978799336
2018 -0.7322709203983316 -1.1062533316918113 0.861672859714624
5166 0.14681030935286332 0.8350158768944438 0.8332363081709075
567 -0.1360859037234355 0.8916862997053134 -0.6906433456159387
2017 -0.5409138968091818 -1.3531396850505681 -0.10039776145107583
563 -1.2441783847029297 1.7986739847251525 -0.29049179307476114
3899 -0.4706773560221523 0.6344807641164545 0.6705317968033221
568 1.1060562249306625 0.38838361119853615 -0.47222658168741566
564 0.10857081030410944 -0.5447145514046476 -0.6236780538865421
7 -0.6499077776083392 0.2892765533138605 0.777104747424325
3898 -0.5323138454786177 -0.5356123862364514 -0.7160328879430903
952 1.041764143666893 -0.024000641392679038 0.7062778417037703
634 0.8655456601650149 -0.2485028437724595 -0.5464998279122045
635 0.6137864318968148 1.3165269383112077 0.962154038022693
530 -1.0914652339092716 0.5914848573436534 1.823237813128154
1880 -1.6662084794444698 0.12278143535034093 0.9946424573122651
953 -2.19143875799698 1.346439378455661 -0.9003814577310233
527 0.25674286194607493 1.1824560947655651 0.7027150222896659
528 -1.8297338954968854 0.4752868811262098 -0.029193169007013315
529 1.3258960572771492 -0.07861455347286748 -0.06589812119139793
954 0.682341631539198 -0.9505427443318182 -0.9614809389576539
5024 -0.23924712457756978 1.145165635275036 -0.33323615608310686
5025 0.7075587148697362 0.22408395605796635 0.08485421269703436
2110 -2.1746712157643997 -0.1818964892852942 -0.04478180676789113
629 0.8174808526931082 -0.6205037218818655 -0.9151679603220463
630 1.120986021449867 -0.2850886857778362 0.4561718045851547
659 1.384090515656187 -0.5509954958633212 -0.5359373617351985
661 0.0025582230217434786 -0.2546856248548 0.14093860074763964
5266 -0.4824549691408868 0.10285910849772549 1.4316540975186258
5267 0.3133103712877012 -1.7885211954467455 2.309644002369075
905 0.9146338488664955 -1.1500374680258885 0.17583265519342606
906 0.6464198081229523 0.8914461394332901 0.4697337872741549
904 -0.7718934627034577 -1.5724757470611286 0.7201545932520408
5268 3.2473668122775625 0.034919676125933746 -0.27860613895654895
5269 0.9316529727197682 -0.6296381271164654 -0.09360782575390184
1941 -1.8208865396676746 0.0874768994335867 -1.0785376148416288
673 0.06674248065715149 -0.7441308356808766 -0.02129752257132202
674 -0.18040578404870483 -0.09482837729546092 -0.4142771955019565
968 0.07399734561420143 1.7417395937274023 -0.06653325059070557
5265 0.1934340122967224 -0.551671355841848 -0.3201666974443634
970 -0.26289895630523485 1.1683390789138146 0.5283188844182166
5072 0.657398659285008 0.49479292803662916 2.0307846512484518
969 0.264075759004407 1.6470231891395966 -2.4599774250960684
5264 -0.401434963430825 0.15065397847468534 0.8446010046519151
751 0.16803712948615163 -0.16872234998915958 -0.8591591724466332
5073 0.40336019139230556 0.1403134050517852 -2.5110533436285687
707 0.03731082773077577 0.3767528144130019 0.6282096845376246
708 -0.8591499140685797 1.2972954811881212 -1.2071422395223417
748 0.8518216587367747 0.4930406606814704 0.8745986903756907
706 -0.3793689105956835 0.6793341020147451 -0.46394573818062534
5075 0.41727866753883974 -0.45020828691839654 1.8242278642478345
755 0.16314800909602392 -0.90985002260363 -1.4032607481154944
750 -0.09733073508528525 -1.395798460421629 -1.885620718799464
1062 0.12487364473992092 0.24344281523526606 -0.10112088082734245
749 -0.1385689721678893 0.7500175261598673 0.8242545280374914
503 -0.6653385562835427 -1.8367406424973867 0.26516089164286333
5074 1.1334448074540335 1.1957916201795336 -0.6678552491305895
502 -0.042042017699092764 0.8429414219240178 0.37733739001556316
756 0.7724804070532455 -1.6188058636424703 1.193276033417709
802 0.31077488973982254 -1.4280073860421616 -0.6932775004627996
5257 -0.19983536321317258 -0.5503842467218644 -1.4475891011581192
1060 -0.09202362526671452 0.6398864321829828 -0.04954854579170469
5258 -1.1394046256118544 0.3790076352155177 -0.8367197941612097
1023 0.1582653436189464 1.330705135554006 1.193478946706862
1022 1.7075826233195062 -0.041881536880097874 -0.8020167778345373
4144 0.06699635449111298 -1.7629081937491777 0.8771211776274916
4143 0.4474108994068033 1.92188725793688 -0.36495650158585885
1021 -1.676879795634396 -0.7230056535129054 1.6012097501966465
5148 -0.33530112834063786 0.9600307289703941 -0.6782925138576626
2295 0.702553268181497 -1.4023976671245577 -0.5961220854149389
2294 -1.2935372663835276 -0.29865467496104503 -0.48306276302411344
4142 -0.9216349454444918 1.017472374284158 -1.0564148071601382
1019 0.8789667724867016 0.4838545910806612 -0.5503715542962251
108 -1.1505664608265687 0.06123352055808654 -0.7817644775134612
778 -0.762952498340861 0.697880991811949 -0.40427125262259556
5147 1.501800740764636 -0.19543430196595282 -1.146195703131694
1020 0.11528267945111209 0.47500523695446506 -0.12603368715086563
777 -0.43108473210449316 -0.26912471628950163 1.0504086211576509
779 -0.7042699284742794 -0.4982673738428011 0.6385783934089001
806 0.15267464637673941 0.7674528192444877 -0.1260693483897874
807 -0.6110543026771624 1.2357066052243901 1.4088794364048007
886 -1.625534642538413 -0.4031427713930763 -0.7784742544158456
5151 -0.2645815742254955 -1.324215982981815 0.49526582293111115
5149 0.3754353276380614 -0.6945377605680022 0.2934373322703349
887 1.8219471537400633 1.2937520360334258 0.045486919991201226
552 1.327259141565959 -1.5125248525825714 -0.991573926512555
551 -0.3474507444686664 0.9056857691549853 -0.41335602245661623
888 0.9751775326897318 0.9592605321918106 -1.0408363507789193
550 0.3450421081904981 0.42963434440585646 -0.8863927591910754
808 0.156615221683792 0.5536289187601392 -0.6495136652612872
1174 0.7938936317281797 0.037006070067839236 0.3303696349206281
549 0.6178776561533204 1.1752178827125013 1.5707789820573783
1368 -1.467591384397929 -0.7369341236166518 0.6241159776184897
891 -1.0124876573541157 0.9995659706093489 0.21118040962733062
956 0.5972378816896118 1.55511003321832 -0.16806653434050714
5031 -2.5511468270664146 -2.0684076737891717 -0.3215465722471734
109 0.7085199104983374 0.3395913864029731 -0.779696683237639
890 2.496510469731054 1.097634952489854 -0.623291916085336
1173 -0.14845406133515202 -0.30303227000441324 0.8861518538064806
5290 0.5032104462709598 -0.5786168012628752 0.019865022672832626
1172 -1.2327239421761398 2.6156305011516685 -0.4215870542108015
955 1.671748429429238 1.3443723170945567 -0.6438929866945732
565 0.9492862530576208 -1.5366259269188474 -1.0707177348481467
114 0.4338453104233419 -0.0053069150997257595 -0.4245964737200355
5291 0.8457497961823204 -0.9413726677988097 -1.7818546412334961
1197 -0.02497319152410814 1.7002134971526357 -1.3018647523216849
1199 0.7266783747865795 0.861097396412905 1.7732539968973746
1198 1.667796525657887 -0.7706248414397425 -0.10203580037208008
566 0.400310140479605 0.4488333890613757 0.29491749723577865
1238 -2.3123920947348444 0.6777445370699624 -0.19639052889276853
5441 -0.7104906636104442 -1.5073297366950018 0.5594603921741409
1239 -0.7768419393148867 0.36704758983776337 -0.8949615970892257
2111 0.0346364705032533 -0.44542317610567 -0.7506376242856595
1235 0.08092461658876851 0.27855235222919184 -0.6467533237403024
5270 -0.14138590189353695 1.8586247109126404 0.7855607527347191
4058 -0.19005933279905177 2.8809800722380983 1.3430950155959673
5271 -1.0867791562041789 -1.515492105524749 0.3937090580761967
944 0.4473714658407765 1.329811800419439 -1.107465202021188
1237 1.186338807934581 0.00432055070308923 0.19751952244637827
1236 -0.09043199086347137 -1.8728039783458355 0.37096075771002474
933 0.8509085219890932 -1.07261880807985 0.38787800920953974
942 -1.1338402565819188 -0.27449475685671093 0.68463596265837
943 1.7243202436326788 1.2368921140014437 -0.23181650567024575
1181 0.21973195745570795 -1.3878735630294918 0.5457793119557963
932 -0.1164669535481244 -2.768670318516669 1.2762360835070712
116 -0.26796904833766483 0.09611931131270385 0.034881821411200775
5263 0.8532817030905361 -0.05342897188329852 -0.1434488834056491
971 -0.45410335552898773 1.5711071996582366 0.6524713764832297
1182 0.21405376226987446 -0.537485498304058 0.7493133442930482
1184 -0.239077982547626 0.39082106861544413 0.4592811969965546
1183 2.4144215366719495 -0.8185855761545715 1.6180673962683085
972 -0.22608811578621735 -1.0359781319609735 -0.8600509644344047
1055 1.3226896517441398 -0.5727735596256117 2.410030216744429
1054 1.1755208409556932 -1.3236655354651403 1.897023094646067
1027 0.843667378757574 -0.09144365382590935 1.9914000675912926
5260 -0.8968608202422441 -0.17867741500760792 -0.263129534502183
1058 1.5022413858580472 0.26688987210066073 1.5428666246057527
1059 0.5977373668779806 1.3077407825211107 -0.4594249863968771
973 0.0406135188887536 -0.3182736691328404 0.15574356777732176
1025 -0.41641450522182155 0.11277971113952913 0.4882514652585975
1026 -0.037631070454599534 0.5851718661541505 -0.17150729568805886
1024 -0.15361211000953331 -0.6846068958690457 -0.21482750436484746
518 -1.1537312425016553 -0.7158098779025338 -0.36876397505937614
5259 0.13608346333925883 -0.016039172853008706 -1.0069306421351873
517 1.945571990121453 -0.07341006675048115 -0.36971593991512214
757 1.0986961446665078 -0.1030015405921852 -1.5314130854568282
758 0.436642926758852 -1.608884900254492 0.5039178533260686
759 -0.7123207592958505 -1.2707062441449974 -0.42020419901573863
519 0.4044692196854794 -0.6297857615091278 -0.5846063179256629
256 0.9795217735331153 1.1015991370277456 -2.053355902819806
723 0.03715307858202442 0.42372813067195136 1.2974754464813676
4967 1.1218395368090812 -0.383246155304695 -0.940452805305021
1000 -0.7519116931099971 -0.07983170239402522 2.0388568352931538
1013 0.7853857557629877 2.32040199252421 -0.08119113710270451
724 -0.4380563308130897 0.45114389395123766 0.12287650960565784
255 -0.2193230884631711 -0.4961059049526477 -0.9386834384017247
1014 -1.767334818910278 0.5851936102980031 -0.4029989988659631
4968 0.9879508765103624 0.27821311227714857 0.9779206729179445
1012 0.5579387989506431 -0.317492895712007 -1.0535320998760709
1015 -0.1499544709751453 0.3308571409624176 -0.012872656119633116
2293 -0.9105046015017102 -1.4596311330741956 0.9872356455787802
725 0.6376551767997394 -0.5696397213257716 -1.0994097090997594
988 0.41309009100227506 -1.2508949056658756 0.6803354231296928
4969 0.17372957800940358 -1.7386604068977016 0.7689942905917004
780 -0.14362796661581828 -1.2072150682244482 2.0174512076632585
252 -0.9861134943196842 -0.6979201632492961 -0.315476493455685
253 -2.1130198833226155 0.5153774691921178 0.29871113679342753
254 0.6633098097543726 0.5859143426307134 -1.231341142982229
5329 0.585037186779841 1.3953258584122608 0.042549067259062254
5328 0.8479082183972176 -0.6257739617846406 -0.11629808165682332
1106 0.6215069411745723 -0.30803417825594354 2.178426067067065
4970 -0.8208893008280448 -0.6700015885666706 -0.027003992307365353
786 0.686327153714596 -2.3938700586741906 -0.24656906633028747
787 -0.9899322288099677 1.2300587569583072 0.9360321577015319
1107 0.3449394249209714 0.02825169777521477 0.3298482567963915
783 -0.2645834523613596 1.2020480857483937 -0.5384402015668573
5326 -1.6732756271508622 0.728406382321559 -1.4327324004064275
1105 -1.2017619661611776 0.5020446765368781 0.8393693909880517
784 0.49888473117689774 1.2524670577121249 1.2475633033213542
785 0.40002225378795986 -1.5497647025679488 0.39014014766340505
22 0.688767191519156 -0.5823243068372426 0.4550100635729346
5314 0.3522639284237394 0.8704660894361111 -0.6536174203111791
1338 0.3480030541548192 1.5739564195052025 0.3496210654540925
5327 -0.7542122129533226 0.7155001059445567 -0.26155325966165077
1367 0.19240544417587704 0.3919584834716354 0.7481829243133655
4675 -1.7821742797479723 1.5918486439638646 -1.0941872929968086
5289 -0.7826221601032896 -1.068465320746433 -1.7290394747435232
1170 0.5855549255292383 -2.42009189883639 -0.09986769687710062
5313 -0.36403899559423786 0.09188185388599716 -0.29194470708119635
1119 -0.14519628202038515 0.47475049614709475 0.7704477914634567
1346 1.854177407853374 0.10607068285825277 -1.895697529835363
1171 0.8717097019198901 0.5095656739354769 -0.11149185514133715
1192 1.4052747880934064 -1.1924610735273213 0.7713645617364961
1347 0.028829998539497137 -0.6999808599028289 -0.7123623972332415
1118 1.847809976169986 -0.7352919814748344 1.6414751187744898
1117 -0.07253917548303068 -0.7679204921638941 0.475579895408534
1241 0.525707387082637 0.5442353224209769 -0.96058185111503
5439 1.3953776186823363 -0.29634769217690893 -0.5113735915887048
5438 -0.48270448147036105 1.9017493599976376 -0.6603832537398707
5437 -0.1468810438327997 1.6115194553574794 -2.426074244485059
5317 0.90995206087323 -0.763526065830326 -0.053892558154215196
5318 1.2767703005439253 1.1731244759751018 0.011249017344958074
1240 -1.4793810029151178 -0.18235695237207084 1.0695290517948868
1249 -1.7698709739974943 -1.3073213529436425 -0.021946075623234494
1348 2.162225492723704 0.8660928631855045 1.6507790535706102
5319 -0.873957487456255 0.1945669620275815 0.12353511722934438
1253 0.7191284788048121 -0.25080330200966794 -0.5682383656402158
4480 0.6004796066035276 -0.3969471498145745 1.1014346912772088
1242 -0.9448434499449185 0.9229291363909227 -0.9216481820433863
1254 2.2843294555315468 -2.466593856893506 0.8283386863625689
1255 0.026422268144429408 0.07268824690152101 -0.016627772942109396
4481 -1.271934807917659 -0.12249946582233145 0.02104079406684118
1251 -1.1086648401744696 -3.2668977991776553 1.0667924041062482
1250 -0.8227354303357941 0.2603545237829302 1.7442673462658758
1029 0.29794721604487173 -0.009008636165096727 -0.09305281345460605
1227 -0.4154899711539626 -0.4304056809402262 0.28567938474972027
4479 -0.6319783552040076 -0.9018261533608201 -0.6053984607446494
4477 0.6188612428645258 0.21385076935485045 -0.2581591498758491
1030 0.22403071039446804 2.34394638833125 0.08391106091926766
1214 -2.405926808579842 0.9715203877206227 -0.08104763716873631
1312 1.9661626970226056 -0.9077529482407878 -0.18323037551811408
975 -0.44479794441637804 0.5750825505221197 0.008162264221159727
976 -0.4499417709200626 0.21627258148924822 0.6552379663310327
1213 -1.1306116243637918 -2.2064227704032966 -0.015593667174841277
2213 0.013452166509530494 -1.7109974941397899 1.7683670273412755
1096 0.8521765515546739 0.5624095196499668 1.1761179846190981
974 -0.1449067793789029 -1.4044808323181133 0.4132266599300409
1009 -2.0765346316703366 -0.43412093954968806 -0.9671138314249446
1010 1.1732877201814902 1.2351145836594295 -2.394099199338741
1316 -0.443759071248306 0.328267544680144 0.6091610686315216
1008 -0.12266019558751434 0.28172229802012067 1.2899889544291439
1097 0.7453454981302547 0.8871681152345129 0.20798567361459455
1098 -1.0188822624629954 0.7430326803201951 -1.266563062681421
257 -0.03955668535513858 0.04601335746646807 -0.4572120986324077
259 -0.48573341780134655 1.934508426650577 -0.96878596295263
5367 0.11603181053278334 -0.9762554981287331 0.5015870468434563
1001 0.6339344487635478 -1.1470290968635848 -2.3292386328500005
1002 -1.2796826672515216 1.887573215130714 -1.6055436239081287
1003 0.2508048404684068 -0.8990543102164856 0.13615344829865653
1101 -0.48592213762296677 2.247412586170626 1.456179714312492
5366 1.4087551735314416 -2.903458590105262 -0.895959486092832
5365 -0.8225186165900725 -0.12568412818920557 -0.9636262985173657
1100 0.12209367784527701 -1.5028057726400248 -1.5994535185600907
5364 -0.8540662967916636 -0.579278712019354 -1.2339999326605942
989 1.3522563337112739 -0.16893034551863528 -0.38244586761822796
1099 0.611991161345985 -0.8755080903846567 -0.16945811546193856
5382 0.5126355976086616 -0.08719218961238688 0.5683737599369342
1332 0.5375120180517151 -0.5768065018536849 -0.68177571271945
5380 0.3159612093566732 0.3529392633895275 0.6244605006544586
320 0.6093004655950873 -0.04123307886819087 -1.6913549226242857
1102 0.4997338376892339 0.8876803342040699 -0.7805570328531293
990 0.5352678296972296 -0.1776488816015875 0.6107913794470873
5383 1.0643143495461578 0.6623292082253471 -1.3707369879749836
1103 0.0014345796983292855 1.158579329002925 0.6910349633023901
1331 0.9479262527290345 -0.04427769770914054 -0.7525700698369091
5381 1.6105741808263407 0.6611019727651413 -2.539484697104087
4971 -1.5085313806220644 -0.7866378413960899 0.31949085705166347
5394 1.1847220401144591 2.51096347401169 -0.3710946182659422
5393 -1.8938396116077567 1.3520205474485345 -1.3860205634797826
5396 -0.03685859291347775 0.19627606029749792 -0.5811495382156435
4811 0.7390056919388737 0.4435928727914934 0.11752702401684162
118 -0.6776312611799107 1.0268350741228796 -0.22556959064087057
5397 -0.18714709693134646 -1.3720642850700835 -0.8129188167161668
1081 0.4743906027302462 0.47427927963054606 2.7965972653006244
5315 1.2992928156225105 0.9585346348663543 2.3554441643804136
3545 -1.2564493013841338 1.4432642618394238 0.2509579738846834
5395 -1.0100116438530546 -0.2700844952879031 0.6246772678051076
5316 -0.28065635353509655 0.44320533828153685 -1.590488762724376
3546 -0.5535327725332357 -0.1756109694987753 -0.10555723948469732
1339 -1.030662181920501 -0.2848196670690882 0.5567078267149546
4678 -1.7620460454299538 -0.12589124089245363 1.5355727561776944
1115 -0.25221793630558503 -0.32493394310972046 0.9954727291217643
1116 0.48904721954382757 -0.7694454406676676 -1.7802275465306994
4676 -0.42759079317057547 -0.4508962715700322 1.5279188742649203
4677 -0.4251288567920247 -1.1202126823557645 -1.9490259926795612
1357 1.7691262928478615 -0.5416587311770708 -0.8814309581437754
1350 -0.29712762158042355 0.6094609114990069 -0.020479916704113102
3544 -0.08274367903747282 -2.129889175098869 -0.14928899506732995
3543 -0.11719018207344657 0.032032715769548824 0.29827116736468906
1358 0.5006824855474827 0.607414290620895 0.12980827079319882
1349 -0.8611200884649344 -0.17235298896937823 -1.1428525958261258
1351 -0.5348218448524603 -0.27575598455438394 -0.08773523760653112
5411 3.166993446214656 0.5471269820776271 -0.7841481604300008
5420 -0.020397137985293752 0.9169838072129338 0.16854415620738158
1261 1.2252392983158316 0.46329940496036826 -1.710643415018927
1248 0.3758384241927935 0.8231906884024359 -0.8423299590733089
3542 -0.3228178231793955 -0.034469808010645385 1.1608998725853885
1247 0.06978958577747914 -0.4202834400440642 1.1245497353635265
5419 -0.5567036477598366 -0.5234525994076488 0.0913875990959578
5320 -0.9389345992498349 -0.2153144862903438 1.426650580070685
1245 -0.5068749250496514 -0.23356865807644864 -1.4727423660196939
1246 0.4767058397725221 -1.2528608364807363 -0.6411839188706241
1243 0.42335555143872566 -0.47236856931250776 -2.6846818542745625
4660 1.0515163924033115 -0.458975795285 -0.4264525411477836
4661 0.22229530716466459 -0.11454938171395815 -0.9534160690927632
5417 0.5362201622011413 -0.6634928817363612 -0.36130481701408595
4686 0.916074807403057 -1.2302490390019267 0.20338829399290945
5418 0.5410932910388566 0.5941878890815213 0.4134407899305803
424 0.6864089896641768 0.24052317561545206 -0.4804535474466574
1297 -0.15612978707081437 -1.3388776249355803 -1.0440786268871836
4659 0.6859361783423396 0.2772448135481456 -0.30393116379838697
1299 -0.8678072448024852 1.4086681369894498 -0.7154702367551383
1212 1.4578365609741255 -2.132238173141219 -1.3438251857520591
1298 0.41635829054761614 -0.17874447443141436 -2.4201030552664213
1032 -0.1494588792589485 0.3314340933329206 -0.9444623714131901
1720 0.6432610579434228 0.4355551296379606 -0.09973460589357172
1300 -0.16426998400827592 -0.9434995084209316 0.5301329311172359
1211 -1.381642591091999 -0.6059396280335261 -1.1578955720660402
1273 0.7563406090399757 -0.05202888018169151 0.9860260418410562
1719 1.2229760330824655 2.3695112778917946 0.7506323075337418
1016 -0.041457882513419454 1.2046394538640788 1.429897000883348
1303 1.6086405688728476 -1.4824497623486053 -0.05040611750513025
1222 0.707437213479065 0.7189584220378743 0.04391498985929874
1225 -0.9247271983019325 0.7605503030201218 -0.5557210955557066
1224 1.540879684920361 -0.7054005322585621 -0.14556294109024814
1301 -0.42693656970123994 0.47564163766606327 -0.6362511355802734
1210 -0.053278498314537556 1.1556113625918354 0.028380261505222475
1223 -0.08307637957913822 -1.6631092832093677 0.11409318199036188
1302 -1.7003309632293526 -0.22802621213918348 -1.2586050658096617
1070 -1.3739388486022672 -1.459258448932819 -1.0496777908727806
260 -0.49751641506520916 -1.7296981575454167 0.45650820150381144
183 0.08795134708573638 -0.2308464851692722 0.0982545233139151
1005 -1.1115224983564214 0.15095659911580733 0.5177579454537481
1004 -0.8568843132697512 0.9637673895485698 0.6910322991870984
4796 1.653405041025214 -1.0121360766566345 -1.1140271189128306
1071 -0.4499771926768077 0.5564613394618163 -0.6945649789209385
1006 -1.1431499729936843 1.226022666338686 1.3091251111424598
1072 -1.0584170686423398 0.3437176380399357 -0.3940122088857005
1073 -1.2972734842471687 -1.1171866074206354 0.5349021164476513
180 0.8509787584361329 -1.1167098912513047 -0.023224248707965342
5385 0.6799779679222926 -0.3351032212188727 0.676385198581696
5386 0.05822555312817228 0.22722975143921767 0.22726216131304242
316 0.31477936395056993 0.27996938635291513 -1.0663884593128503
4795 0.08154437209231025 0.7453361995389054 1.1831130516714288
261 -1.308029451958318 -0.1228601805028744 -1.2479359772200656
317 0.11028743045364052 1.9790201368274332 -1.5677010519120196
4793 -0.19772827271924304 1.8962705763328096 0.9495542348496397
4794 -2.2391286084408946 0.736163657751431 -0.36402802890292396
319 -1.1030238134222692 1.1608899642724628 -1.990087335949879
318 -1.784269335666538 0.1692957651986408 -0.08842598418920261
1281 1.3597054445240426 -0.8243423101406561 -0.28617140814324615
21 -1.6562397113533271 -0.2636344846533903 -0.9964179082438763
1086 -1.066182113489851 -0.3532167938164163 -0.14235950170641654
5398 0.26310463676860857 0.5745993869782052 1.7218040950376352
314 2.1334564864216694 -0.44216538285617457 0.8580744574244118
313 -0.6725064794862367 1.2999286156161745 0.03244990208370535
5399 0.12238620524034484 -0.8058810823859712 0.022856811484135344
1085 0.40660015093727814 0.5984123270188023 -0.2601799501762885
5400 0.3363473320702517 -0.13935672161087534 -1.3608283702045323
4792 -0.3309235019367688 0.663875259068863 -1.2963856799085465
1082 -0.8386471022271909 -0.00593784069520433 0.8715993259694215
4762 -0.4139164522118422 0.7797766182800114 0.04934515202015849
98 0.17635658329892945 -0.6857447074902103 -0.8438034757176116
1083 -0.5869562514515574 0.7489298540074678 0.5989120755481792
1084 0.8104759685208706 -0.74147106905002 -0.060962509591418135
4763 0.8659297932239366 -0.7118617732466834 1.2985034556190824
4846 0.33212240340089266 0.2990301746653574 -0.8339739078534004
4845 -0.325515849005419 0.4391224072364886 -0.8146689925202352
4847 0.5304186485412645 1.9693526626566982 0.39864316978178316
1352 -1.083397426185272 0.21386744987955084 -1.7923471396847366
1135 0.5962428612244016 -1.040342827203446 0.5653037903875863
311 0.16902971214493467 0.0883703595974971 1.695933652227766
1133 1.680557040715365 -1.3420307026836826 0.6790355790656611
1360 -0.9784745548085918 -0.7652837076302997 -1.0029443375073075
1359 -0.49082351496494503 -0.07089832425042127 -0.7866759325705946
1136 0.4567903893725977 0.14037868036620338 -1.0247580025125005
5407 0.8890869528942327 0.7970040383991849 -1.4677833295999285
4783 -0.3524400685813432 -0.023710454187133898 -0.93858865458384
4782 -0.12239873547880124 -0.0681509728062659 2.4439748773005037
1151 0.2842025130859339 0.6287394701418304 0.3020385030000863
4654 -0.6027064902531314 0.8609570210471771 -0.32178474222071857
4657 -0.36605180630603235 0.6730282640075618 1.7009835917589704
5409 0.18911936258169604 -0.13267484198113005 0.25982204578171886
5410 1.0879129266197138 -0.7127173751688355 -0.3934091556070408
4895 -1.090762589216939 0.5353122991583529 0.41473201935467646
1443 -0.5958969845684182 0.4007048399287496 0.8769008679728295
4653 -0.05506451283552722 -1.4041664892190695 0.41183721193222295
4652 0.3644186148586977 0.22563807241891726 -0.44669257191577905
4894 -0.3716966065047837 -0.47084710799428536 -0.8464327390059985
5408 0.41944558443877444 -0.8260783504681817 0.15109377431596543
4896 -1.0806834833194285 -0.0867849141297891 -0.266754233759654
1408 -0.8792782264201594 0.06547148998027504 1.1422947668946706
4658 0.10117629853165984 -0.3787084009362737 -0.7664190783511214
1152 -1.0855674226774752 -0.8996696646033274 0.6833366418380893
1407 -0.8674405337339788 0.4015142071545281 -0.4898814218667071
1440 -0.3120234853604946 0.1612747793083645 -0.8623831388359414
423 0.4621351435449124 -0.5385178997444133 -2.5702759870601315
1442 1.0017385761622095 -1.3862501328802643 2.5572104637319524
422 -1.0970271457475405 -2.0543586681334953 0.11328997042985957
1441 -0.9174517716867923 -0.031061615788865737 0.46319227117945255
1153 -0.2075845105265585 0.24965739614517163 -0.12055252703590444
1154 1.3352300415133849 0.9860654392237447 -1.2693461331927611
1717 0.11806836755778786 0.4278902318946571 1.0115202235021752
29 -0.995454656580714 -0.22500385309254542 0.10515544635886959
1034 -1.0133817195015482 0.28446118216001837 -0.2575805201323667
4891 -1.1208702441591547 -0.20315305437423886 -1.0813918075026745
5349 -0.14372515042305048 0.8323681043420054 0.29506368476193057
4928 1.2643787100536719 0.14923902832703734 -0.1260956354457567
1272 1.4300920863121949 0.16065372702051453 0.48958979965284455
5350 -0.2820098635321435 1.10052644051025 -0.29464277300513914
1718 -2.4352398422040205 0.6177989305547319 -1.2169582162211863
5351 -0.5349382477480782 -0.05001961273224341 0.8275648994460686
1271 0.8684687715791486 -1.3309597142879874 0.11578383741870629
5352 -0.5963772681086696 0.6129465188250843 -0.9283823910506751
1290 -1.5596383176397368 1.0868882993563003 2.3533435932031983
1035 0.21988257272304945 -2.076172288815597 -1.1990111356523638
2430 1.67762213055795 0.2612670564854624 0.49378832745763646
191 0.7227578858006148 0.8065150051040126 -0.6959850974962688
1455 0.5996151274771216 1.9652793716499009 -0.14144202910548206
195 0.5723643557939857 0.4354986642435309 -0.5308130724453947
194 -0.8603261602013241 -1.0702018177452046 0.7556797882624716
1289 -0.08380961395270516 -0.2344369112458655 0.44431344168750375
5363 -1.2094984193232783 1.3249288934792844 0.15688301447581676
192 0.2523846081522696 0.8626374061809525 -1.1016325290256137
5362 -0.18895829692462798 0.8945288843393543 -0.8406074870460687
1454 -0.8220815690082658 -1.9051829934898965 0.6830958138259042
193 0.47909119244996573 -1.226515302124939 -0.9314743386938487
2428 -0.22940281225396092 1.7042685313731893 0.35193416651154896
2429 1.1359039096966532 1.6949343126550136 -1.4449245442350822
1284 1.1745248500878012 0.34679579482643813 -0.02110653496498614
182 1.4380248097085302 0.9626090518220586 0.5119236823554442
515 -0.09805626649857695 0.11358901892860655 0.7701784254223039
137 -0.8225906017801446 0.36600953832258826 0.14062119532717585
136 2.259877943869713 -0.3023343972082692 -0.008858817142245368
152 -0.5721149432096986 0.38765043236388597 1.33812854968987
1262 -0.013881984536456999 -1.0426491802643305 0.30423442929822825
153 0.3300508248951485 0.9133751094060482 -1.293298082813959
181 0.2503398582699859 -0.45888919574203274 0.9043921565946791
514 -1.3512593710532859 -0.785652452060775 0.10842521930933616
1320 0.8997445666602074 -0.1965082281232467 1.3516061845640472
4825 0.4142293506797367 -1.7120453315917483 0.2993558362552059
134 1.198487755499389 -0.5703526898890076 0.9299097850462507
132 -2.446504756554728 0.1696421568634811 0.7793840921985127
212 0.627230393595417 1.422300706523394 2.295267723170012
1319 -0.8440725685478007 0.09607537272706418 -1.1923227483391423
133 -0.6074703788897277 1.3260377994405066 -0.04048136235033507
1318 -0.8445369800884863 0.6396057622529245 -0.6574659444437075
1317 1.0542795042685682 0.6782555488517256 -1.5141210207941596
213 0.9052114367860224 -1.0511375744172602 -0.5550971821147663
131 -0.49405898105654633 0.0007034672011457656 0.02865022975926172
4849 -1.5468920467996854 -1.9800420915372798 0.4121401200301006
217 -0.23187072404372927 1.365985871264161 -1.6299675547952226
130 -0.21696789463899355 -1.4874848578429147 -1.0750868046391098
214 0.25067375889535304 -0.5124748575786107 -1.294868790596192
4848 1.6405663991147108 0.2641240860849881 -3.7702528157143376
219 0.36266445158046623 0.7316023730418494 -0.1074413741321813
215 -0.28531981065921 -1.4560064403044946 1.0777013696369475
218 0.2439588377183005 -0.12291558592796782 0.09694590032742222
310 0.6732303864694382 -1.0895761335914356 -0.8421551808597636
4785 0.2855200214324422 0.25276072665321125 -1.1863511991192988
4784 0.47040151583800216 1.3360733270900005 1.1210439904636085
309 0.07911860517230336 0.7443191029297982 0.5948175735893353
4870 -0.4332822906052036 1.151262758881303 -0.7454089380495996
287 -0.8583314534399434 0.4155394055296984 1.4847450300557536
5404 0.061433638393710334 0.31871938015040624 0.07411847215339627
5405 -0.2714355309509593 -2.4687898745476886 0.5442024847493467
308 1.070201630511099 -0.8242310136607771 0.8406552549156493
5406 -0.807405526021152 -0.33981393768438906 0.15344600064394795
344 -0.9532019465673632 0.48746933136010284 -0.10860736793487995
1417 0.7407578788910723 -0.5949402831240448 -0.616099394780688
4841 -0.9534420683000243 -0.8802037555457538 0.7465735200111352
1354 0.6593183827476969 -0.23401460864488388 -0.8396099164233097
4872 0.37562876330364514 0.14915956184981322 -2.4412774012648804
1356 1.426623191720523 -0.16468428128407914 0.46107512264166534
4873 -0.2648852191760715 -1.3328015419434212 -0.5418339189003546
3710 0.21601332405704862 1.5483014120326188 0.4453206022200925
3711 0.4484055159466199 -0.6187151621416067 -0.29739596413311015
1355 -0.32322582701584296 0.22060497715553018 -1.6091452383543328
100 -0.2631313278349294 0.7849700681711769 0.6572325573400286
343 1.4045746894181765 -1.5604584783671822 0.7579517794879208
616 -1.3183213336727195 1.1912342069880495 -0.879523390425546
1409 -0.010533548251756534 0.147142008968433 1.6121028178255452
1669 -0.10013796509468396 0.8387487318342375 0.7910739007888565
346 -1.2870653769500415 0.9633830565392693 0.45823992429567345
1696 0.041242886405041944 -1.4740936260152802 0.5474626662110716
1499 0.20180384472287413 -0.16334477576874007 -1.1073810417446253
1157 2.0685168900247155 -0.47120703529897495 -1.5184499971303032
1671 -1.3043719646968956 -0.5786315361519192 0.8186643957516905
393 1.3979943817837317 0.6283839170121641 -0.6567287081096133
1670 1.3975695747348582 2.350682577178316 0.16429457898298802
4907 -1.6648978574438213 1.079746595685595 2.1655814642380204
4908 0.1326605701678586 0.26667604315004517 0.015563271427038611
1500 -0.3547878983600949 -0.4343467603794752 0.3503725450102572
1501 0.9286473851245327 -0.27241781438486273 2.101106723316201
2409 0.1550131757272654 0.19711626856189196 1.6958244722630111
2407 0.6440748917759113 -0.3335672718374055 0.6050769974647009
2422 0.4080911154535368 0.7399998165549301 0.9732700766119462
1155 1.2258744780080735 -0.09527141433464302 1.309415552510294
4731 0.05558651223544531 0.3336219741264813 1.125748173025122
2408 0.559675087504531 -0.60554951984964 -0.30105242265591803
1156 0.8933748958384323 -0.2893990356521263 -0.25460976689421433
394 0.18596325895319768 -0.38469138219365284 -2.0532542205931463
395 -1.5027281995905601 -0.8997267273121388 -0.5613392825126042
4730 -2.5973447709017288 1.1485144148774487 -0.6674778720252965
4729 -0.7534751847429526 -0.6670690094964048 -0.7243715303353945
1451 0.503420435334793 -1.6483453508976567 -0.8654373843163621
415 0.6268751771158696 0.6222030084482688 -0.742261979528438
512 -1.3209757873837125 1.0377826225014932 -0.5106866316887719
1288 -0.7199497299223993 2.057068382702461 -0.2729037757824062
196 0.658560736636673 0.44748496139488314 1.1192263248254057
20 1.6570833759150956 -0.17309186697204873 1.496746971207946
1453 -0.6159736818006057 -1.5136983794832777 0.1286508453949677
165 -0.2684377972264768 -0.3453200957494261 0.8701102995491523
1287 0.492978289553266 0.44592286426959826 -0.9304961895409855
513 -1.9774403991294844 -0.8572336759332754 1.2854575249766862
1452 -1.3758627641971037 0.9606391157037559 -0.6823437144984842
164 -0.27155279251140435 0.5874547121564536 0.6841638566588137
163 -0.21062969135817813 -0.9088004671339124 0.8624738322584563

Bonds

1 1 1458 1459
2 1 1751 1752
3 1 1459 1460
4 1 1460 1461
5 1 1750 1751
6 1 462 463
7 1 4687 4688
8 1 1753 1754
9 1 4688 4689
10 1 840 841
11 1 1579 1580
12 1 1457 1458
13 1 1754 1755
14 1 1778 1779
15 1 1755 1756
16 1 1756 31
17 1 4852 4853
18 1 1577 1578
19 1 4999 5000
20 1 1777 1778
21 1 1777 1797
22 1 1797 1798
23 1 1543 1544
24 1 1544 1545
25 1 1542 1543
26 1 227 228
27 1 290 291
28 1 229 230
29 1 228 229
30 1 289 290
31 1 201 202
32 1 1545 1546
33 1 204 205
34 1 1607 1608
35 1 203 204
36 1 1608 1609
37 1 202 203
38 1 1885 1886
39 1 381 382
40 1 271 272
41 1 382 383
42 1 1421 1422
43 1 1886 1887
44 1 1887 1888
45 1 367 368
46 1 277 278
47 1 276 277
48 1 368 369
49 1 614 615
50 1 615 616
51 1 384 385
52 1 278 279
53 1 1888 1889
54 1 385 386
55 1 386 387
56 1 1692 1693
57 1 1498 1499
58 1 1693 1694
59 1 2404 2405
60 1 1694 1695
61 1 1497 1498
62 1 1496 1497
63 1 387 388
64 1 1495 1496
65 1 2405 2406
66 1 599 600
67 1 357 358
68 1 358 359
69 1 398 399
70 1 2066 2067
71 1 2065 2066
72 1 437 438
73 1 1661 1662
74 1 1662 1663
75 1 694 695
76 1 413 414
77 1 684 685
78 1 420 421
79 1 418 419
80 1 682 683
81 1 681 682
82 1 683 684
83 1 417 418
84 1 1265 1266
85 1 461 462
86 1 1784 1785
87 1 460 461
88 1 1461 1462
89 1 1785 1786
90 1 1783 1784
91 1 1782 1783
92 1 459 460
93 1 506 507
94 1 507 508
95 1 1580 1581
96 1 2805 2806
97 1 795 796
98 1 2804 2805
99 1 1623 1624
100 1 1624 1625
101 1 824 825
102 1 1779 1780
103 1 1541 1542
104 1 895 896
105 1 894 895
106 1 1798 1799
107 1 893 894
108 1 1540 1541
109 1 267 268
110 1 268 269
111 1 1996 1997
112 1 269 270
113 1 1625 1626
114 1 825 826
115 1 1997 1998
116 1 270 271
117 1 570 571
118 1 571 572
119 1 572 573
120 1 8 607
121 1 8 632
122 1 383 384
123 1 2021 2022
124 1 1883 1884
125 1 1884 1885
126 1 371 8
127 1 369 370
128 1 370 371
129 1 1686 1687
130 1 602 603
131 1 950 951
132 1 603 604
133 1 601 602
134 1 949 950
135 1 1685 1686
136 1 531 532
137 1 1684 1685
138 1 399 400
139 1 532 533
140 1 600 601
141 1 2112 2113
142 1 2113 2114
143 1 2088 2089
144 1 2087 2088
145 1 38 2062
146 1 38 2087
147 1 38 2112
148 1 533 534
149 1 400 401
150 1 2064 2065
151 1 1938 1939
152 1 769 770
153 1 768 769
154 1 692 693
155 1 693 694
156 1 1939 1940
157 1 678 679
158 1 770 771
159 1 767 768
160 1 680 681
161 1 677 678
162 1 677 692
163 1 4712 4713
164 1 4713 4714
165 1 406 407
166 1 406 417
167 1 1954 1955
168 1 405 406
169 1 679 680
170 1 4714 4715
171 1 739 740
172 1 1953 1954
173 1 1952 1953
174 1 740 741
175 1 747 748
176 1 1786 1787
177 1 1787 1788
178 1 737 738
179 1 738 739
180 1 738 747
181 1 712 713
182 1 5118 5119
183 1 713 714
184 1 2234 2235
185 1 5119 5120
186 1 5117 5118
187 1 736 737
188 1 2235 2236
189 1 794 795
190 1 5281 5282
191 1 5282 5283
192 1 2802 2803
193 1 869 870
194 1 870 871
195 1 5284 5285
196 1 793 794
197 1 892 893
198 1 826 827
199 1 877 878
200 1 877 892
201 1 876 877
202 1 1995 1996
203 1 827 828
204 1 828 829
205 1 828 842
206 1 1993 1994
207 1 1994 1995
208 1 875 876
209 1 1992 1993
210 1 842 843
211 1 562 563
212 1 561 562
213 1 652 653
214 1 653 654
215 1 560 561
216 1 5029 5030
217 1 632 633
218 1 632 652
219 1 874 875
220 1 5030 5031
221 1 655 656
222 1 1687 1688
223 1 633 634
224 1 951 952
225 1 5028 5029
226 1 1689 1690
227 1 5027 5028
228 1 1688 1689
229 1 5026 5027
230 1 607 608
231 1 2089 2090
232 1 2089 2107
233 1 1937 1938
234 1 2108 2109
235 1 2060 2061
236 1 901 902
237 1 2107 2108
238 1 902 903
239 1 902 917
240 1 903 904
241 1 2109 2110
242 1 2059 2060
243 1 900 901
244 1 2137 2138
245 1 917 918
246 1 2136 2137
247 1 676 677
248 1 2135 2136
249 1 1943 1944
250 1 1943 1952
251 1 1942 1943
252 1 675 676
253 1 2134 2135
254 1 918 919
255 1 1944 1945
256 1 765 766
257 1 711 712
258 1 764 765
259 1 1064 1065
260 1 763 764
261 1 710 711
262 1 709 710
263 1 1063 1064
264 1 1065 1066
265 1 5120 5121
266 1 2233 2234
267 1 714 715
268 1 715 716
269 1 1975 1976
270 1 4145 4146
271 1 716 15
272 1 716 722
273 1 2232 2233
274 1 4146 108
275 1 1018 1019
276 1 858 859
277 1 858 867
278 1 868 869
279 1 867 868
280 1 857 858
281 1 811 812
282 1 554 555
283 1 555 556
284 1 5283 5284
285 1 829 830
286 1 5285 5286
287 1 1991 1992
288 1 810 811
289 1 1990 1991
290 1 5286 5287
291 1 5287 5288
292 1 2014 2015
293 1 2013 2014
294 1 2015 2016
295 1 809 810
296 1 553 554
297 1 1369 1370
298 1 873 874
299 1 1175 1176
300 1 872 873
301 1 1370 1371
302 1 3085 3086
303 1 12 847
304 1 12 872
305 1 1371 1372
306 1 5288 5289
307 1 791 12
308 1 2012 2013
309 1 654 655
310 1 1176 1177
311 1 1177 1178
312 1 1691 33
313 1 1178 1179
314 1 1877 1878
315 1 1878 1879
316 1 3084 3085
317 1 847 848
318 1 33 1877
319 1 33 1897
320 1 848 849
321 1 1879 1880
322 1 5440 5441
323 1 1179 1180
324 1 1179 1197
325 1 935 936
326 1 934 935
327 1 936 937
328 1 1234 1235
329 1 1897 1898
330 1 3291 3292
331 1 3162 3163
332 1 1180 1181
333 1 5262 5263
334 1 1066 19
335 1 1233 1234
336 1 2133 2134
337 1 1232 1233
338 1 2240 2241
339 1 2239 2240
340 1 19 1202
341 1 19 1232
342 1 1202 1203
343 1 2081 39
344 1 1053 1054
345 1 2132 2133
346 1 761 762
347 1 2209 2210
348 1 2209 2237
349 1 2238 2239
350 1 762 763
351 1 2237 2238
352 1 760 761
353 1 5261 5262
354 1 1946 39
355 1 1946 1957
356 1 39 2132
357 1 39 2152
358 1 2152 2153
359 1 2155 2156
360 1 2155 2172
361 1 1976 1977
362 1 1978 1979
363 1 1047 1048
364 1 15 987
365 1 15 1017
366 1 15 1047
367 1 1048 1049
368 1 1977 1978
369 1 2939 2940
370 1 2154 2155
371 1 2172 2173
372 1 987 988
373 1 722 723
374 1 2173 2174
375 1 1017 1018
376 1 1017 1037
377 1 1037 1038
378 1 1038 1039
379 1 2292 2293
380 1 2276 2277
381 1 2276 2292
382 1 856 857
383 1 2174 2175
384 1 1039 1040
385 1 1124 1125
386 1 5330 5331
387 1 2275 2276
388 1 1121 1122
389 1 1122 1123
390 1 855 856
391 1 854 855
392 1 1123 1124
393 1 1120 1121
394 1 853 854
395 1 2253 2254
396 1 3054 3055
397 1 788 789
398 1 850 851
399 1 790 791
400 1 789 790
401 1 1169 1170
402 1 851 852
403 1 852 853
404 1 2032 2033
405 1 927 928
406 1 928 929
407 1 3053 3054
408 1 3052 3053
409 1 849 850
410 1 929 930
411 1 1168 1169
412 1 1168 1187
413 1 939 940
414 1 930 931
415 1 1230 1231
416 1 1229 1230
417 1 1228 1229
418 1 931 932
419 1 3292 3293
420 1 3293 3294
421 1 1052 1053
422 1 1216 1217
423 1 1205 1206
424 1 1204 1205
425 1 1217 1218
426 1 977 978
427 1 1215 1216
428 1 978 979
429 1 1051 1052
430 1 3294 3295
431 1 1031 1032
432 1 1028 1029
433 1 2210 2211
434 1 1095 1096
435 1 1094 1095
436 1 2211 2212
437 1 1050 1051
438 1 1042 1043
439 1 1043 1044
440 1 1049 1050
441 1 2212 2213
442 1 1093 1094
443 1 1067 1068
444 1 1069 1070
445 1 1068 1069
446 1 1335 1336
447 1 258 259
448 1 1979 1980
449 1 1526 44
450 1 1980 1981
451 1 2175 2176
452 1 2653 2654
453 1 1334 1335
454 1 1104 1105
455 1 1333 1334
456 1 5331 5332
457 1 239 240
458 1 5332 5333
459 1 238 239
460 1 5333 5334
461 1 1126 1127
462 1 1125 1126
463 1 2277 2278
464 1 2376 2377
465 1 2252 2253
466 1 2375 2376
467 1 2251 2252
468 1 5334 5335
469 1 2374 2375
470 1 5335 5336
471 1 2250 2251
472 1 2278 2279
473 1 5392 5393
474 1 119 5392
475 1 4656 119
476 1 5336 119
477 1 2034 2035
478 1 4679 4680
479 1 2035 2036
480 1 1702 1703
481 1 1188 1189
482 1 1187 1188
483 1 4680 4681
484 1 1167 1168
485 1 4682 4683
486 1 4655 4656
487 1 1703 1704
488 1 18 1142
489 1 18 1167
490 1 4683 4684
491 1 2307 2308
492 1 2308 2309
493 1 4681 120
494 1 4681 4682
495 1 120 5417
496 1 1189 1190
497 1 2327 2328
498 1 43 2327
499 1 4684 4685
500 1 2151 43
501 1 4685 4686
502 1 1295 1296
503 1 1308 1309
504 1 1190 1191
505 1 1296 1297
506 1 979 980
507 1 1206 1207
508 1 2215 2216
509 1 2216 43
510 1 426 427
511 1 1207 1208
512 1 1208 1209
513 1 1033 1034
514 1 427 428
515 1 2345 2346
516 1 1437 1438
517 1 425 426
518 1 1721 1722
519 1 2214 2215
520 1 1045 1046
521 1 2196 44
522 1 1981 40
523 1 1044 1045
524 1 1209 1210
525 1 2346 48
526 1 1722 1723
527 1 1723 1724
528 1 1304 1305
529 1 2344 2345
530 1 2195 2196
531 1 44 2347
532 1 2177 2178
533 1 2178 2179
534 1 1525 1526
535 1 1524 1525
536 1 2382 2383
537 1 2179 2180
538 1 178 179
539 1 1336 45
540 1 5384 5385
541 1 2180 2181
542 1 2181 2182
543 1 2380 2381
544 1 2379 2380
545 1 2381 2382
546 1 240 241
547 1 2378 2379
548 1 315 316
549 1 2182 2183
550 1 237 238
551 1 2377 2378
552 1 236 237
553 1 235 236
554 1 234 235
555 1 2249 2250
556 1 2249 2262
557 1 1591 1592
558 1 1590 1591
559 1 2248 2249
560 1 2313 2314
561 1 1425 1426
562 1 1605 1606
563 1 2262 2263
564 1 2263 2264
565 1 2312 2313
566 1 1353 1354
567 1 2264 2265
568 1 312 313
569 1 2311 2312
570 1 1705 1706
571 1 1704 1705
572 1 2310 2311
573 1 303 304
574 1 304 305
575 1 1426 1427
576 1 1427 1428
577 1 2309 2310
578 1 302 303
579 1 1147 1148
580 1 1294 1295
581 1 1294 1307
582 1 1307 1308
583 1 2425 2426
584 1 5354 5355
585 1 1310 1311
586 1 5353 5354
587 1 1150 1151
588 1 1708 1709
589 1 5356 120
590 1 5355 5356
591 1 1438 1439
592 1 1439 1440
593 1 1293 1294
594 1 2432 2433
595 1 1269 1270
596 1 1292 1293
597 1 1270 1271
598 1 2433 2434
599 1 48 2432
600 1 1415 1416
601 1 1291 1292
602 1 1489 1490
603 1 1305 1306
604 1 2197 2198
605 1 2411 48
606 1 40 2177
607 1 40 2197
608 1 1036 40
609 1 2410 2411
610 1 2410 2427
611 1 445 446
612 1 2427 2428
613 1 1486 1487
614 1 1488 1489
615 1 444 445
616 1 1752 1753
617 1 179 180
618 1 177 178
619 1 1522 1523
620 1 1483 1484
621 1 1484 1485
622 1 155 156
623 1 1521 1522
624 1 1283 1284
625 1 154 155
626 1 1263 1264
627 1 1263 1282
628 1 25 1457
629 1 25 1482
630 1 25 1507
631 1 4851 4852
632 1 1482 1483
633 1 1595 1596
634 1 211 212
635 1 1507 1508
636 1 4850 4851
637 1 210 211
638 1 209 210
639 1 1594 1595
640 1 1558 1559
641 1 1557 1558
642 1 230 231
643 1 1592 1593
644 1 233 234
645 1 1593 1594
646 1 1593 1602
647 1 129 130
648 1 1602 1603
649 1 128 129
650 1 127 128
651 1 1603 1604
652 1 288 289
653 1 208 209
654 1 207 208
655 1 1424 1425
656 1 1604 1605
657 1 231 232
658 1 1546 27
659 1 232 233
660 1 27 1607
661 1 27 1627
662 1 1423 1424
663 1 1422 1423
664 1 285 286
665 1 306 27
666 1 366 367
667 1 4892 4893
668 1 305 306
669 1 1149 1150
670 1 1148 1149
671 1 365 366
672 1 4893 4894
673 1 364 365
674 1 388 389
675 1 2424 2425
676 1 441 29
677 1 363 364
678 1 1411 1412
679 1 440 441
680 1 439 440
681 1 1410 1411
682 1 438 439
683 1 362 363
684 1 1695 1696
685 1 1414 1415
686 1 2423 2424
687 1 1412 1413
688 1 359 360
689 1 2406 2407
690 1 1413 1414
691 1 360 361
692 1 1268 1269
693 1 453 454
694 1 452 453
695 1 414 415
696 1 1490 1491
697 1 1523 1524
698 1 1485 1486
699 1 685 686
700 1 1660 1661
701 1 1267 1268
702 1 1487 1488
703 1 686 687
704 1 160 161
705 1 1266 1267
706 1 161 162
707 1 162 163
708 1 454 455
709 1 1264 1265
710 1 463 464
711 1 1749 1750
712 1 2668 2669
713 1 2669 2670
714 1 1560 1561
715 1 1561 1562
716 1 1770 1771
717 1 1562 1563
718 1 2670 2671
719 1 1771 1772
720 1 31 1777
721 1 31 1807
722 1 1578 1579
723 1 1622 1623
724 1 1620 1621
725 1 1621 1622
726 1 150 151
727 1 1596 1597
728 1 1807 1808
729 1 2671 2672
730 1 2672 2673
731 1 1576 31
732 1 291 292
733 1 1619 1620
734 1 292 293
735 1 1537 1538
736 1 1536 1537
737 1 1618 1619
738 1 293 294
739 1 1538 1539
740 1 1554 1555
741 1 3519 3520
742 1 1535 1536
743 1 272 273
744 1 1874 1875
745 1 273 274
746 1 1875 1876
747 1 540 541
748 1 1609 1610
749 1 543 544
750 1 542 543
751 1 1873 1874
752 1 613 614
753 1 275 276
754 1 539 540
755 1 538 539
756 1 612 613
757 1 274 275
758 1 274 282
759 1 537 538
760 1 1610 1611
761 1 1611 1612
762 1 1890 1891
763 1 1889 1890
764 1 2609 2610
765 1 1494 1495
766 1 1681 1682
767 1 2568 2569
768 1 2569 2570
769 1 1891 1892
770 1 1682 1683
771 1 1734 1735
772 1 1892 1893
773 1 2570 2571
774 1 1733 1734
775 1 1732 1733
776 1 447 448
777 1 695 696
778 1 435 436
779 1 435 447
780 1 436 437
781 1 436 452
782 1 1731 1732
783 1 2067 2068
784 1 2068 2069
785 1 448 449
786 1 419 420
787 1 464 465
788 1 2667 2668
789 1 1769 1770
790 1 465 466
791 1 466 467
792 1 2723 2724
793 1 2722 2723
794 1 53 2667
795 1 53 2692
796 1 53 2722
797 1 53 2742
798 1 2742 2743
799 1 404 405
800 1 2692 2693
801 1 1927 1928
802 1 2715 2716
803 1 741 742
804 1 2714 2715
805 1 1462 1463
806 1 2713 2714
807 1 1463 1464
808 1 1464 1465
809 1 2712 2713
810 1 1968 1969
811 1 1969 1970
812 1 742 743
813 1 743 744
814 1 1563 1564
815 1 1808 1809
816 1 2798 2799
817 1 2799 2800
818 1 1809 1810
819 1 2800 2801
820 1 1555 1556
821 1 1810 1811
822 1 1539 1540
823 1 1539 1552
824 1 1998 1999
825 1 1553 1554
826 1 1799 1800
827 1 1800 1801
828 1 1552 1553
829 1 1999 2000
830 1 2813 2814
831 1 2048 2049
832 1 546 8
833 1 545 546
834 1 2814 2815
835 1 544 545
836 1 1872 1873
837 1 2047 2048
838 1 3022 3023
839 1 611 612
840 1 536 537
841 1 574 575
842 1 573 574
843 1 3021 3022
844 1 948 949
845 1 575 576
846 1 610 611
847 1 609 610
848 1 1858 1859
849 1 1683 1684
850 1 1683 1692
851 1 2608 2609
852 1 535 536
853 1 534 535
854 1 2114 2115
855 1 2607 2608
856 1 2606 2607
857 1 1905 1906
858 1 2115 2116
859 1 1904 1905
860 1 1678 1679
861 1 1680 1681
862 1 2069 2070
863 1 2070 2071
864 1 1903 1904
865 1 1903 1917
866 1 401 402
867 1 1917 1918
868 1 2605 2606
869 1 402 403
870 1 2604 2605
871 1 403 404
872 1 1931 1932
873 1 1955 1956
874 1 1767 1768
875 1 1768 1769
876 1 2743 2744
877 1 1766 1767
878 1 1765 1766
879 1 1929 1930
880 1 2744 2745
881 1 1928 1929
882 1 1930 1931
883 1 2160 2161
884 1 2159 2160
885 1 2161 2162
886 1 1970 1971
887 1 1971 1972
888 1 1788 1789
889 1 2708 2709
890 1 745 746
891 1 2803 2804
892 1 2792 2793
893 1 2792 2802
894 1 2709 2710
895 1 744 745
896 1 1811 1812
897 1 2797 2798
898 1 2790 2791
899 1 2790 2797
900 1 2791 2792
901 1 1827 1828
902 1 1852 1853
903 1 844 845
904 1 843 844
905 1 2789 2790
906 1 1626 32
907 1 2788 2789
908 1 3034 3035
909 1 32 1832
910 1 32 1852
911 1 586 32
912 1 1832 1833
913 1 558 559
914 1 1833 1834
915 1 557 558
916 1 1853 1854
917 1 559 560
918 1 1854 1855
919 1 585 586
920 1 2045 2046
921 1 2046 2047
922 1 1846 1847
923 1 1855 1856
924 1 1847 1848
925 1 922 923
926 1 2043 2044
927 1 923 924
928 1 1845 1846
929 1 608 609
930 1 947 948
931 1 1856 1857
932 1 2044 2045
933 1 2044 2057
934 1 13 897
935 1 13 922
936 1 13 947
937 1 1857 1858
938 1 897 898
939 1 2057 2058
940 1 898 899
941 1 2058 2059
942 1 899 900
943 1 2092 2093
944 1 2042 2043
945 1 2090 2091
946 1 2091 2092
947 1 1936 1937
948 1 2116 2117
949 1 2138 2139
950 1 2139 2140
951 1 2117 2118
952 1 1935 1936
953 1 2118 2119
954 1 2093 2094
955 1 2140 2141
956 1 3163 3164
957 1 1932 1933
958 1 919 920
959 1 920 921
960 1 1902 1903
961 1 1901 1902
962 1 2076 2077
963 1 2166 2167
964 1 3164 3165
965 1 2165 2166
966 1 766 767
967 1 2162 2163
968 1 2163 2164
969 1 2164 2165
970 1 1764 1765
971 1 1960 1961
972 1 1945 1946
973 1 1958 1959
974 1 1959 1960
975 1 2156 2157
976 1 2157 2158
977 1 1789 1790
978 1 1790 1791
979 1 1974 1975
980 1 1973 1974
981 1 1972 1973
982 1 2711 58
983 1 58 2912
984 1 58 2937
985 1 2206 2207
986 1 2710 2711
987 1 2363 2364
988 1 2362 2363
989 1 859 860
990 1 845 846
991 1 2158 2159
992 1 2793 2794
993 1 2794 2795
994 1 2795 2796
995 1 860 861
996 1 2982 2983
997 1 1988 1989
998 1 2361 2362
999 1 556 557
1000 1 2796 59
1001 1 1834 1835
1002 1 3057 3058
1003 1 1989 1990
1004 1 1848 1849
1005 1 59 2962
1006 1 59 2982
1007 1 1849 1850
1008 1 3056 3057
1009 1 1835 1836
1010 1 830 831
1011 1 2011 2012
1012 1 831 832
1013 1 832 833
1014 1 3072 3073
1015 1 1850 1851
1016 1 3073 3074
1017 1 924 925
1018 1 925 926
1019 1 2855 2856
1020 1 3083 3084
1021 1 1690 1691
1022 1 3082 3083
1023 1 2041 2042
1024 1 2040 2041
1025 1 938 939
1026 1 3071 3072
1027 1 3071 3082
1028 1 2119 2120
1029 1 2039 2040
1030 1 1900 1901
1031 1 3161 3162
1032 1 3160 3161
1033 1 937 938
1034 1 3288 3289
1035 1 3159 3160
1036 1 3287 3288
1037 1 1898 1899
1038 1 1899 1900
1039 1 2084 2085
1040 1 2083 2084
1041 1 3289 3290
1042 1 2082 2083
1043 1 2080 2081
1044 1 986 19
1045 1 3165 3166
1046 1 2077 2078
1047 1 2077 2082
1048 1 2078 2079
1049 1 2079 2080
1050 1 985 986
1051 1 984 985
1052 1 2335 2336
1053 1 2207 2208
1054 1 2207 2227
1055 1 2227 2228
1056 1 2208 2209
1057 1 2208 2232
1058 1 1957 1958
1059 1 3166 66
1060 1 66 3337
1061 1 3337 3338
1062 1 2153 2154
1063 1 3296 66
1064 1 2228 2229
1065 1 2338 2339
1066 1 16 1067
1067 1 16 1092
1068 1 2938 2939
1069 1 2912 2913
1070 1 2937 2938
1071 1 2364 2365
1072 1 2365 2366
1073 1 816 16
1074 1 2203 2204
1075 1 815 816
1076 1 2366 67
1077 1 814 815
1078 1 2202 2203
1079 1 2202 2217
1080 1 2205 2206
1081 1 861 862
1082 1 812 813
1083 1 813 814
1084 1 2273 2274
1085 1 2274 2275
1086 1 2220 2221
1087 1 862 863
1088 1 2219 2220
1089 1 2272 2273
1090 1 2388 2389
1091 1 2962 2963
1092 1 1987 1988
1093 1 863 864
1094 1 1040 1041
1095 1 3055 3056
1096 1 1374 1375
1097 1 1373 1374
1098 1 2963 2964
1099 1 864 865
1100 1 1372 1373
1101 1 1375 1376
1102 1 2254 2255
1103 1 866 37
1104 1 2010 2011
1105 1 1851 37
1106 1 2257 2258
1107 1 2256 2257
1108 1 37 2007
1109 1 37 2037
1110 1 2007 2008
1111 1 2007 2027
1112 1 2255 2256
1113 1 2008 2009
1114 1 2009 2010
1115 1 2009 2032
1116 1 3051 3052
1117 1 3050 3051
1118 1 3111 3112
1119 1 3110 3111
1120 1 3105 3106
1121 1 926 927
1122 1 2258 2259
1123 1 3070 3071
1124 1 940 941
1125 1 941 18
1126 1 2259 2260
1127 1 3106 3107
1128 1 3108 3109
1129 1 2260 2261
1130 1 3069 3070
1131 1 2325 2326
1132 1 2332 2333
1133 1 3112 3113
1134 1 3290 3291
1135 1 2324 2325
1136 1 2331 2332
1137 1 2333 2334
1138 1 2334 2335
1139 1 3114 3115
1140 1 3113 3114
1141 1 2085 2086
1142 1 2150 2151
1143 1 1203 1204
1144 1 1218 1219
1145 1 983 984
1146 1 2149 2150
1147 1 982 983
1148 1 2148 2149
1149 1 2147 2148
1150 1 981 982
1151 1 1219 1220
1152 1 2194 2195
1153 1 1092 1093
1154 1 2339 2340
1155 1 3295 3296
1156 1 2913 2914
1157 1 2193 2194
1158 1 2192 2193
1159 1 2340 2341
1160 1 2341 2342
1161 1 2342 2343
1162 1 2914 2915
1163 1 2940 2941
1164 1 2942 2943
1165 1 2941 2942
1166 1 2348 2349
1167 1 2200 2201
1168 1 2201 2202
1169 1 2652 2653
1170 1 2367 2368
1171 1 2368 2369
1172 1 2654 2655
1173 1 2199 2200
1174 1 2349 2350
1175 1 2218 2219
1176 1 2217 2218
1177 1 2184 2185
1178 1 2183 2184
1179 1 2185 2186
1180 1 1127 1128
1181 1 2369 2370
1182 1 2371 2372
1183 1 2371 2387
1184 1 1385 1386
1185 1 2655 2656
1186 1 2186 2187
1187 1 2370 2371
1188 1 2373 2374
1189 1 2279 2280
1190 1 1394 1395
1191 1 2372 2373
1192 1 2280 2281
1193 1 1393 1394
1194 1 2317 2318
1195 1 2387 2388
1196 1 1376 1377
1197 1 1392 1393
1198 1 1384 1385
1199 1 1384 1392
1200 1 1549 1550
1201 1 1395 1396
1202 1 2033 2034
1203 1 2282 2283
1204 1 2283 2284
1205 1 2281 2282
1206 1 2284 2285
1207 1 1387 1388
1208 1 2329 2330
1209 1 1142 1143
1210 1 1428 1429
1211 1 3107 3108
1212 1 3109 3110
1213 1 1143 1144
1214 1 1431 1432
1215 1 1430 1431
1216 1 3330 3331
1217 1 1429 1430
1218 1 1144 1145
1219 1 3329 3330
1220 1 2328 2329
1221 1 2420 2421
1222 1 2330 2331
1223 1 2323 2324
1224 1 2305 2306
1225 1 2322 2323
1226 1 2304 2305
1227 1 2304 2322
1228 1 2303 2304
1229 1 2419 2420
1230 1 3452 3453
1231 1 980 981
1232 1 3453 3454
1233 1 3454 3455
1234 1 1221 24
1235 1 428 429
1236 1 3455 3456
1237 1 1220 1221
1238 1 2935 2936
1239 1 1724 1725
1240 1 2347 2348
1241 1 2648 2649
1242 1 2651 2652
1243 1 2650 2651
1244 1 2343 2344
1245 1 2649 2650
1246 1 3393 3394
1247 1 2934 2935
1248 1 2383 2384
1249 1 2384 2385
1250 1 1601 45
1251 1 45 2367
1252 1 1600 1601
1253 1 2656 2657
1254 1 2198 2199
1255 1 142 143
1256 1 143 144
1257 1 2385 2386
1258 1 2657 2658
1259 1 1386 46
1260 1 1128 1129
1261 1 1527 1528
1262 1 26 1527
1263 1 26 1557
1264 1 26 1582
1265 1 241 26
1266 1 1582 1583
1267 1 1129 1130
1268 1 1130 1131
1269 1 1130 1137
1270 1 1583 1584
1271 1 1137 1138
1272 1 1587 1588
1273 1 1528 1529
1274 1 1588 1589
1275 1 1529 1530
1276 1 1529 1547
1277 1 1589 1590
1278 1 1547 1548
1279 1 2247 2248
1280 1 2316 2317
1281 1 1548 1549
1282 1 2245 2246
1283 1 2244 2245
1284 1 2314 2315
1285 1 2315 2316
1286 1 1701 1702
1287 1 1700 1701
1288 1 1379 1380
1289 1 1650 1651
1290 1 1390 1391
1291 1 1380 1381
1292 1 1699 1700
1293 1 1706 1707
1294 1 1146 1147
1295 1 2415 2416
1296 1 1145 1146
1297 1 301 302
1298 1 1698 1699
1299 1 300 301
1300 1 2306 2307
1301 1 1309 1310
1302 1 2418 2419
1303 1 1707 1708
1304 1 2575 2576
1305 1 2574 2575
1306 1 2417 2418
1307 1 2399 2400
1308 1 2399 2417
1309 1 2647 2648
1310 1 2435 2436
1311 1 24 1437
1312 1 429 430
1313 1 429 442
1314 1 1416 24
1315 1 2434 2435
1316 1 430 431
1317 1 431 432
1318 1 442 443
1319 1 2646 2647
1320 1 2645 2646
1321 1 3396 3397
1322 1 1502 1503
1323 1 1306 24
1324 1 443 444
1325 1 1725 1726
1326 1 3394 3395
1327 1 1726 1727
1328 1 3395 3396
1329 1 1727 1728
1330 1 145 146
1331 1 144 145
1332 1 1 122
1333 1 1 157
1334 1 1 177
1335 1 158 159
1336 1 1747 1748
1337 1 157 158
1338 1 1520 1521
1339 1 1599 1600
1340 1 1519 1520
1341 1 1748 1749
1342 1 122 123
1343 1 122 142
1344 1 688 689
1345 1 1746 1747
1346 1 1518 1519
1347 1 149 150
1348 1 1559 1560
1349 1 1559 1577
1350 1 1508 1509
1351 1 1598 1599
1352 1 148 149
1353 1 123 124
1354 1 123 147
1355 1 124 125
1356 1 1597 1598
1357 1 1509 1510
1358 1 147 148
1359 1 1138 1139
1360 1 125 126
1361 1 1139 1140
1362 1 1575 1576
1363 1 2246 2247
1364 1 1530 1531
1365 1 1574 1575
1366 1 1533 1534
1367 1 1510 1511
1368 1 206 207
1369 1 126 127
1370 1 1532 1533
1371 1 1531 1532
1372 1 294 295
1373 1 1534 1535
1374 1 1628 1629
1375 1 295 296
1376 1 296 297
1377 1 1627 1628
1378 1 205 206
1379 1 1629 1630
1380 1 2265 2266
1381 1 284 285
1382 1 297 298
1383 1 298 299
1384 1 283 284
1385 1 282 283
1386 1 299 300
1387 1 390 391
1388 1 389 390
1389 1 1709 1710
1390 1 1710 1711
1391 1 1711 1712
1392 1 391 28
1393 1 2517 2518
1394 1 1697 1698
1395 1 2403 2404
1396 1 361 362
1397 1 2573 2574
1398 1 2402 2403
1399 1 2516 2517
1400 1 2572 2573
1401 1 2571 2572
1402 1 2400 2401
1403 1 2401 2402
1404 1 1893 1894
1405 1 2515 2516
1406 1 1493 1494
1407 1 1504 1505
1408 1 1492 1493
1409 1 1491 1492
1410 1 1491 1502
1411 1 1657 1658
1412 1 434 435
1413 1 432 433
1414 1 1658 1659
1415 1 1659 1660
1416 1 433 434
1417 1 1503 1504
1418 1 1656 1657
1419 1 455 456
1420 1 3397 3398
1421 1 159 160
1422 1 1728 1729
1423 1 1730 1731
1424 1 687 688
1425 1 1729 1730
1426 1 689 690
1427 1 467 468
1428 1 1565 1566
1429 1 3515 3516
1430 1 1566 1567
1431 1 1772 1773
1432 1 3514 3515
1433 1 3513 3514
1434 1 1564 1565
1435 1 1740 1741
1436 1 2693 2694
1437 1 2693 2712
1438 1 2729 2730
1439 1 3516 3517
1440 1 2673 2674
1441 1 3517 3518
1442 1 1741 1742
1443 1 3518 3519
1444 1 1773 1774
1445 1 1742 1743
1446 1 1477 1478
1447 1 2674 2675
1448 1 2478 2479
1449 1 1743 1744
1450 1 1567 1568
1451 1 1568 1569
1452 1 2479 2480
1453 1 2481 2482
1454 1 2675 2676
1455 1 1617 1618
1456 1 3520 3521
1457 1 2676 2677
1458 1 2482 2483
1459 1 3521 73
1460 1 541 542
1461 1 1616 1617
1462 1 2483 2484
1463 1 1615 1616
1464 1 1614 1615
1465 1 1632 1633
1466 1 579 580
1467 1 2461 2462
1468 1 581 582
1469 1 580 581
1470 1 1674 1675
1471 1 578 579
1472 1 577 578
1473 1 1613 1614
1474 1 1612 1613
1475 1 1675 1676
1476 1 2584 2585
1477 1 2583 2584
1478 1 2610 2611
1479 1 2611 57
1480 1 1735 1736
1481 1 2567 2568
1482 1 2857 2858
1483 1 2592 2593
1484 1 57 2857
1485 1 57 2892
1486 1 2593 2594
1487 1 2565 2566
1488 1 2566 2567
1489 1 450 451
1490 1 2594 2595
1491 1 2512 2513
1492 1 2512 2532
1493 1 2533 2534
1494 1 2534 2535
1495 1 2756 2757
1496 1 1895 1896
1497 1 2532 2533
1498 1 449 450
1499 1 2755 2756
1500 1 1894 1895
1501 1 2757 2758
1502 1 2535 2536
1503 1 1896 34
1504 1 691 34
1505 1 34 1927
1506 1 469 470
1507 1 2694 2695
1508 1 2696 2697
1509 1 690 691
1510 1 468 469
1511 1 470 471
1512 1 1967 1968
1513 1 1829 1830
1514 1 1830 1831
1515 1 2748 2749
1516 1 2747 2748
1517 1 1965 1966
1518 1 1467 1468
1519 1 1964 1965
1520 1 35 1962
1521 1 2762 2763
1522 1 1465 1466
1523 1 1469 1470
1524 1 1469 1477
1525 1 1828 1829
1526 1 1466 1467
1527 1 1774 1775
1528 1 1775 1776
1529 1 1776 35
1530 1 1468 1469
1531 1 2809 2810
1532 1 2810 2811
1533 1 2763 2764
1534 1 1804 1805
1535 1 2001 2002
1536 1 2812 2813
1537 1 2000 2001
1538 1 2049 2050
1539 1 2811 2812
1540 1 2050 2051
1541 1 1866 1867
1542 1 2051 2052
1543 1 1865 1866
1544 1 1864 1865
1545 1 2677 2678
1546 1 2678 2679
1547 1 2785 2786
1548 1 2815 2816
1549 1 3023 3024
1550 1 2484 2485
1551 1 1862 1863
1552 1 1862 1872
1553 1 582 583
1554 1 583 584
1555 1 1863 1864
1556 1 2816 2817
1557 1 2817 2818
1558 1 1861 1862
1559 1 1819 1820
1560 1 1818 1819
1561 1 3020 3021
1562 1 1676 1677
1563 1 2818 2819
1564 1 576 577
1565 1 3019 3020
1566 1 1860 1861
1567 1 3018 3019
1568 1 3017 3018
1569 1 1677 1678
1570 1 1679 1680
1571 1 1906 1907
1572 1 1907 1908
1573 1 1908 1909
1574 1 1920 1921
1575 1 1919 1920
1576 1 2094 2095
1577 1 2071 2072
1578 1 2603 2604
1579 1 2072 2073
1580 1 1918 1919
1581 1 2754 2755
1582 1 2073 2074
1583 1 2880 2881
1584 1 2878 2879
1585 1 2879 2880
1586 1 2753 2754
1587 1 2695 2696
1588 1 2746 2747
1589 1 1966 1967
1590 1 2602 2603
1591 1 2745 2746
1592 1 2601 2602
1593 1 2751 2752
1594 1 2752 2753
1595 1 2752 2767
1596 1 2706 2707
1597 1 2707 2708
1598 1 1791 1792
1599 1 1963 1964
1600 1 1963 1982
1601 1 1962 1963
1602 1 1792 1793
1603 1 1982 1983
1604 1 1793 1794
1605 1 1793 1802
1606 1 746 35
1607 1 1983 1984
1608 1 1759 1760
1609 1 2980 2981
1610 1 1812 1813
1611 1 1812 1827
1612 1 1802 1803
1613 1 2003 2004
1614 1 4026 4027
1615 1 2004 2005
1616 1 1803 1804
1617 1 1805 1806
1618 1 3090 3091
1619 1 3035 3036
1620 1 2002 2003
1621 1 1813 1814
1622 1 1814 1815
1623 1 3089 3090
1624 1 1815 1816
1625 1 2787 2788
1626 1 2786 2787
1627 1 1816 1817
1628 1 2052 2053
1629 1 3032 3033
1630 1 584 585
1631 1 1844 1845
1632 1 1842 1843
1633 1 1817 1818
1634 1 3024 3025
1635 1 3024 3032
1636 1 3134 3135
1637 1 3133 3134
1638 1 3025 3026
1639 1 3088 3089
1640 1 1843 1844
1641 1 2853 2854
1642 1 3120 3121
1643 1 3037 3038
1644 1 3029 3030
1645 1 3026 3027
1646 1 1859 1860
1647 1 3016 3017
1648 1 3027 3028
1649 1 3028 3029
1650 1 3028 3037
1651 1 3118 3119
1652 1 3030 3031
1653 1 3117 3118
1654 1 3038 3039
1655 1 1934 1935
1656 1 1934 1947
1657 1 3039 3040
1658 1 1947 1948
1659 1 1949 1950
1660 1 1948 1949
1661 1 2872 2873
1662 1 1950 1951
1663 1 4181 4182
1664 1 2095 2096
1665 1 1933 1934
1666 1 2169 2170
1667 1 2096 2097
1668 1 2097 2098
1669 1 2075 2076
1670 1 2074 2075
1671 1 2098 2099
1672 1 4182 4183
1673 1 4183 4184
1674 1 2170 2171
1675 1 2705 2706
1676 1 1761 1762
1677 1 3990 3991
1678 1 2704 2705
1679 1 1762 1763
1680 1 1763 1764
1681 1 2703 2704
1682 1 3988 3989
1683 1 3989 3990
1684 1 2230 2231
1685 1 2229 2230
1686 1 1760 1761
1687 1 1984 1985
1688 1 1985 1986
1689 1 4023 4024
1690 1 63 3172
1691 1 63 3192
1692 1 4022 4023
1693 1 4022 4037
1694 1 3172 3173
1695 1 2981 63
1696 1 4021 4022
1697 1 4037 4038
1698 1 3173 3174
1699 1 4024 4025
1700 1 1794 1795
1701 1 4025 4026
1702 1 1795 1796
1703 1 2360 2361
1704 1 2984 2985
1705 1 2983 2984
1706 1 2985 2986
1707 1 1796 36
1708 1 4304 4305
1709 1 2359 2360
1710 1 2358 2359
1711 1 36 1987
1712 1 2357 2358
1713 1 2005 2006
1714 1 2006 59
1715 1 1836 1837
1716 1 835 836
1717 1 1837 1838
1718 1 3058 3059
1719 1 836 36
1720 1 834 835
1721 1 3093 3094
1722 1 3221 3222
1723 1 3092 3093
1724 1 3094 3095
1725 1 3095 3096
1726 1 3033 3034
1727 1 1838 1839
1728 1 2854 2855
1729 1 833 834
1730 1 3087 3088
1731 1 3075 3076
1732 1 3074 3075
1733 1 3074 3087
1734 1 4210 4211
1735 1 4211 4212
1736 1 3219 3220
1737 1 2852 2853
1738 1 3119 3120
1739 1 3101 3102
1740 1 2120 2121
1741 1 4209 4210
1742 1 3102 3103
1743 1 3100 3101
1744 1 3100 3117
1745 1 2121 2122
1746 1 4208 4209
1747 1 4207 4208
1748 1 2038 2039
1749 1 3040 3041
1750 1 3067 3068
1751 1 3285 3286
1752 1 3286 3287
1753 1 2141 2142
1754 1 3158 3159
1755 1 2142 2143
1756 1 3284 3285
1757 1 3157 3158
1758 1 3068 3069
1759 1 2870 2871
1760 1 2168 2169
1761 1 2100 2101
1762 1 2104 2105
1763 1 2337 2338
1764 1 2143 2144
1765 1 2167 2168
1766 1 2101 2102
1767 1 2102 2103
1768 1 2103 2104
1769 1 2144 2145
1770 1 4185 4186
1771 1 4184 4185
1772 1 4186 4187
1773 1 3338 3339
1774 1 4040 4041
1775 1 4038 4039
1776 1 4039 4040
1777 1 2916 2917
1778 1 3339 3340
1779 1 2917 2918
1780 1 3981 3982
1781 1 2204 2205
1782 1 2204 2222
1783 1 2222 2223
1784 1 2188 2189
1785 1 2223 2224
1786 1 2189 2190
1787 1 2944 2945
1788 1 2187 2188
1789 1 3174 3175
1790 1 2289 2290
1791 1 2290 2291
1792 1 2288 2289
1793 1 2271 2272
1794 1 3243 3244
1795 1 2287 2288
1796 1 3245 3246
1797 1 3244 3245
1798 1 2270 2271
1799 1 2270 2287
1800 1 2354 2355
1801 1 3242 3243
1802 1 3224 3225
1803 1 865 866
1804 1 3223 3224
1805 1 3223 3242
1806 1 3059 3060
1807 1 3222 3223
1808 1 3060 3061
1809 1 2390 2391
1810 1 2389 2390
1811 1 2029 2030
1812 1 3047 3048
1813 1 4212 4213
1814 1 2028 2029
1815 1 2037 2038
1816 1 2964 2965
1817 1 2965 2966
1818 1 3103 3104
1819 1 3104 3105
1820 1 3061 64
1821 1 2966 2967
1822 1 2027 2028
1823 1 64 3217
1824 1 64 3247
1825 1 3217 3218
1826 1 3218 3219
1827 1 3218 3237
1828 1 3323 3324
1829 1 4213 4214
1830 1 2122 2123
1831 1 3324 3325
1832 1 2123 2124
1833 1 2300 2301
1834 1 2299 2300
1835 1 2124 2125
1836 1 3307 3308
1837 1 3307 3327
1838 1 65 3277
1839 1 65 3307
1840 1 3327 3328
1841 1 42 2302
1842 1 3115 3116
1843 1 3116 65
1844 1 3156 3157
1845 1 3155 3156
1846 1 2261 42
1847 1 2106 42
1848 1 3277 3278
1849 1 3277 3297
1850 1 2446 2447
1851 1 2445 2446
1852 1 2447 2448
1853 1 2105 2106
1854 1 3154 3155
1855 1 3154 3167
1856 1 2336 2337
1857 1 2145 2146
1858 1 2146 2147
1859 1 2448 2449
1860 1 2449 2450
1861 1 3167 3168
1862 1 3351 3352
1863 1 3353 3354
1864 1 3354 3355
1865 1 2191 2192
1866 1 3352 3353
1867 1 2915 2916
1868 1 2915 2932
1869 1 2932 2933
1870 1 2933 2934
1871 1 2190 2191
1872 1 3340 3341
1873 1 3341 3342
1874 1 3175 3176
1875 1 4187 4188
1876 1 2386 68
1877 1 2943 2944
1878 1 2350 2351
1879 1 3386 68
1880 1 3191 68
1881 1 68 3412
1882 1 3369 3370
1883 1 2351 2352
1884 1 3368 3369
1885 1 4511 4512
1886 1 4510 4511
1887 1 3190 3191
1888 1 3188 3189
1889 1 3189 3190
1890 1 2269 2270
1891 1 2268 2269
1892 1 2352 2353
1893 1 4514 4515
1894 1 2267 2268
1895 1 3414 3415
1896 1 2353 2354
1897 1 4513 4514
1898 1 3186 3187
1899 1 1550 1551
1900 1 3187 3188
1901 1 2030 2031
1902 1 4516 4517
1903 1 3185 3186
1904 1 4517 4518
1905 1 4518 4519
1906 1 2286 64
1907 1 2286 2297
1908 1 1377 1378
1909 1 2453 2454
1910 1 3049 3050
1911 1 3048 3049
1912 1 2285 2286
1913 1 1378 1379
1914 1 1378 1387
1915 1 2297 2298
1916 1 2454 2455
1917 1 3320 3321
1918 1 3248 3249
1919 1 3322 3323
1920 1 3247 3248
1921 1 3250 3251
1922 1 1432 1433
1923 1 3321 3322
1924 1 3328 3329
1925 1 2298 2299
1926 1 1433 1434
1927 1 1434 1435
1928 1 2577 2578
1929 1 3430 3431
1930 1 2578 2579
1931 1 2578 2587
1932 1 2302 2303
1933 1 3431 69
1934 1 3297 3298
1935 1 3170 3171
1936 1 2441 2442
1937 1 3298 3299
1938 1 3169 3170
1939 1 3299 3300
1940 1 2450 2451
1941 1 3168 3169
1942 1 2440 2441
1943 1 3450 3451
1944 1 3450 3452
1945 1 3451 71
1946 1 2451 71
1947 1 71 3477
1948 1 3477 3478
1949 1 4504 4505
1950 1 3350 3351
1951 1 2439 2440
1952 1 4503 4504
1953 1 67 3367
1954 1 67 3392
1955 1 3392 3393
1956 1 3367 3368
1957 1 4554 4555
1958 1 3385 3386
1959 1 4555 4556
1960 1 4556 4557
1961 1 3384 3385
1962 1 4557 4558
1963 1 4557 4572
1964 1 3176 3177
1965 1 3383 3384
1966 1 4512 4513
1967 1 2658 2659
1968 1 4575 4576
1969 1 3412 3413
1970 1 4574 4575
1971 1 3413 3414
1972 1 4573 4574
1973 1 1586 1587
1974 1 1584 1585
1975 1 1585 1586
1976 1 1131 41
1977 1 2474 2475
1978 1 41 2242
1979 1 41 2267
1980 1 2473 2474
1981 1 3415 3416
1982 1 2242 2243
1983 1 2452 2453
1984 1 1383 1384
1985 1 1382 1383
1986 1 2318 2319
1987 1 2243 2244
1988 1 1381 1382
1989 1 3556 3557
1990 1 3555 3556
1991 1 2472 2473
1992 1 50 2452
1993 1 50 2472
1994 1 50 2492
1995 1 1644 1645
1996 1 1389 1390
1997 1 1388 1389
1998 1 2319 2320
1999 1 2455 2456
2000 1 2456 2457
2001 1 2320 2321
2002 1 2520 2521
2003 1 1648 1649
2004 1 3319 3320
2005 1 2321 47
2006 1 1436 47
2007 1 2414 2415
2008 1 2413 2414
2009 1 2576 2577
2010 1 2519 2520
2011 1 3318 3319
2012 1 3317 3318
2013 1 2518 2519
2014 1 3445 3446
2015 1 2588 2589
2016 1 2587 2588
2017 1 3316 3317
2018 1 3446 3447
2019 1 3449 3450
2020 1 2436 2437
2021 1 2412 2413
2022 1 2398 2399
2023 1 2398 2412
2024 1 3448 3449
2025 1 2616 2617
2026 1 3447 3448
2027 1 2615 2616
2028 1 2397 2398
2029 1 2614 2615
2030 1 2396 2397
2031 1 2438 2439
2032 1 2644 2645
2033 1 2619 2620
2034 1 2437 2438
2035 1 2617 2618
2036 1 2618 2619
2037 1 2774 2775
2038 1 2775 2776
2039 1 4505 4506
2040 1 2620 2621
2041 1 2620 2637
2042 1 2661 71
2043 1 2660 2661
2044 1 4572 4573
2045 1 2659 2660
2046 1 2659 2662
2047 1 2662 2663
2048 1 2621 2622
2049 1 2663 2664
2050 1 2664 2665
2051 1 3401 3402
2052 1 3402 3403
2053 1 1517 1518
2054 1 2623 2624
2055 1 1745 1746
2056 1 2475 2476
2057 1 1513 1514
2058 1 1512 1513
2059 1 1140 1141
2060 1 1744 1745
2061 1 1516 1517
2062 1 1515 1516
2063 1 1514 1515
2064 1 2476 2477
2065 1 2477 2478
2066 1 1569 1570
2067 1 1511 1512
2068 1 3554 3555
2069 1 3552 3553
2070 1 3553 3554
2071 1 1573 1574
2072 1 73 3527
2073 1 73 3552
2074 1 1638 1639
2075 1 1572 1573
2076 1 1571 1572
2077 1 1630 1631
2078 1 2458 2459
2079 1 1639 1640
2080 1 2457 2458
2081 1 2521 2522
2082 1 1641 1642
2083 1 1640 1641
2084 1 1642 1643
2085 1 1642 1647
2086 1 1631 1632
2087 1 1647 1648
2088 1 2460 2461
2089 1 1649 1650
2090 1 2504 2505
2091 1 1712 1713
2092 1 1673 1674
2093 1 2589 2590
2094 1 2459 2460
2095 1 2590 2591
2096 1 1713 1714
2097 1 1714 1715
2098 1 28 1652
2099 1 28 1672
2100 1 28 1697
2101 1 1715 1716
2102 1 1672 1673
2103 1 1652 1653
2104 1 2634 2635
2105 1 2514 2515
2106 1 2643 2644
2107 1 1736 52
2108 1 1653 1654
2109 1 2613 2614
2110 1 2613 2632
2111 1 2612 2613
2112 1 52 2592
2113 1 52 2612
2114 1 52 2642
2115 1 2642 2643
2116 1 2760 2761
2117 1 1654 1655
2118 1 2513 2514
2119 1 2759 2760
2120 1 2759 2772
2121 1 1505 1506
2122 1 2637 2638
2123 1 2638 2639
2124 1 1655 1656
2125 1 2758 2759
2126 1 2640 2641
2127 1 2639 2640
2128 1 2724 2725
2129 1 3484 3485
2130 1 3400 3401
2131 1 2622 2623
2132 1 3399 3400
2133 1 3398 3399
2134 1 2665 2666
2135 1 2728 2729
2136 1 2625 2626
2137 1 2624 2625
2138 1 2725 2726
2139 1 2727 2728
2140 1 2726 2727
2141 1 2626 2627
2142 1 2730 2731
2143 1 2731 2732
2144 1 2732 2733
2145 1 3512 3513
2146 1 3511 3512
2147 1 3510 3511
2148 1 1867 1868
2149 1 1471 1472
2150 1 1472 1473
2151 1 1473 1474
2152 1 1478 1479
2153 1 1479 1480
2154 1 1480 1481
2155 1 1826 54
2156 1 2690 2691
2157 1 2689 2690
2158 1 2480 2481
2159 1 1868 1869
2160 1 1824 1825
2161 1 2508 2509
2162 1 3830 3831
2163 1 3604 3605
2164 1 1823 1824
2165 1 1822 1823
2166 1 2507 2508
2167 1 2509 2510
2168 1 3831 79
2169 1 3605 3606
2170 1 3603 3604
2171 1 1825 1826
2172 1 2485 2486
2173 1 1633 1634
2174 1 3917 3918
2175 1 79 3867
2176 1 79 3887
2177 1 79 3917
2178 1 3887 3888
2179 1 3596 3597
2180 1 1634 1635
2181 1 3918 3919
2182 1 2524 2525
2183 1 2462 2463
2184 1 2585 2586
2185 1 2463 2464
2186 1 2464 2465
2187 1 3595 3596
2188 1 3594 3595
2189 1 2465 2466
2190 1 3593 3594
2191 1 2582 2583
2192 1 2892 2893
2193 1 3919 3920
2194 1 51 2512
2195 1 51 2537
2196 1 51 2562
2197 1 2858 2859
2198 1 2563 2564
2199 1 2563 2582
2200 1 3677 3678
2201 1 2562 2563
2202 1 3678 3679
2203 1 2564 2565
2204 1 2859 2860
2205 1 3592 3593
2206 1 3592 3612
2207 1 2471 51
2208 1 3946 3947
2209 1 3755 3756
2210 1 3945 3946
2211 1 3944 3945
2212 1 2595 2596
2213 1 2596 2597
2214 1 2741 77
2215 1 2597 2598
2216 1 3754 3755
2217 1 471 472
2218 1 472 473
2219 1 3770 3771
2220 1 2627 2628
2221 1 1739 1740
2222 1 2749 2750
2223 1 2749 2762
2224 1 1738 1739
2225 1 1737 1738
2226 1 2750 2751
2227 1 2734 2735
2228 1 2735 2736
2229 1 1758 1759
2230 1 30 1737
2231 1 30 1757
2232 1 2736 2737
2233 1 3005 3006
2234 1 2717 2718
2235 1 1757 1758
2236 1 2733 2734
2237 1 1470 1471
2238 1 2808 2809
2239 1 2807 2808
2240 1 54 2777
2241 1 54 2807
2242 1 2977 2978
2243 1 2777 2778
2244 1 1869 1870
2245 1 3827 3828
2246 1 3829 3830
2247 1 3828 3829
2248 1 2679 2680
2249 1 2680 2681
2250 1 1821 1822
2251 1 1870 1871
2252 1 2782 2783
2253 1 2486 2487
2254 1 3867 3868
2255 1 3868 3869
2256 1 1820 1821
2257 1 2783 2784
2258 1 3869 3870
2259 1 2821 2822
2260 1 2820 2821
2261 1 3870 3871
2262 1 3888 3889
2263 1 3888 3907
2264 1 2819 2820
2265 1 2487 2488
2266 1 3123 3124
2267 1 2890 2891
2268 1 3679 3680
2269 1 2889 2890
2270 1 2888 2889
2271 1 1909 1910
2272 1 1910 1911
2273 1 2874 2875
2274 1 2874 2887
2275 1 3124 3125
2276 1 2887 2888
2277 1 3949 3950
2278 1 4921 4922
2279 1 3948 3949
2280 1 4920 4921
2281 1 2875 2876
2282 1 3947 3948
2283 1 2598 2599
2284 1 2599 2600
2285 1 4922 4923
2286 1 2860 2861
2287 1 2877 2878
2288 1 2861 2862
2289 1 2861 2877
2290 1 2862 2863
2291 1 2863 2864
2292 1 3969 3970
2293 1 2768 2769
2294 1 2876 62
2295 1 3968 3969
2296 1 2600 2601
2297 1 3769 3770
2298 1 2767 2768
2299 1 3768 3769
2300 1 2697 2698
2301 1 2698 2699
2302 1 2737 2738
2303 1 2769 2770
2304 1 2699 2700
2305 1 2699 2717
2306 1 3767 3768
2307 1 2770 2771
2308 1 2978 2979
2309 1 2979 2980
2310 1 2952 2953
2311 1 2951 2952
2312 1 4082 4083
2313 1 4083 4084
2314 1 4090 4091
2315 1 2922 2923
2316 1 2923 2924
2317 1 2990 2991
2318 1 2950 2951
2319 1 2764 2765
2320 1 4027 4028
2321 1 2976 2977
2322 1 2765 2766
2323 1 4085 4086
2324 1 4084 4085
2325 1 4028 4029
2326 1 2925 2926
2327 1 2924 2925
2328 1 3826 3827
2329 1 2850 2851
2330 1 4303 4304
2331 1 4270 4271
2332 1 2053 2054
2333 1 4271 88
2334 1 2054 2055
2335 1 2055 2056
2336 1 4302 4303
2337 1 88 4302
2338 1 88 4322
2339 1 2849 2850
2340 1 2848 2849
2341 1 3135 3136
2342 1 2784 2785
2343 1 3099 3100
2344 1 1841 1842
2345 1 3211 88
2346 1 3013 3014
2347 1 3012 3013
2348 1 60 3012
2349 1 60 3042
2350 1 60 3062
2351 1 1840 1841
2352 1 3210 3211
2353 1 2056 60
2354 1 3098 3099
2355 1 3014 3015
2356 1 3132 3133
2357 1 3131 3132
2358 1 3015 3016
2359 1 3122 3123
2360 1 3097 3098
2361 1 3031 61
2362 1 61 3097
2363 1 61 3122
2364 1 2131 61
2365 1 2842 2843
2366 1 1911 1912
2367 1 2843 2844
2368 1 2873 2874
2369 1 2871 2872
2370 1 3130 3131
2371 1 4180 4181
2372 1 4179 4180
2373 1 3127 3128
2374 1 3129 3130
2375 1 3129 3142
2376 1 3128 3129
2377 1 4178 4179
2378 1 3971 3972
2379 1 3970 3971
2380 1 2171 62
2381 1 2099 2100
2382 1 2956 62
2383 1 3148 3149
2384 1 3147 3148
2385 1 62 3147
2386 1 4230 4231
2387 1 4231 4232
2388 1 2867 2868
2389 1 2867 2882
2390 1 2882 2883
2391 1 2702 2703
2392 1 2955 2956
2393 1 2954 2955
2394 1 2953 2954
2395 1 2701 2702
2396 1 4089 4090
2397 1 2700 2701
2398 1 4232 4233
2399 1 4088 4089
2400 1 3192 3193
2401 1 2987 2988
2402 1 2921 2922
2403 1 2948 2949
2404 1 2989 2990
2405 1 4020 4021
2406 1 2947 2948
2407 1 4019 4020
2408 1 2949 2950
2409 1 2949 2957
2410 1 4283 4284
2411 1 4305 4306
2412 1 2988 2989
2413 1 2986 2987
2414 1 4307 4308
2415 1 4029 4030
2416 1 4308 4309
2417 1 4306 4307
2418 1 4309 4310
2419 1 4277 4278
2420 1 4266 4267
2421 1 4266 4277
2422 1 4322 4323
2423 1 4269 4270
2424 1 3270 3271
2425 1 3136 3137
2426 1 3269 3270
2427 1 3137 3138
2428 1 4323 4324
2429 1 3138 3139
2430 1 4324 4325
2431 1 3220 3221
2432 1 1839 1840
2433 1 3062 3063
2434 1 3076 3077
2435 1 3076 3092
2436 1 3043 3044
2437 1 3077 3078
2438 1 3042 3043
2439 1 2839 2840
2440 1 3078 3079
2441 1 2969 2970
2442 1 3232 3233
2443 1 3238 3239
2444 1 3063 3064
2445 1 2840 2841
2446 1 2840 2852
2447 1 3239 3240
2448 1 2841 2842
2449 1 3237 3238
2450 1 3240 3241
2451 1 3065 3066
2452 1 3064 3065
2453 1 3233 3234
2454 1 2129 2130
2455 1 2128 2129
2456 1 2130 2131
2457 1 3972 3973
2458 1 4206 4207
2459 1 4194 4195
2460 1 4205 4206
2461 1 4204 4205
2462 1 3283 3284
2463 1 3142 3143
2464 1 3143 3144
2465 1 3144 3145
2466 1 3973 3974
2467 1 3151 3152
2468 1 3152 3153
2469 1 4192 4193
2470 1 3145 3146
2471 1 3150 3151
2472 1 2884 2885
2473 1 2869 2870
2474 1 2868 2869
2475 1 3974 3975
2476 1 3363 3364
2477 1 3975 3976
2478 1 2885 2886
2479 1 3364 3365
2480 1 3362 3363
2481 1 3976 3977
2482 1 3149 3150
2483 1 3980 3981
2484 1 3979 3980
2485 1 3987 3988
2486 1 2883 2884
2487 1 2920 2921
2488 1 2918 2919
2489 1 3982 3983
2490 1 3982 3987
2491 1 3983 3984
2492 1 2919 2920
2493 1 3977 3978
2494 1 4018 4019
2495 1 3984 3985
2496 1 2224 2225
2497 1 3193 3194
2498 1 2945 2946
2499 1 4284 4285
2500 1 4285 4286
2501 1 2946 2947
2502 1 4286 4287
2503 1 3407 3408
2504 1 3374 3375
2505 1 5136 5137
2506 1 5137 5138
2507 1 5138 5139
2508 1 3194 3195
2509 1 3195 3196
2510 1 3196 3197
2511 1 3225 3226
2512 1 3373 3374
2513 1 3226 3227
2514 1 3227 3228
2515 1 3372 3373
2516 1 3183 3184
2517 1 4279 4280
2518 1 4278 4279
2519 1 2355 2356
2520 1 2356 2357
2521 1 4264 4265
2522 1 3045 3046
2523 1 3046 3047
2524 1 3257 3258
2525 1 4265 4266
2526 1 3255 3256
2527 1 2968 2969
2528 1 3044 3045
2529 1 3256 3257
2530 1 2967 2968
2531 1 4214 4215
2532 1 4215 4216
2533 1 2838 2839
2534 1 4216 90
2535 1 3231 3232
2536 1 3425 3426
2537 1 3066 3067
2538 1 3234 3235
2539 1 2837 2838
2540 1 3326 70
2541 1 3235 3236
2542 1 2127 2128
2543 1 3325 3326
2544 1 2125 2126
2545 1 2126 2127
2546 1 3236 65
2547 1 3432 3433
2548 1 3309 3310
2549 1 3360 3361
2550 1 3282 3283
2551 1 3359 3360
2552 1 3281 3282
2553 1 2444 2445
2554 1 3278 3279
2555 1 3279 3280
2556 1 3280 3281
2557 1 3280 3302
2558 1 2443 2444
2559 1 3357 3358
2560 1 3358 3359
2561 1 4390 4391
2562 1 3153 3154
2563 1 4391 91
2564 1 91 4462
2565 1 3356 91
2566 1 3355 3356
2567 1 3355 3362
2568 1 4188 4189
2569 1 4189 4190
2570 1 3344 3345
2571 1 3343 3344
2572 1 3345 3346
2573 1 4383 4384
2574 1 4301 91
2575 1 3342 3343
2576 1 2225 2226
2577 1 4553 4554
2578 1 3411 92
2579 1 3978 3979
2580 1 3408 3409
2581 1 3409 3410
2582 1 3410 3411
2583 1 3380 3381
2584 1 3381 3382
2585 1 3370 3371
2586 1 3371 3372
2587 1 3371 3387
2588 1 4287 4288
2589 1 3177 3178
2590 1 3178 3179
2591 1 4288 4289
2592 1 3405 3406
2593 1 3404 3405
2594 1 3406 3407
2595 1 3179 3180
2596 1 3180 3181
2597 1 4515 4516
2598 1 3390 3391
2599 1 3387 3388
2600 1 3389 3390
2601 1 3388 3389
2602 1 3182 3183
2603 1 3181 3182
2604 1 4263 4264
2605 1 3575 3576
2606 1 3184 3185
2607 1 3671 94
2608 1 3254 3255
2609 1 3670 3671
2610 1 2493 2494
2611 1 94 4612
2612 1 94 4637
2613 1 3422 3423
2614 1 3253 3254
2615 1 4637 4638
2616 1 3423 3424
2617 1 3249 3250
2618 1 4519 4520
2619 1 3426 3427
2620 1 3427 3428
2621 1 4520 4521
2622 1 4521 93
2623 1 3252 3253
2624 1 3251 3252
2625 1 3457 3458
2626 1 3666 3667
2627 1 3424 3425
2628 1 93 4582
2629 1 3458 3459
2630 1 1435 1436
2631 1 3308 3309
2632 1 3429 3430
2633 1 70 3432
2634 1 70 3457
2635 1 3428 3429
2636 1 2581 70
2637 1 2580 2581
2638 1 3310 3311
2639 1 3311 3312
2640 1 2579 2580
2641 1 2544 2545
2642 1 3312 3313
2643 1 3665 3666
2644 1 2543 2544
2645 1 2442 2443
2646 1 2545 2546
2647 1 4389 4390
2648 1 3300 3301
2649 1 2546 2547
2650 1 4388 4389
2651 1 3313 3314
2652 1 4411 4412
2653 1 4402 4403
2654 1 4384 4385
2655 1 3348 3349
2656 1 3349 3350
2657 1 3346 3347
2658 1 3346 3357
2659 1 3347 3348
2660 1 4502 4503
2661 1 92 4502
2662 1 92 4522
2663 1 92 4552
2664 1 3497 3498
2665 1 4552 4553
2666 1 3478 3479
2667 1 3478 3497
2668 1 3499 3500
2669 1 3479 3480
2670 1 4386 4387
2671 1 4289 4290
2672 1 3382 3383
2673 1 4558 4559
2674 1 4559 4560
2675 1 4290 4291
2676 1 4291 4292
2677 1 4560 4561
2678 1 4509 4510
2679 1 3403 3404
2680 1 3416 3417
2681 1 3417 3418
2682 1 3421 3422
2683 1 3574 3575
2684 1 3557 3558
2685 1 3669 3670
2686 1 1646 50
2687 1 2492 2493
2688 1 3420 3421
2689 1 3573 3574
2690 1 3572 3573
2691 1 1645 1646
2692 1 3419 3420
2693 1 1643 1644
2694 1 3667 3668
2695 1 3558 3559
2696 1 3668 3669
2697 1 2500 2501
2698 1 2499 2500
2699 1 2498 2499
2700 1 3571 93
2701 1 47 2392
2702 1 4582 4583
2703 1 3569 3570
2704 1 3315 3316
2705 1 3570 3571
2706 1 3664 3665
2707 1 2392 2393
2708 1 2393 2394
2709 1 3442 3443
2710 1 1716 47
2711 1 3443 3444
2712 1 3332 3333
2713 1 2542 2543
2714 1 2541 2542
2715 1 2540 2541
2716 1 2539 2540
2717 1 4394 4395
2718 1 4395 4396
2719 1 2395 2396
2720 1 2394 2395
2721 1 3314 3315
2722 1 3314 3332
2723 1 3615 3616
2724 1 3333 3334
2725 1 4506 4507
2726 1 2773 2774
2727 1 3482 3483
2728 1 3500 3501
2729 1 3739 3740
2730 1 3498 3499
2731 1 3738 3739
2732 1 3740 3741
2733 1 4507 4508
2734 1 4292 4293
2735 1 3480 3481
2736 1 3481 3482
2737 1 4508 4509
2738 1 1570 1571
2739 1 3527 3528
2740 1 1637 1638
2741 1 3528 3529
2742 1 3529 3530
2743 1 3619 3620
2744 1 1636 1637
2745 1 3846 3847
2746 1 3618 3619
2747 1 1635 1636
2748 1 2505 2506
2749 1 2506 2507
2750 1 4635 4636
2751 1 3598 3599
2752 1 3598 3617
2753 1 3620 3621
2754 1 2522 2523
2755 1 2523 2524
2756 1 4634 4635
2757 1 3617 3618
2758 1 3444 3445
2759 1 2501 2502
2760 1 2894 2895
2761 1 2635 2636
2762 1 2502 2503
2763 1 4633 4634
2764 1 2503 2504
2765 1 4632 4633
2766 1 2893 2894
2767 1 3920 3921
2768 1 3613 3614
2769 1 2633 2634
2770 1 2761 57
2771 1 2632 2633
2772 1 2772 2773
2773 1 3614 3615
2774 1 2470 2471
2775 1 3612 3613
2776 1 2538 2539
2777 1 2537 2538
2778 1 3741 3742
2779 1 3741 3752
2780 1 3483 3484
2781 1 3752 3753
2782 1 3753 3754
2783 1 3486 3487
2784 1 3487 3488
2785 1 3485 3486
2786 1 2628 2629
2787 1 2629 2630
2788 1 3771 3772
2789 1 3772 3773
2790 1 3509 3510
2791 1 3773 3774
2792 1 3774 3775
2793 1 3508 3509
2794 1 2688 2689
2795 1 4815 4816
2796 1 3850 3851
2797 1 1474 1475
2798 1 1476 49
2799 1 1475 1476
2800 1 4788 4789
2801 1 4787 4788
2802 1 3851 3852
2803 1 4814 4815
2804 1 2823 2824
2805 1 3849 3850
2806 1 2510 2511
2807 1 2826 78
2808 1 2511 74
2809 1 74 3582
2810 1 74 3622
2811 1 74 3652
2812 1 2824 2825
2813 1 2825 2826
2814 1 3909 3910
2815 1 3622 3623
2816 1 3597 3598
2817 1 2525 2526
2818 1 3910 3911
2819 1 3908 3909
2820 1 3843 3844
2821 1 3926 3927
2822 1 3842 3843
2823 1 3927 3928
2824 1 3927 3937
2825 1 3841 3842
2826 1 3841 3862
2827 1 3907 3908
2828 1 3928 3929
2829 1 2895 2896
2830 1 2526 2527
2831 1 2527 2528
2832 1 3681 3682
2833 1 2896 2897
2834 1 3682 3683
2835 1 3683 3684
2836 1 4627 4628
2837 1 3880 3881
2838 1 2897 2898
2839 1 4628 4629
2840 1 3929 3930
2841 1 3879 3880
2842 1 2469 2470
2843 1 2468 2469
2844 1 2466 2467
2845 1 3881 3882
2846 1 3675 3676
2847 1 3676 3677
2848 1 2467 2468
2849 1 3882 3883
2850 1 3699 3700
2851 1 4925 4926
2852 1 3783 3784
2853 1 3951 3952
2854 1 3883 3884
2855 1 77 3757
2856 1 77 3782
2857 1 3782 3783
2858 1 3884 3885
2859 1 3469 3470
2860 1 3757 3758
2861 1 3885 3886
2862 1 3470 3471
2863 1 491 492
2864 1 3471 3472
2865 1 3504 3505
2866 1 2740 2741
2867 1 3965 3966
2868 1 490 491
2869 1 3943 3944
2870 1 3886 80
2871 1 473 474
2872 1 3942 3943
2873 1 80 3942
2874 1 4976 4977
2875 1 3507 3508
2876 1 3507 3522
2877 1 3506 3507
2878 1 3505 3506
2879 1 474 475
2880 1 3522 3523
2881 1 4735 4736
2882 1 476 30
2883 1 2993 2994
2884 1 2720 2721
2885 1 2994 2995
2886 1 3003 3004
2887 1 2995 2996
2888 1 2992 2993
2889 1 2992 3002
2890 1 2718 2719
2891 1 2687 2688
2892 1 3004 3005
2893 1 2686 54
2894 1 2686 2687
2895 1 4115 4116
2896 1 2685 2686
2897 1 2684 2685
2898 1 4117 4118
2899 1 4116 4117
2900 1 2778 2779
2901 1 2779 2780
2902 1 2781 2782
2903 1 2681 2682
2904 1 1871 55
2905 1 2683 2684
2906 1 4118 4119
2907 1 3938 3939
2908 1 2682 2683
2909 1 2780 2781
2910 1 3939 3940
2911 1 3937 3938
2912 1 2822 2823
2913 1 3889 3890
2914 1 2827 2828
2915 1 3871 3872
2916 1 3207 3208
2917 1 55 2827
2918 1 2491 55
2919 1 2490 2491
2920 1 3890 3891
2921 1 3877 3878
2922 1 3891 3892
2923 1 3875 3876
2924 1 3876 3877
2925 1 3820 3821
2926 1 3680 3681
2927 1 2488 2489
2928 1 2489 2490
2929 1 5045 5046
2930 1 3878 3879
2931 1 2898 2899
2932 1 2899 2900
2933 1 3930 3931
2934 1 3931 3932
2935 1 5044 5045
2936 1 3953 3954
2937 1 5043 5044
2938 1 2846 56
2939 1 3950 3951
2940 1 3125 3126
2941 1 3962 3963
2942 1 3126 3127
2943 1 3963 3964
2944 1 3952 3953
2945 1 3952 3962
2946 1 5046 5047
2947 1 4917 4918
2948 1 5047 5048
2949 1 5048 5049
2950 1 4918 4919
2951 1 5049 5050
2952 1 3784 3785
2953 1 4923 4924
2954 1 3967 3968
2955 1 4924 4925
2956 1 81 3967
2957 1 81 3992
2958 1 3992 3993
2959 1 3765 3766
2960 1 3785 3786
2961 1 3786 3787
2962 1 3764 3765
2963 1 3787 3788
2964 1 4977 4978
2965 1 3766 3767
2966 1 475 476
2967 1 2739 2740
2968 1 2738 2739
2969 1 2911 81
2970 1 2910 2911
2971 1 4978 4979
2972 1 2909 2910
2973 1 4979 4980
2974 1 4065 4066
2975 1 2719 2720
2976 1 4064 4065
2977 1 4064 4082
2978 1 4063 4064
2979 1 2997 2998
2980 1 2999 3000
2981 1 2991 2992
2982 1 2996 2997
2983 1 2998 2999
2984 1 3007 3008
2985 1 2926 2927
2986 1 4094 4095
2987 1 3002 3003
2988 1 4095 4096
2989 1 2975 2976
2990 1 2927 2928
2991 1 3001 83
2992 1 2928 2929
2993 1 3000 3001
2994 1 3000 3007
2995 1 2929 2930
2996 1 2930 2931
2997 1 3825 3826
2998 1 3206 3207
2999 1 4119 4120
3000 1 2974 2975
3001 1 2973 2974
3002 1 3824 3825
3003 1 3823 3824
3004 1 3823 3832
3005 1 2847 2848
3006 1 4120 4121
3007 1 3832 3833
3008 1 5303 5304
3009 1 4121 84
3010 1 3822 3823
3011 1 2828 2829
3012 1 2829 2830
3013 1 2829 2847
3014 1 3209 3210
3015 1 3208 3209
3016 1 3873 3874
3017 1 3874 3875
3018 1 2830 2831
3019 1 2831 2832
3020 1 3080 3081
3021 1 3081 84
3022 1 3872 3873
3023 1 5042 5043
3024 1 4176 4177
3025 1 5057 5058
3026 1 5220 5221
3027 1 5219 5220
3028 1 2844 2845
3029 1 2845 2846
3030 1 4177 4178
3031 1 4177 4192
3032 1 4919 4920
3033 1 2900 2901
3034 1 1912 1913
3035 1 4228 4229
3036 1 1914 1915
3037 1 1913 1914
3038 1 4226 4227
3039 1 4227 4228
3040 1 5050 5051
3041 1 5051 110
3042 1 2866 2867
3043 1 4229 4230
3044 1 2864 2865
3045 1 2865 2866
3046 1 5225 5226
3047 1 5224 5225
3048 1 4069 4070
3049 1 5223 5224
3050 1 4068 4069
3051 1 4485 4486
3052 1 2908 2909
3053 1 4066 4067
3054 1 4066 4087
3055 1 4067 4068
3056 1 5105 5106
3057 1 4087 4088
3058 1 5104 5105
3059 1 4954 4955
3060 1 4233 4234
3061 1 5131 5132
3062 1 5130 5131
3063 1 5130 5142
3064 1 5135 5136
3065 1 2958 2959
3066 1 4282 4283
3067 1 2957 2958
3068 1 4097 4098
3069 1 4098 4099
3070 1 3008 3009
3071 1 5134 5135
3072 1 5132 5133
3073 1 4015 4016
3074 1 2959 2960
3075 1 3010 3011
3076 1 3009 3010
3077 1 4030 4031
3078 1 4031 87
3079 1 87 4252
3080 1 87 4282
3081 1 5301 5302
3082 1 5300 5301
3083 1 4310 4311
3084 1 4252 4253
3085 1 5302 5303
3086 1 2972 2973
3087 1 4267 4268
3088 1 4268 4269
3089 1 3200 3201
3090 1 3267 3268
3091 1 3139 3140
3092 1 3140 3141
3093 1 3833 3834
3094 1 3141 85
3095 1 2971 2972
3096 1 4325 4326
3097 1 3260 3261
3098 1 2970 2971
3099 1 3079 3080
3100 1 3834 3835
3101 1 4172 4173
3102 1 3835 3836
3103 1 5185 5186
3104 1 4173 4174
3105 1 4450 4451
3106 1 2832 2833
3107 1 2833 2834
3108 1 4175 4176
3109 1 4448 4449
3110 1 4449 4450
3111 1 4174 4175
3112 1 5184 5185
3113 1 4201 4202
3114 1 4202 4203
3115 1 964 965
3116 1 4203 4204
3117 1 5183 5184
3118 1 4193 4194
3119 1 4195 4196
3120 1 965 966
3121 1 4400 4401
3122 1 5206 5207
3123 1 966 110
3124 1 5205 5206
3125 1 4483 4484
3126 1 4482 4483
3127 1 3365 3366
3128 1 4484 4485
3129 1 86 4222
3130 1 5222 5223
3131 1 3986 86
3132 1 4222 4223
3133 1 5207 5208
3134 1 5207 5222
3135 1 3985 3986
3136 1 5101 5102
3137 1 5103 5104
3138 1 5133 5134
3139 1 5102 5103
3140 1 4234 4235
3141 1 4235 4236
3142 1 4016 4017
3143 1 4016 4032
3144 1 4017 4018
3145 1 4033 4034
3146 1 3377 3378
3147 1 4099 4100
3148 1 3375 3376
3149 1 2960 2961
3150 1 3376 3377
3151 1 4311 4312
3152 1 4100 4101
3153 1 4280 4281
3154 1 3215 3216
3155 1 3214 3215
3156 1 3197 3198
3157 1 3213 3214
3158 1 3198 3199
3159 1 3198 3212
3160 1 4312 4313
3161 1 3212 3213
3162 1 4364 4365
3163 1 3268 3269
3164 1 3259 3260
3165 1 3259 3267
3166 1 3199 3200
3167 1 3228 3229
3168 1 3258 3259
3169 1 4161 4162
3170 1 4162 4163
3171 1 4317 4318
3172 1 3229 3230
3173 1 5188 5189
3174 1 4318 4319
3175 1 4326 4327
3176 1 5186 5187
3177 1 2834 2835
3178 1 3230 3231
3179 1 5187 5188
3180 1 90 4372
3181 1 90 4407
3182 1 90 4427
3183 1 2836 2837
3184 1 4327 4328
3185 1 4351 4352
3186 1 4352 4353
3187 1 2835 2836
3188 1 4427 4428
3189 1 4447 4448
3190 1 4429 4430
3191 1 4428 4429
3192 1 4428 4447
3193 1 3433 3434
3194 1 4420 4421
3195 1 4407 4408
3196 1 4452 4453
3197 1 4419 4420
3198 1 3434 3435
3199 1 4399 4400
3200 1 3302 3303
3201 1 3303 3304
3202 1 4398 4399
3203 1 4397 4398
3204 1 4380 4381
3205 1 4380 4397
3206 1 4565 4566
3207 1 4379 4380
3208 1 3304 3305
3209 1 4453 4454
3210 1 4463 4464
3211 1 4463 4482
3212 1 4564 4565
3213 1 4462 4463
3214 1 4381 4382
3215 1 4190 4191
3216 1 4191 86
3217 1 4382 4383
3218 1 4464 4465
3219 1 4563 4564
3220 1 4300 4301
3221 1 4562 4563
3222 1 4468 4469
3223 1 4468 4487
3224 1 4469 4470
3225 1 4034 4035
3226 1 4495 4496
3227 1 3378 3379
3228 1 4492 4493
3229 1 4494 4495
3230 1 4493 4494
3231 1 4032 4033
3232 1 4561 4562
3233 1 4561 4577
3234 1 4035 4036
3235 1 5141 112
3236 1 5139 5140
3237 1 5140 5141
3238 1 4365 4366
3239 1 4260 4261
3240 1 4363 4364
3241 1 4638 4639
3242 1 4262 4263
3243 1 4362 4363
3244 1 4163 4164
3245 1 4261 4262
3246 1 4612 4613
3247 1 4613 4614
3248 1 2495 2496
3249 1 4164 4165
3250 1 2494 2495
3251 1 4614 4615
3252 1 1090 1091
3253 1 4372 4373
3254 1 4615 4616
3255 1 4319 4320
3256 1 4320 4321
3257 1 4321 93
3258 1 3459 3460
3259 1 4373 4374
3260 1 4374 4375
3261 1 4165 4166
3262 1 4409 4410
3263 1 4408 4409
3264 1 4421 4422
3265 1 2548 2549
3266 1 2549 2550
3267 1 4422 4423
3268 1 4375 4376
3269 1 4376 4377
3270 1 4376 4392
3271 1 4423 4424
3272 1 4410 4411
3273 1 2547 2548
3274 1 3661 3662
3275 1 4392 4393
3276 1 4387 4388
3277 1 4387 4402
3278 1 3435 3436
3279 1 4377 4378
3280 1 4378 4379
3281 1 4412 4413
3282 1 4413 4414
3283 1 4404 4405
3284 1 4405 4406
3285 1 4414 4415
3286 1 4522 4523
3287 1 4385 4386
3288 1 4299 4300
3289 1 4488 4489
3290 1 4487 4488
3291 1 4523 4524
3292 1 4489 4490
3293 1 4296 4297
3294 1 4403 4404
3295 1 4298 4299
3296 1 4297 4298
3297 1 3379 3380
3298 1 4579 4580
3299 1 4577 4578
3300 1 4578 4579
3301 1 4524 4525
3302 1 3418 3419
3303 1 4641 4642
3304 1 4640 4641
3305 1 4639 4640
3306 1 3560 3561
3307 1 3560 3572
3308 1 4585 4586
3309 1 4584 4585
3310 1 4583 4584
3311 1 3561 3562
3312 1 3532 3533
3313 1 3531 3532
3314 1 3530 3531
3315 1 3656 3657
3316 1 3559 3560
3317 1 3659 3660
3318 1 3660 3661
3319 1 3637 3638
3320 1 3638 3639
3321 1 2496 2497
3322 1 3636 3637
3323 1 3460 3461
3324 1 2497 2498
3325 1 3586 3587
3326 1 3461 3462
3327 1 4771 4772
3328 1 4426 95
3329 1 3635 3636
3330 1 3663 3664
3331 1 4425 4426
3332 1 4424 4425
3333 1 3441 3442
3334 1 3662 3663
3335 1 3462 3463
3336 1 3440 3441
3337 1 3439 3440
3338 1 3587 3588
3339 1 3463 3464
3340 1 3438 3439
3341 1 3334 3335
3342 1 3475 3476
3343 1 3476 95
3344 1 95 4662
3345 1 4393 4394
3346 1 4662 4663
3347 1 3744 3745
3348 1 4663 4664
3349 1 3743 3744
3350 1 3737 3738
3351 1 3335 3336
3352 1 4293 4294
3353 1 3736 3737
3354 1 4490 4491
3355 1 4295 4296
3356 1 4294 4295
3357 1 3733 3734
3358 1 3735 3736
3359 1 4525 4526
3360 1 4752 4753
3361 1 4751 4752
3362 1 4813 4814
3363 1 4812 4813
3364 1 3578 3579
3365 1 4775 4776
3366 1 3652 3653
3367 1 3848 3849
3368 1 4772 4773
3369 1 3582 3583
3370 1 3582 3602
3371 1 3602 3603
3372 1 3847 3848
3373 1 3577 3578
3374 1 4774 4775
3375 1 4773 4774
3376 1 3562 3563
3377 1 3562 3577
3378 1 3563 3564
3379 1 3654 3655
3380 1 3844 3845
3381 1 3923 3924
3382 1 3583 3584
3383 1 3568 3569
3384 1 3845 3846
3385 1 3599 3600
3386 1 3584 3585
3387 1 3585 3586
3388 1 3600 3601
3389 1 3566 3567
3390 1 3601 75
3391 1 3565 3566
3392 1 3567 3568
3393 1 3922 3923
3394 1 4630 4631
3395 1 4630 4632
3396 1 3674 3675
3397 1 3921 3922
3398 1 4631 95
3399 1 3588 3589
3400 1 4629 4630
3401 1 3589 3590
3402 1 3589 3607
3403 1 3673 3674
3404 1 3672 3673
3405 1 3607 3608
3406 1 3742 3743
3407 1 3591 3592
3408 1 3590 3591
3409 1 3702 3703
3410 1 3490 3491
3411 1 3714 3715
3412 1 3700 3701
3413 1 3701 3702
3414 1 3489 3490
3415 1 3488 3489
3416 1 3503 3504
3417 1 3732 3733
3418 1 3758 3759
3419 1 3759 3760
3420 1 3712 3713
3421 1 3474 3475
3422 1 3473 3474
3423 1 3472 3473
3424 1 76 3712
3425 1 76 3732
3426 1 2631 76
3427 1 2630 2631
3428 1 72 3502
3429 1 3502 3503
3430 1 4940 4941
3431 1 4941 4942
3432 1 4114 4115
3433 1 4734 4735
3434 1 4755 4756
3435 1 4113 4114
3436 1 4754 4755
3437 1 4112 4113
3438 1 4950 4951
3439 1 4975 4976
3440 1 4756 4757
3441 1 4534 4535
3442 1 4790 4791
3443 1 3523 3524
3444 1 3775 3776
3445 1 3776 78
3446 1 4789 4790
3447 1 3797 3798
3448 1 4778 4779
3449 1 3796 3797
3450 1 3857 3858
3451 1 4779 4780
3452 1 4780 4781
3453 1 3798 3799
3454 1 3798 3807
3455 1 3858 3859
3456 1 3859 3860
3457 1 78 3812
3458 1 78 3837
3459 1 3812 3813
3460 1 3623 3624
3461 1 3623 3642
3462 1 3624 3625
3463 1 4819 4820
3464 1 4820 4821
3465 1 4818 4819
3466 1 3837 3838
3467 1 3837 3857
3468 1 3838 3839
3469 1 3642 3643
3470 1 4864 4865
3471 1 3924 3925
3472 1 3925 3926
3473 1 3817 3818
3474 1 3862 3863
3475 1 3863 3864
3476 1 2559 2560
3477 1 3816 3817
3478 1 3840 3841
3479 1 3815 3816
3480 1 3865 3866
3481 1 3864 3865
3482 1 2528 2529
3483 1 3694 3695
3484 1 3695 3696
3485 1 2529 2530
3486 1 4626 4627
3487 1 3715 3716
3488 1 3698 3699
3489 1 3716 3717
3490 1 3684 3685
3491 1 3696 3697
3492 1 3685 3686
3493 1 331 332
3494 1 330 331
3495 1 3697 3698
3496 1 3686 3687
3497 1 329 330
3498 1 329 347
3499 1 3717 3718
3500 1 3468 3469
3501 1 651 105
3502 1 4926 105
3503 1 105 5032
3504 1 3761 3762
3505 1 5032 5033
3506 1 3689 3690
3507 1 3690 3691
3508 1 3760 3761
3509 1 489 490
3510 1 3777 3778
3511 1 488 489
3512 1 4740 4741
3513 1 3691 80
3514 1 4737 4738
3515 1 3778 3779
3516 1 4738 4739
3517 1 4739 4740
3518 1 4974 4975
3519 1 5083 5084
3520 1 5082 5083
3521 1 3726 3727
3522 1 5084 5085
3523 1 4532 4533
3524 1 4953 4954
3525 1 4733 4734
3526 1 4732 4733
3527 1 4952 4953
3528 1 3792 3793
3529 1 3793 3794
3530 1 4951 4952
3531 1 3794 3795
3532 1 4072 4073
3533 1 3795 3796
3534 1 3852 3853
3535 1 4130 4131
3536 1 4131 4132
3537 1 4132 4133
3538 1 4129 4130
3539 1 3855 3856
3540 1 3853 3854
3541 1 3854 3855
3542 1 3940 3941
3543 1 3643 3644
3544 1 3644 3645
3545 1 3819 3820
3546 1 3821 3822
3547 1 3645 3646
3548 1 3818 3819
3549 1 3839 3840
3550 1 3958 3959
3551 1 3957 3958
3552 1 5250 5251
3553 1 3956 3957
3554 1 5249 5250
3555 1 3932 3933
3556 1 4900 4901
3557 1 3954 3955
3558 1 2530 2531
3559 1 3955 3956
3560 1 3933 3934
3561 1 3934 3935
3562 1 2531 56
3563 1 911 912
3564 1 5248 5249
3565 1 4899 4900
3566 1 3935 3936
3567 1 1916 56
3568 1 4916 4917
3569 1 4914 4915
3570 1 332 333
3571 1 3994 3995
3572 1 3718 3719
3573 1 4915 4916
3574 1 3995 3996
3575 1 3996 3997
3576 1 3719 3720
3577 1 334 335
3578 1 333 334
3579 1 1915 1916
3580 1 1915 1922
3581 1 3720 3721
3582 1 3964 3965
3583 1 492 493
3584 1 3762 3763
3585 1 3762 3777
3586 1 3993 3994
3587 1 1924 1925
3588 1 3763 3764
3589 1 494 495
3590 1 5033 5034
3591 1 5034 5035
3592 1 1925 1926
3593 1 493 494
3594 1 3780 3781
3595 1 4723 4724
3596 1 4723 4737
3597 1 3791 3792
3598 1 3779 3780
3599 1 4722 4723
3600 1 4722 4732
3601 1 4071 4072
3602 1 4980 4981
3603 1 4981 4982
3604 1 4070 4071
3605 1 3790 3791
3606 1 3790 3802
3607 1 3789 3790
3608 1 4982 4983
3609 1 5106 5107
3610 1 4062 4063
3611 1 5107 5108
3612 1 5109 5110
3613 1 5108 5109
3614 1 4092 4093
3615 1 4074 4075
3616 1 4074 4092
3617 1 4042 4043
3618 1 4073 4074
3619 1 82 4012
3620 1 82 4042
3621 1 82 4062
3622 1 5128 5129
3623 1 4075 4076
3624 1 5127 5128
3625 1 5129 5130
3626 1 4093 4094
3627 1 4103 4104
3628 1 4128 4129
3629 1 83 4102
3630 1 83 4127
3631 1 4102 4103
3632 1 4127 4128
3633 1 4155 4156
3634 1 4156 4157
3635 1 4136 4137
3636 1 4104 4105
3637 1 3904 3905
3638 1 3205 3206
3639 1 3204 3205
3640 1 3906 84
3641 1 3905 3906
3642 1 5159 5160
3643 1 84 4147
3644 1 3203 3204
3645 1 5160 5161
3646 1 5059 5060
3647 1 3913 3914
3648 1 3912 3913
3649 1 5158 5159
3650 1 5060 5061
3651 1 3960 3961
3652 1 3959 3960
3653 1 5157 5158
3654 1 3961 85
3655 1 3892 3893
3656 1 3892 3912
3657 1 5041 5042
3658 1 5041 5057
3659 1 5218 5219
3660 1 5217 5218
3661 1 5058 5059
3662 1 5039 5040
3663 1 5040 5041
3664 1 3894 3895
3665 1 3893 3894
3666 1 5247 5248
3667 1 5242 5243
3668 1 5242 5247
3669 1 5243 5244
3670 1 5241 5242
3671 1 2901 2902
3672 1 110 5197
3673 1 110 5227
3674 1 1923 1924
3675 1 4225 4226
3676 1 1922 1923
3677 1 5037 5038
3678 1 5038 5039
3679 1 2902 2903
3680 1 2903 2904
3681 1 5244 5245
3682 1 5227 5228
3683 1 2906 2907
3684 1 5095 5096
3685 1 5094 5095
3686 1 5093 5094
3687 1 2904 2905
3688 1 2905 2906
3689 1 5052 5053
3690 1 3788 3789
3691 1 5145 5146
3692 1 5143 5144
3693 1 2907 2908
3694 1 3802 3803
3695 1 4956 4957
3696 1 5142 5143
3697 1 4955 4956
3698 1 4240 4241
3699 1 5144 5145
3700 1 4957 4958
3701 1 3803 3804
3702 1 4076 4077
3703 1 4076 4097
3704 1 4012 4013
3705 1 4013 4014
3706 1 4959 4960
3707 1 4014 4015
3708 1 4077 4078
3709 1 717 718
3710 1 719 720
3711 1 5297 5298
3712 1 720 721
3713 1 4960 4961
3714 1 2931 82
3715 1 3202 3203
3716 1 5298 5299
3717 1 5274 5275
3718 1 4157 4158
3719 1 4253 4254
3720 1 4158 4159
3721 1 4254 4255
3722 1 4159 4160
3723 1 4255 4256
3724 1 5273 5274
3725 1 5273 5292
3726 1 5292 5293
3727 1 5293 5294
3728 1 3201 3202
3729 1 4148 4149
3730 1 5304 5305
3731 1 3261 3262
3732 1 3261 3272
3733 1 5305 5306
3734 1 3273 3274
3735 1 3272 3273
3736 1 5306 5307
3737 1 4147 4148
3738 1 3262 3263
3739 1 3274 3275
3740 1 4459 4460
3741 1 85 4172
3742 1 85 4197
3743 1 960 961
3744 1 4197 4198
3745 1 4169 4170
3746 1 4198 4199
3747 1 4433 4434
3748 1 4199 4200
3749 1 4199 4217
3750 1 3263 3264
3751 1 959 960
3752 1 4168 4169
3753 1 963 964
3754 1 962 963
3755 1 961 962
3756 1 4200 4201
3757 1 5182 5183
3758 1 5181 5182
3759 1 4432 4433
3760 1 4245 4246
3761 1 4244 4245
3762 1 4220 4221
3763 1 5198 5199
3764 1 5202 5203
3765 1 5203 5204
3766 1 5203 5217
3767 1 5204 5205
3768 1 4224 4225
3769 1 4224 4242
3770 1 4223 4224
3771 1 4242 4243
3772 1 5245 5246
3773 1 5246 115
3774 1 4243 4244
3775 1 5197 5198
3776 1 5209 5210
3777 1 4081 86
3778 1 5208 5209
3779 1 5228 5229
3780 1 5230 5231
3781 1 5229 5230
3782 1 5099 5100
3783 1 5098 5099
3784 1 3305 3306
3785 1 5100 5101
3786 1 5210 5211
3787 1 5232 5233
3788 1 4236 4237
3789 1 718 719
3790 1 4080 4081
3791 1 4238 4239
3792 1 4239 4240
3793 1 4958 4959
3794 1 4079 4080
3795 1 4078 4079
3796 1 4237 4238
3797 1 4237 4247
3798 1 4341 113
3799 1 4274 4275
3800 1 4275 4276
3801 1 4273 4274
3802 1 5374 5375
3803 1 5373 5374
3804 1 5299 5300
3805 1 4313 4314
3806 1 4256 4257
3807 1 4272 4273
3808 1 4258 4259
3809 1 4258 4272
3810 1 4257 4258
3811 1 5372 5373
3812 1 5372 5387
3813 1 5371 5372
3814 1 4368 4369
3815 1 4369 4370
3816 1 4370 4371
3817 1 4160 4161
3818 1 3275 3276
3819 1 4314 4315
3820 1 5189 5190
3821 1 4316 4317
3822 1 4315 4316
3823 1 5190 5191
3824 1 4329 4330
3825 1 5191 5192
3826 1 4330 4331
3827 1 4457 4458
3828 1 4328 4329
3829 1 3264 3265
3830 1 4439 4440
3831 1 4438 4439
3832 1 4350 4351
3833 1 4353 4354
3834 1 3265 3266
3835 1 4217 4218
3836 1 3266 89
3837 1 4458 4459
3838 1 4437 4438
3839 1 4437 4457
3840 1 4430 4431
3841 1 4430 4452
3842 1 4431 4432
3843 1 4355 4356
3844 1 4354 4355
3845 1 4218 4219
3846 1 4568 4569
3847 1 4356 4357
3848 1 4219 4220
3849 1 5445 5446
3850 1 4566 4567
3851 1 4418 4419
3852 1 4454 4455
3853 1 4455 4456
3854 1 4417 4418
3855 1 4567 4568
3856 1 4416 4417
3857 1 4465 4466
3858 1 4466 4467
3859 1 4474 4475
3860 1 4470 4471
3861 1 4470 4492
3862 1 4471 4472
3863 1 4471 4497
3864 1 4472 4473
3865 1 4497 4498
3866 1 4473 4474
3867 1 4467 4468
3868 1 4247 4248
3869 1 4248 4249
3870 1 4603 4604
3871 1 5390 5391
3872 1 5388 5389
3873 1 5389 5390
3874 1 4259 4260
3875 1 5387 5388
3876 1 4605 4606
3877 1 4604 4605
3878 1 4602 4603
3879 1 3550 3551
3880 1 4349 4350
3881 1 1088 1089
3882 1 4367 4368
3883 1 4348 4349
3884 1 4348 4367
3885 1 1089 1090
3886 1 4347 4348
3887 1 4347 4362
3888 1 4346 4347
3889 1 4609 4610
3890 1 4608 4609
3891 1 4607 4608
3892 1 4703 4704
3893 1 4610 4611
3894 1 4345 4346
3895 1 4344 4345
3896 1 89 4342
3897 1 4166 89
3898 1 4342 4343
3899 1 4343 4344
3900 1 17 1112
3901 1 1112 1113
3902 1 5444 5445
3903 1 4440 4441
3904 1 4441 4442
3905 1 5443 5444
3906 1 4569 4570
3907 1 5442 5443
3908 1 5426 5427
3909 1 2550 2551
3910 1 5427 5428
3911 1 5427 5442
3912 1 4664 4665
3913 1 4444 4445
3914 1 4442 4443
3915 1 4415 4416
3916 1 3437 3438
3917 1 3436 3437
3918 1 5428 5429
3919 1 4443 4444
3920 1 5429 5430
3921 1 173 174
3922 1 4932 4933
3923 1 4580 4581
3924 1 5430 5431
3925 1 172 173
3926 1 5431 5432
3927 1 4498 4499
3928 1 4499 4500
3929 1 4500 4501
3930 1 4587 4588
3931 1 4589 4590
3932 1 4588 4589
3933 1 4588 4602
3934 1 4700 4701
3935 1 3548 3549
3936 1 4586 4587
3937 1 4701 4702
3938 1 3549 3550
3939 1 3533 3534
3940 1 4642 4643
3941 1 3640 3641
3942 1 3639 3640
3943 1 3547 3548
3944 1 4702 4703
3945 1 3535 3536
3946 1 3641 99
3947 1 3534 3535
3948 1 3534 3547
3949 1 4596 4597
3950 1 3658 3659
3951 1 4617 4618
3952 1 4618 4619
3953 1 4616 4617
3954 1 3536 3537
3955 1 3657 3658
3956 1 2554 2555
3957 1 3537 3538
3958 1 3632 3633
3959 1 2555 2556
3960 1 2553 2554
3961 1 4597 4598
3962 1 4768 4769
3963 1 3634 3635
3964 1 3496 96
3965 1 2551 2552
3966 1 4619 4620
3967 1 3704 3705
3968 1 2552 2553
3969 1 1401 1402
3970 1 3705 3706
3971 1 3706 3707
3972 1 4621 4622
3973 1 4620 4621
3974 1 3703 3704
3975 1 3493 3494
3976 1 4933 4934
3977 1 3495 3496
3978 1 3494 3495
3979 1 4934 4935
3980 1 4935 4936
3981 1 4665 4666
3982 1 1402 1403
3983 1 3748 3749
3984 1 1403 1404
3985 1 4666 4667
3986 1 3745 3746
3987 1 3734 3735
3988 1 4937 4938
3989 1 171 172
3990 1 3747 3748
3991 1 3746 3747
3992 1 170 171
3993 1 4542 4543
3994 1 4543 4544
3995 1 4544 4545
3996 1 4526 4527
3997 1 4545 4546
3998 1 4527 4528
3999 1 4527 4542
4000 1 4550 4551
4001 1 4548 4549
4002 1 4549 4550
4003 1 4547 4548
4004 1 4905 4906
4005 1 4904 4905
4006 1 4539 4540
4007 1 4539 4547
4008 1 4753 4754
4009 1 4973 4974
4010 1 4535 4536
4011 1 3525 3526
4012 1 4801 4802
4013 1 4750 4751
4014 1 3524 3525
4015 1 4537 4538
4016 1 4972 4973
4017 1 4536 4537
4018 1 3579 3580
4019 1 4777 4778
4020 1 4777 4787
4021 1 4803 4804
4022 1 4803 4812
4023 1 4699 4700
4024 1 3809 3810
4025 1 3580 3581
4026 1 4802 4803
4027 1 4697 4698
4028 1 4698 4699
4029 1 3808 3809
4030 1 4804 4805
4031 1 3807 3808
4032 1 4776 4777
4033 1 3653 3654
4034 1 3813 3814
4035 1 3810 3811
4036 1 4805 4806
4037 1 4805 4817
4038 1 3655 3656
4039 1 4643 4644
4040 1 4644 4645
4041 1 4645 4646
4042 1 3814 3815
4043 1 3633 3634
4044 1 3633 3647
4045 1 3564 3565
4046 1 4770 4771
4047 1 75 3672
4048 1 75 3692
4049 1 4769 4770
4050 1 4646 4647
4051 1 3692 3693
4052 1 2556 75
4053 1 2556 2557
4054 1 2557 2558
4055 1 2558 2559
4056 1 3647 3648
4057 1 4625 4626
4058 1 3693 3694
4059 1 3650 3651
4060 1 1400 1401
4061 1 3649 3650
4062 1 3464 3465
4063 1 3648 3649
4064 1 4624 4625
4065 1 3465 3466
4066 1 1399 1400
4067 1 3492 3493
4068 1 3491 3492
4069 1 3713 3714
4070 1 4622 4623
4071 1 4623 4624
4072 1 3467 3468
4073 1 350 351
4074 1 3466 3467
4075 1 3609 3610
4076 1 3608 3609
4077 1 4006 4007
4078 1 347 348
4079 1 4007 4008
4080 1 3610 3611
4081 1 4936 4937
4082 1 349 350
4083 1 4008 4009
4084 1 348 349
4085 1 3729 3730
4086 1 4938 4939
4087 1 4939 4940
4088 1 3728 3729
4089 1 3727 3728
4090 1 4749 4750
4091 1 5085 5086
4092 1 4528 4529
4093 1 4944 4945
4094 1 4942 4943
4095 1 4529 4530
4096 1 4943 4944
4097 1 4530 4531
4098 1 4903 4904
4099 1 4748 4749
4100 1 4949 4950
4101 1 4948 4949
4102 1 4533 4534
4103 1 4947 4948
4104 1 5088 5089
4105 1 4696 4697
4106 1 4696 4707
4107 1 4707 4708
4108 1 4757 4758
4109 1 523 524
4110 1 5089 5090
4111 1 4111 4112
4112 1 4110 4111
4113 1 1322 1323
4114 1 1321 1322
4115 1 4109 4110
4116 1 4109 4122
4117 1 5003 5004
4118 1 3860 3861
4119 1 4695 4696
4120 1 222 223
4121 1 3625 3626
4122 1 4122 4123
4123 1 4108 4109
4124 1 242 243
4125 1 4829 4830
4126 1 4123 4124
4127 1 4124 4125
4128 1 4828 4829
4129 1 2 197
4130 1 2 222
4131 1 2 242
4132 1 2560 2561
4133 1 4863 4864
4134 1 4857 4858
4135 1 4857 4862
4136 1 4858 4859
4137 1 4862 4863
4138 1 4859 4860
4139 1 642 643
4140 1 377 378
4141 1 376 377
4142 1 4125 4126
4143 1 378 379
4144 1 4860 4861
4145 1 4860 4867
4146 1 4867 4868
4147 1 4004 4005
4148 1 373 374
4149 1 4003 4004
4150 1 374 375
4151 1 4002 4003
4152 1 1160 1161
4153 1 591 592
4154 1 4868 4869
4155 1 590 591
4156 1 592 593
4157 1 3687 3688
4158 1 4913 4914
4159 1 372 373
4160 1 622 623
4161 1 328 329
4162 1 621 622
4163 1 327 328
4164 1 4 327
4165 1 4 352
4166 1 4 372
4167 1 4911 4912
4168 1 4912 4913
4169 1 620 621
4170 1 1159 1160
4171 1 352 353
4172 1 3688 3689
4173 1 3724 3725
4174 1 3725 3726
4175 1 1667 1668
4176 1 4885 4886
4177 1 4884 4885
4178 1 1666 1667
4179 1 487 488
4180 1 4886 4887
4181 1 4727 4728
4182 1 353 354
4183 1 4726 4727
4184 1 5063 5064
4185 1 4725 4726
4186 1 5062 5063
4187 1 5062 5082
4188 1 4991 106
4189 1 4758 4759
4190 1 106 5062
4191 1 4011 106
4192 1 525 526
4193 1 4721 4722
4194 1 140 141
4195 1 5087 5088
4196 1 5064 5065
4197 1 5064 5087
4198 1 5090 5091
4199 1 4045 4046
4200 1 4046 4047
4201 1 4047 4048
4202 1 497 498
4203 1 4720 4721
4204 1 4719 4720
4205 1 5111 5112
4206 1 4133 4134
4207 1 4134 4135
4208 1 3856 103
4209 1 5004 5005
4210 1 103 4992
4211 1 729 730
4212 1 4992 4993
4213 1 4781 103
4214 1 728 729
4215 1 4865 4866
4216 1 4107 4108
4217 1 4993 4994
4218 1 4830 4831
4219 1 4106 4107
4220 1 4994 4995
4221 1 3902 3903
4222 1 3914 3915
4223 1 4831 4832
4224 1 5015 5016
4225 1 5014 5015
4226 1 4832 4833
4227 1 5012 5013
4228 1 5013 5014
4229 1 4833 4834
4230 1 4834 4835
4231 1 375 376
4232 1 104 5012
4233 1 4861 104
4234 1 4001 4002
4235 1 3936 104
4236 1 4898 4899
4237 1 3999 4000
4238 1 4000 4001
4239 1 4835 4836
4240 1 4879 4880
4241 1 606 104
4242 1 4878 4879
4243 1 912 913
4244 1 4897 4898
4245 1 913 914
4246 1 915 916
4247 1 623 624
4248 1 914 915
4249 1 335 336
4250 1 4880 4881
4251 1 4880 4897
4252 1 624 625
4253 1 336 337
4254 1 625 626
4255 1 625 627
4256 1 3721 3722
4257 1 627 628
4258 1 3723 3724
4259 1 3722 3723
4260 1 4883 4884
4261 1 495 496
4262 1 4052 4053
4263 1 4051 4052
4264 1 9 672
4265 1 496 9
4266 1 4053 4054
4267 1 411 9
4268 1 626 9
4269 1 4724 4725
4270 1 4050 4051
4271 1 4983 4984
4272 1 4984 4985
4273 1 5066 5067
4274 1 4049 4050
4275 1 4048 4049
4276 1 5065 5066
4277 1 5079 5080
4278 1 5080 5081
4279 1 5067 5068
4280 1 5081 111
4281 1 4043 4044
4282 1 5126 5127
4283 1 5112 5113
4284 1 5110 5111
4285 1 5254 5255
4286 1 5253 5254
4287 1 752 753
4288 1 753 754
4289 1 498 499
4290 1 3804 3805
4291 1 5278 5279
4292 1 4044 4045
4293 1 4135 4136
4294 1 10 697
4295 1 10 727
4296 1 10 752
4297 1 4154 4155
4298 1 4137 4138
4299 1 727 728
4300 1 697 698
4301 1 5009 5010
4302 1 4153 4154
4303 1 882 883
4304 1 4105 4106
4305 1 3903 3904
4306 1 4152 4153
4307 1 5163 5164
4308 1 5162 5163
4309 1 5161 5162
4310 1 4151 4152
4311 1 5153 5154
4312 1 4150 4151
4313 1 3895 3896
4314 1 5016 5017
4315 1 5156 5157
4316 1 5018 5019
4317 1 5155 5156
4318 1 5155 5167
4319 1 5017 5018
4320 1 5154 5155
4321 1 547 548
4322 1 548 549
4323 1 3896 3897
4324 1 3897 3898
4325 1 5167 5168
4326 1 5019 5020
4327 1 910 911
4328 1 3915 3916
4329 1 5168 5169
4330 1 5021 5022
4331 1 5022 5023
4332 1 5169 5170
4333 1 5170 5171
4334 1 5036 5037
4335 1 3998 3999
4336 1 3997 3998
4337 1 5200 5201
4338 1 5199 5200
4339 1 909 910
4340 1 908 909
4341 1 907 908
4342 1 4056 4057
4343 1 4055 4056
4344 1 945 946
4345 1 628 629
4346 1 5092 5093
4347 1 5035 5036
4348 1 5035 5052
4349 1 5069 5070
4350 1 4054 4055
4351 1 5054 5055
4352 1 5053 5054
4353 1 5214 5215
4354 1 5213 5214
4355 1 5215 5216
4356 1 5055 5056
4357 1 5068 5069
4358 1 5068 5092
4359 1 4241 111
4360 1 499 500
4361 1 500 501
4362 1 111 5252
4363 1 5252 5253
4364 1 5216 111
4365 1 705 706
4366 1 704 705
4367 1 5276 5277
4368 1 5277 5278
4369 1 4961 4962
4370 1 5255 5256
4371 1 701 702
4372 1 5125 5126
4373 1 700 701
4374 1 699 700
4375 1 5256 5257
4376 1 5124 5125
4377 1 4962 4963
4378 1 998 999
4379 1 5275 5276
4380 1 5272 5273
4381 1 4138 4139
4382 1 4141 4142
4383 1 698 699
4384 1 803 804
4385 1 4140 4141
4386 1 4139 4140
4387 1 804 805
4388 1 5294 5295
4389 1 805 806
4390 1 1108 1109
4391 1 4149 4150
4392 1 4149 4167
4393 1 5152 5153
4394 1 883 884
4395 1 884 885
4396 1 4460 4461
4397 1 5307 5308
4398 1 885 886
4399 1 5309 5310
4400 1 5308 5309
4401 1 889 890
4402 1 4170 4171
4403 1 4167 4168
4404 1 5310 5311
4405 1 5020 5021
4406 1 5177 5178
4407 1 5195 5196
4408 1 958 959
4409 1 957 958
4410 1 5178 5179
4411 1 5240 5241
4412 1 5239 5240
4413 1 5238 5239
4414 1 5180 5181
4415 1 5179 5180
4416 1 4360 4361
4417 1 4361 114
4418 1 4359 4360
4419 1 4358 4359
4420 1 5023 5024
4421 1 1200 1201
4422 1 5201 5202
4423 1 115 5337
4424 1 5337 5338
4425 1 5237 5238
4426 1 5236 5237
4427 1 4057 4058
4428 1 5235 5236
4429 1 5212 5213
4430 1 5211 5212
4431 1 1186 115
4432 1 5231 5232
4433 1 1185 1186
4434 1 4059 4060
4435 1 4060 4061
4436 1 5233 5234
4437 1 4061 107
4438 1 1056 1057
4439 1 5070 5071
4440 1 5071 5072
4441 1 5097 5098
4442 1 501 502
4443 1 3805 3806
4444 1 702 703
4445 1 702 717
4446 1 703 704
4447 1 1057 1058
4448 1 5123 5124
4449 1 5122 5123
4450 1 107 5097
4451 1 107 5122
4452 1 4966 107
4453 1 4340 4341
4454 1 5375 5376
4455 1 113 5272
4456 1 113 5297
4457 1 995 996
4458 1 996 997
4459 1 997 998
4460 1 4963 4964
4461 1 4963 4967
4462 1 5376 5377
4463 1 4964 4965
4464 1 5377 5378
4465 1 4338 4339
4466 1 5368 5369
4467 1 999 1000
4468 1 1109 1110
4469 1 5378 5379
4470 1 1111 113
4471 1 1110 1111
4472 1 5295 5296
4473 1 324 325
4474 1 781 782
4475 1 5369 5370
4476 1 323 324
4477 1 5379 5380
4478 1 5370 5371
4479 1 322 323
4480 1 782 783
4481 1 5311 5312
4482 1 5192 5193
4483 1 325 326
4484 1 5325 5326
4485 1 4331 4332
4486 1 251 252
4487 1 4332 4333
4488 1 326 22
4489 1 1337 1338
4490 1 4434 4435
4491 1 5193 5194
4492 1 5194 5195
4493 1 4436 4437
4494 1 1344 1345
4495 1 1345 1346
4496 1 1343 1344
4497 1 1193 1194
4498 1 5196 114
4499 1 5312 5313
4500 1 4435 4436
4501 1 4674 4675
4502 1 1195 1196
4503 1 1194 1195
4504 1 5360 5361
4505 1 4445 4446
4506 1 4446 115
4507 1 5338 5339
4508 1 1252 1253
4509 1 4357 4358
4510 1 5357 5358
4511 1 5340 5341
4512 1 5341 5342
4513 1 5339 5340
4514 1 5359 5360
4515 1 5358 5359
4516 1 5234 5235
4517 1 4475 4476
4518 1 4476 4477
4519 1 5343 5344
4520 1 4478 4479
4521 1 1314 1315
4522 1 4339 4340
4523 1 4249 4250
4524 1 4250 4251
4525 1 1315 1316
4526 1 4965 4966
4527 1 1007 1008
4528 1 520 521
4529 1 994 995
4530 1 4337 4338
4531 1 4336 4337
4532 1 1278 1279
4533 1 993 994
4534 1 991 992
4535 1 1279 1280
4536 1 992 993
4537 1 4335 4336
4538 1 4334 4335
4539 1 321 322
4540 1 4333 4334
4541 1 249 250
4542 1 250 251
4543 1 1329 1330
4544 1 1330 1331
4545 1 5324 5325
4546 1 1087 1088
4547 1 1078 1079
4548 1 1078 1087
4549 1 1079 1080
4550 1 4601 118
4551 1 1080 1081
4552 1 4600 4601
4553 1 4600 4607
4554 1 4599 4600
4555 1 1340 1341
4556 1 1340 1362
4557 1 5323 5324
4558 1 1113 1114
4559 1 1342 1343
4560 1 1362 1363
4561 1 1341 1342
4562 1 5322 5323
4563 1 1114 1115
4564 1 1132 1133
4565 1 5321 5322
4566 1 3539 3540
4567 1 3540 3541
4568 1 5423 5424
4569 1 5425 5426
4570 1 5424 5425
4571 1 4570 4571
4572 1 4673 4674
4573 1 3541 3542
4574 1 4672 4673
4575 1 4571 96
4576 1 5422 5423
4577 1 5421 5422
4578 1 1257 1258
4579 1 1258 1259
4580 1 5342 5343
4581 1 5342 5357
4582 1 4671 4672
4583 1 1244 1245
4584 1 1244 1257
4585 1 4670 4671
4586 1 4931 4932
4587 1 4669 4670
4588 1 4930 4931
4589 1 5432 5433
4590 1 5345 5346
4591 1 5433 5434
4592 1 5344 5345
4593 1 4668 4669
4594 1 1165 1166
4595 1 5346 5347
4596 1 5347 5348
4597 1 1277 1278
4598 1 1276 1277
4599 1 1313 1314
4600 1 1275 1276
4601 1 1274 1275
4602 1 4538 4539
4603 1 4799 4800
4604 1 187 188
4605 1 188 189
4606 1 186 187
4607 1 4798 4799
4608 1 4797 4798
4609 1 1456 121
4610 1 184 185
4611 1 185 186
4612 1 1280 1281
4613 1 1326 1327
4614 1 1077 1078
4615 1 1328 1329
4616 1 1327 1328
4617 1 1075 1076
4618 1 1076 1077
4619 1 4823 4824
4620 1 4590 4591
4621 1 4822 4823
4622 1 4824 4825
4623 1 4591 4592
4624 1 1074 1075
4625 1 4810 4811
4626 1 4809 4810
4627 1 99 4822
4628 1 99 4842
4629 1 4705 4706
4630 1 4704 4705
4631 1 248 249
4632 1 4842 4843
4633 1 247 248
4634 1 246 247
4635 1 4598 4599
4636 1 4764 4765
4637 1 4808 4809
4638 1 4595 4596
4639 1 4706 98
4640 1 3538 3539
4641 1 4843 4844
4642 1 3629 3630
4643 1 3631 3632
4644 1 3630 3631
4645 1 1363 1364
4646 1 1364 1365
4647 1 1365 1366
4648 1 1134 1135
4649 1 4765 4766
4650 1 4765 4782
4651 1 4766 4767
4652 1 4844 4845
4653 1 5412 5413
4654 1 1260 1261
4655 1 4650 4651
4656 1 1259 1260
4657 1 3707 3708
4658 1 3751 96
4659 1 3708 3709
4660 1 3709 3710
4661 1 1444 1445
4662 1 4651 4652
4663 1 174 175
4664 1 4929 4930
4665 1 3750 3751
4666 1 3749 3750
4667 1 1404 1405
4668 1 175 176
4669 1 1445 1446
4670 1 176 5
4671 1 5 392
4672 1 5 422
4673 1 1405 1406
4674 1 1406 1407
4675 1 670 671
4676 1 5348 5349
4677 1 5434 5435
4678 1 169 170
4679 1 4667 4668
4680 1 1163 1164
4681 1 3730 3731
4682 1 1162 1163
4683 1 1164 1165
4684 1 3731 101
4685 1 101 4927
4686 1 669 670
4687 1 4927 4928
4688 1 168 169
4689 1 189 190
4690 1 190 191
4691 1 5435 5436
4692 1 4540 4541
4693 1 5436 121
4694 1 4541 117
4695 1 117 5362
4696 1 516 102
4697 1 4946 121
4698 1 4800 4801
4699 1 102 4947
4700 1 102 4972
4701 1 3801 102
4702 1 4708 4709
4703 1 4710 4711
4704 1 4709 4710
4705 1 135 136
4706 1 4945 4946
4707 1 1325 1326
4708 1 3800 3801
4709 1 4693 4694
4710 1 1324 1325
4711 1 3799 3800
4712 1 4694 4695
4713 1 4592 4593
4714 1 4593 4594
4715 1 1323 1324
4716 1 4817 4818
4717 1 4806 4807
4718 1 3626 3627
4719 1 243 244
4720 1 4807 4808
4721 1 244 245
4722 1 245 246
4723 1 4594 4595
4724 1 3627 3628
4725 1 3628 3629
4726 1 4827 4828
4727 1 5401 5402
4728 1 5403 5404
4729 1 4826 4827
4730 1 5402 5403
4731 1 4647 4648
4732 1 643 644
4733 1 4648 4649
4734 1 4767 4768
4735 1 4869 4870
4736 1 5413 5414
4737 1 220 221
4738 1 4005 4006
4739 1 644 645
4740 1 1161 23
4741 1 4649 4650
4742 1 645 646
4743 1 1398 1399
4744 1 1397 1398
4745 1 646 647
4746 1 5414 5415
4747 1 5415 5416
4748 1 23 1397
4749 1 23 1417
4750 1 1446 1447
4751 1 1447 1448
4752 1 647 648
4753 1 619 620
4754 1 649 650
4755 1 649 667
4756 1 648 649
4757 1 1668 1669
4758 1 345 346
4759 1 392 393
4760 1 650 651
4761 1 4009 4010
4762 1 4890 4891
4763 1 4889 4890
4764 1 1448 1449
4765 1 667 668
4766 1 4010 4011
4767 1 668 669
4768 1 486 487
4769 1 1449 1450
4770 1 4887 4888
4771 1 485 486
4772 1 1450 1451
4773 1 4761 117
4774 1 167 168
4775 1 4902 4903
4776 1 4888 4889
4777 1 4888 4902
4778 1 4531 4532
4779 1 4759 4760
4780 1 166 167
4781 1 4745 4746
4782 1 4747 4748
4783 1 4760 4761
4784 1 4746 4747
4785 1 1285 1286
4786 1 818 819
4787 1 818 837
4788 1 139 140
4789 1 138 139
4790 1 837 838
4791 1 838 839
4792 1 839 840
4793 1 97 4687
4794 1 97 4712
4795 1 97 4742
4796 1 1282 1283
4797 1 4689 4690
4798 1 4998 4999
4799 1 5002 5003
4800 1 4691 4692
4801 1 5001 5002
4802 1 5000 5001
4803 1 4692 4693
4804 1 4690 4691
4805 1 4997 4998
4806 1 223 224
4807 1 226 227
4808 1 4856 4857
4809 1 197 198
4810 1 4853 4854
4811 1 4855 4856
4812 1 198 199
4813 1 200 201
4814 1 4854 4855
4815 1 4996 4997
4816 1 263 264
4817 1 199 200
4818 1 199 217
4819 1 216 3
4820 1 1420 1421
4821 1 380 381
4822 1 3 262
4823 1 3 287
4824 1 3 307
4825 1 262 263
4826 1 640 641
4827 1 641 642
4828 1 379 380
4829 1 1419 1420
4830 1 307 308
4831 1 1418 1419
4832 1 4840 4841
4833 1 4876 4877
4834 1 341 342
4835 1 4839 4840
4836 1 4875 4876
4837 1 342 343
4838 1 593 594
4839 1 4877 4878
4840 1 594 595
4841 1 617 618
4842 1 340 341
4843 1 4874 4875
4844 1 595 596
4845 1 4910 4911
4846 1 1158 1159
4847 1 281 4
4848 1 596 597
4849 1 4909 4910
4850 1 279 280
4851 1 280 281
4852 1 597 598
4853 1 618 619
4854 1 397 398
4855 1 1665 1666
4856 1 482 483
4857 1 354 355
4858 1 396 397
4859 1 356 357
4860 1 1664 1665
4861 1 483 484
4862 1 355 356
4863 1 484 485
4864 1 1663 1664
4865 1 4988 4989
4866 1 412 413
4867 1 4728 4729
4868 1 524 525
4869 1 522 523
4870 1 4743 4744
4871 1 509 510
4872 1 4744 4745
4873 1 4742 4743
4874 1 4989 4990
4875 1 4990 4991
4876 1 511 512
4877 1 510 511
4878 1 510 522
4879 1 408 409
4880 1 6 457
4881 1 6 477
4882 1 6 497
4883 1 817 818
4884 1 141 6
4885 1 457 458
4886 1 797 798
4887 1 11 772
4888 1 11 797
4889 1 11 817
4890 1 508 509
4891 1 798 799
4892 1 458 459
4893 1 772 773
4894 1 5005 5006
4895 1 819 820
4896 1 1781 1782
4897 1 5006 5007
4898 1 1780 1781
4899 1 734 735
4900 1 733 734
4901 1 820 821
4902 1 732 733
4903 1 821 822
4904 1 822 823
4905 1 773 774
4906 1 266 267
4907 1 4995 4996
4908 1 730 731
4909 1 3901 3902
4910 1 225 226
4911 1 731 732
4912 1 265 266
4913 1 665 666
4914 1 664 665
4915 1 5175 5176
4916 1 224 225
4917 1 569 570
4918 1 663 664
4919 1 662 663
4920 1 2019 2020
4921 1 264 265
4922 1 639 640
4923 1 639 662
4924 1 587 588
4925 1 588 589
4926 1 638 639
4927 1 2020 2021
4928 1 637 638
4929 1 636 637
4930 1 589 590
4931 1 2024 2025
4932 1 4836 4837
4933 1 2022 2023
4934 1 4838 4839
4935 1 4837 4838
4936 1 604 605
4937 1 2023 2024
4938 1 605 606
4939 1 657 658
4940 1 658 659
4941 1 2026 38
4942 1 337 338
4943 1 916 14
4944 1 338 339
4945 1 4881 4882
4946 1 2025 2026
4947 1 598 599
4948 1 339 340
4949 1 14 967
4950 1 660 661
4951 1 2062 2063
4952 1 4882 4883
4953 1 1940 1941
4954 1 967 968
4955 1 481 482
4956 1 771 14
4957 1 2063 2064
4958 1 480 481
4959 1 672 673
4960 1 4985 4986
4961 1 4986 4987
4962 1 4987 4988
4963 1 4718 4719
4964 1 410 411
4965 1 407 408
4966 1 409 410
4967 1 477 478
4968 1 4717 4718
4969 1 478 479
4970 1 479 480
4971 1 4716 4717
4972 1 5078 5079
4973 1 5077 5078
4974 1 4715 4716
4975 1 5076 5077
4976 1 5113 5114
4977 1 754 755
4978 1 505 506
4979 1 5114 5115
4980 1 799 800
4981 1 800 801
4982 1 5115 5116
4983 1 5116 108
4984 1 5116 5117
4985 1 1061 1062
4986 1 504 505
4987 1 735 736
4988 1 5279 5280
4989 1 801 802
4990 1 5008 5009
4991 1 5007 5008
4992 1 881 882
4993 1 823 824
4994 1 5010 5011
4995 1 5280 5281
4996 1 792 793
4997 1 774 775
4998 1 775 776
4999 1 775 792
5000 1 776 777
5001 1 880 881
5002 1 5011 108
5003 1 878 879
5004 1 5164 5165
5005 1 5174 5175
5006 1 5173 5174
5007 1 5172 5173
5008 1 879 880
5009 1 5165 5166
5010 1 5165 5172
5011 1 3900 3901
5012 1 2016 2017
5013 1 5150 5151
5014 1 1881 1882
5015 1 1882 1883
5016 1 2018 2019
5017 1 5166 109
5018 1 567 568
5019 1 2017 2018
5020 1 563 564
5021 1 3899 3900
5022 1 568 569
5023 1 564 565
5024 1 7 527
5025 1 7 547
5026 1 7 567
5027 1 7 587
5028 1 3898 3899
5029 1 952 953
5030 1 634 635
5031 1 635 636
5032 1 635 657
5033 1 530 531
5034 1 1880 1881
5035 1 953 954
5036 1 527 528
5037 1 528 529
5038 1 529 530
5039 1 954 955
5040 1 5024 5025
5041 1 5025 5026
5042 1 2110 2111
5043 1 629 630
5044 1 630 631
5045 1 659 660
5046 1 5266 5267
5047 1 5267 5268
5048 1 905 906
5049 1 906 907
5050 1 904 905
5051 1 5268 5269
5052 1 5269 5270
5053 1 1941 1942
5054 1 673 674
5055 1 674 675
5056 1 968 969
5057 1 5265 5266
5058 1 970 971
5059 1 5072 5073
5060 1 969 970
5061 1 5264 5265
5062 1 5073 5074
5063 1 707 708
5064 1 708 709
5065 1 748 749
5066 1 706 707
5067 1 5075 5076
5068 1 755 756
5069 1 750 751
5070 1 1062 1063
5071 1 749 750
5072 1 503 504
5073 1 5074 5075
5074 1 502 503
5075 1 502 517
5076 1 756 757
5077 1 802 803
5078 1 5257 5258
5079 1 1060 1061
5080 1 5258 5259
5081 1 1023 1024
5082 1 1022 1023
5083 1 4144 4145
5084 1 4143 4144
5085 1 1021 1022
5086 1 5148 5149
5087 1 2295 2296
5088 1 2294 2295
5089 1 4142 4143
5090 1 1019 1020
5091 1 108 5147
5092 1 778 779
5093 1 5147 5148
5094 1 1020 1021
5095 1 777 778
5096 1 779 780
5097 1 806 807
5098 1 807 808
5099 1 886 887
5100 1 5151 5152
5101 1 5149 5150
5102 1 887 888
5103 1 552 553
5104 1 551 552
5105 1 888 889
5106 1 550 551
5107 1 808 809
5108 1 1174 1175
5109 1 549 550
5110 1 1368 1369
5111 1 891 109
5112 1 956 957
5113 1 5031 109
5114 1 109 5177
5115 1 890 891
5116 1 1173 1174
5117 1 5290 5291
5118 1 1172 1173
5119 1 955 956
5120 1 565 566
5121 1 114 5317
5122 1 5291 114
5123 1 1197 1198
5124 1 1199 1200
5125 1 1198 1199
5126 1 566 12
5127 1 1238 1239
5128 1 1239 1240
5129 1 1239 1252
5130 1 1235 1236
5131 1 5270 5271
5132 1 4058 4059
5133 1 5271 116
5134 1 944 945
5135 1 1237 1238
5136 1 1236 1237
5137 1 933 934
5138 1 933 942
5139 1 942 943
5140 1 943 944
5141 1 1181 1182
5142 1 932 933
5143 1 5263 5264
5144 1 971 972
5145 1 1182 1183
5146 1 1184 1185
5147 1 1183 1184
5148 1 972 973
5149 1 1055 1056
5150 1 1054 1055
5151 1 1027 1028
5152 1 5260 5261
5153 1 1058 1059
5154 1 1059 1060
5155 1 973 974
5156 1 1025 1026
5157 1 1026 1027
5158 1 1024 1025
5159 1 518 519
5160 1 5259 5260
5161 1 517 518
5162 1 757 758
5163 1 758 759
5164 1 759 760
5165 1 519 520
5166 1 256 257
5167 1 723 724
5168 1 4967 4968
5169 1 1000 1001
5170 1 1000 1007
5171 1 1013 1014
5172 1 724 725
5173 1 255 256
5174 1 1014 1015
5175 1 4968 4969
5176 1 1012 1013
5177 1 1015 1016
5178 1 2293 2294
5179 1 725 726
5180 1 988 989
5181 1 4969 4970
5182 1 780 781
5183 1 252 253
5184 1 253 254
5185 1 254 255
5186 1 5329 5330
5187 1 5328 5329
5188 1 1106 1107
5189 1 4970 4971
5190 1 786 787
5191 1 787 788
5192 1 1107 1108
5193 1 783 784
5194 1 5326 5327
5195 1 1105 1106
5196 1 784 785
5197 1 785 786
5198 1 22 1337
5199 1 22 1367
5200 1 5314 5315
5201 1 1338 1339
5202 1 5327 5328
5203 1 1367 1368
5204 1 4675 4676
5205 1 5289 5290
5206 1 1170 1171
5207 1 5313 5314
5208 1 1119 1120
5209 1 1346 1347
5210 1 1171 1172
5211 1 1171 1192
5212 1 1192 1193
5213 1 1347 1348
5214 1 1118 1119
5215 1 1117 1118
5216 1 1241 1242
5217 1 5439 5440
5218 1 5438 5439
5219 1 5437 5438
5220 1 5317 5318
5221 1 5318 5319
5222 1 1240 1241
5223 1 1249 1250
5224 1 1348 1349
5225 1 5319 5320
5226 1 1253 1254
5227 1 4480 4481
5228 1 1242 1243
5229 1 1254 1255
5230 1 1255 1256
5231 1 4481 116
5232 1 1251 116
5233 1 1250 1251
5234 1 1029 1030
5235 1 1029 1042
5236 1 1227 1228
5237 1 4479 4480
5238 1 4477 4478
5239 1 1030 1031
5240 1 1214 1215
5241 1 1214 1227
5242 1 1312 1313
5243 1 975 976
5244 1 976 977
5245 1 1213 1214
5246 1 2213 2214
5247 1 1096 1097
5248 1 974 975
5249 1 1009 1010
5250 1 1010 1011
5251 1 1008 1009
5252 1 1097 1098
5253 1 1098 1099
5254 1 257 258
5255 1 259 260
5256 1 5367 5368
5257 1 1001 1002
5258 1 1001 1012
5259 1 1002 1003
5260 1 1003 1004
5261 1 1101 1102
5262 1 5366 5367
5263 1 5366 5382
5264 1 5365 5366
5265 1 1100 1101
5266 1 5364 5365
5267 1 989 990
5268 1 1099 1100
5269 1 5382 5383
5270 1 1332 1333
5271 1 5380 5381
5272 1 320 321
5273 1 1102 1103
5274 1 990 991
5275 1 5383 5384
5276 1 1103 1104
5277 1 1331 1332
5278 1 5381 118
5279 1 5394 5395
5280 1 5393 5394
5281 1 5396 5397
5282 1 4811 118
5283 1 5397 5398
5284 1 1081 1082
5285 1 5315 5316
5286 1 3545 3546
5287 1 5395 5396
5288 1 5316 118
5289 1 3546 98
5290 1 1339 1340
5291 1 1339 1357
5292 1 4678 4679
5293 1 1115 1116
5294 1 1115 1132
5295 1 1116 1117
5296 1 4676 4677
5297 1 4677 4678
5298 1 1357 1358
5299 1 1350 1351
5300 1 3544 3545
5301 1 3543 3544
5302 1 1358 1359
5303 1 1349 1350
5304 1 1351 1352
5305 1 5411 120
5306 1 5420 5421
5307 1 1248 1249
5308 1 3542 3543
5309 1 1247 1248
5310 1 5419 5420
5311 1 5419 5437
5312 1 5320 5321
5313 1 1245 1246
5314 1 1246 1247
5315 1 1243 1244
5316 1 4660 4661
5317 1 5417 5418
5318 1 5418 5419
5319 1 424 425
5320 1 1297 1298
5321 1 4659 4660
5322 1 1299 1300
5323 1 1212 1213
5324 1 1298 1299
5325 1 1032 1033
5326 1 1720 1721
5327 1 1300 1301
5328 1 1300 1312
5329 1 1211 1212
5330 1 1273 1274
5331 1 1719 1720
5332 1 1303 1304
5333 1 1222 1223
5334 1 1225 1226
5335 1 1224 1225
5336 1 1301 1302
5337 1 1210 1211
5338 1 1210 1222
5339 1 1223 1224
5340 1 1302 1303
5341 1 1070 1071
5342 1 260 261
5343 1 183 184
5344 1 1005 1006
5345 1 1004 1005
5346 1 4796 4797
5347 1 1071 1072
5348 1 1006 20
5349 1 1072 1073
5350 1 1073 1074
5351 1 180 181
5352 1 5385 5386
5353 1 316 317
5354 1 4795 4796
5355 1 261 21
5356 1 317 318
5357 1 4793 4794
5358 1 4794 4795
5359 1 319 320
5360 1 318 319
5361 1 1281 21
5362 1 21 1317
5363 1 1086 21
5364 1 5398 5399
5365 1 314 315
5366 1 313 314
5367 1 5399 5400
5368 1 1085 1086
5369 1 5400 5401
5370 1 4792 4793
5371 1 1082 1083
5372 1 4762 4763
5373 1 98 4762
5374 1 98 4792
5375 1 1083 1084
5376 1 1084 1085
5377 1 4763 4764
5378 1 4846 4847
5379 1 4845 4846
5380 1 4847 4848
5381 1 1352 1353
5382 1 1135 1136
5383 1 311 312
5384 1 1133 1134
5385 1 1360 1361
5386 1 1359 1360
5387 1 5407 5408
5388 1 4783 4784
5389 1 4782 4783
5390 1 1151 1152
5391 1 4654 4655
5392 1 4657 4658
5393 1 5409 5410
5394 1 5410 5411
5395 1 4895 4896
5396 1 1443 1444
5397 1 4653 4654
5398 1 4653 4657
5399 1 4652 4653
5400 1 4894 4895
5401 1 5408 5409
5402 1 5408 5412
5403 1 1408 1409
5404 1 4658 4659
5405 1 1152 1153
5406 1 1407 1408
5407 1 1440 1441
5408 1 423 424
5409 1 1442 1443
5410 1 422 423
5411 1 1441 1442
5412 1 1153 1154
5413 1 1154 1155
5414 1 1717 1718
5415 1 29 1717
5416 1 1034 1035
5417 1 4891 101
5418 1 5349 5350
5419 1 4928 4929
5420 1 1272 1273
5421 1 5350 5351
5422 1 1718 1719
5423 1 5351 5352
5424 1 1271 1272
5425 1 5352 5353
5426 1 1290 1291
5427 1 1035 1036
5428 1 2430 2431
5429 1 191 192
5430 1 1455 1456
5431 1 195 196
5432 1 194 195
5433 1 1289 1290
5434 1 5363 5364
5435 1 192 193
5436 1 5362 5363
5437 1 1454 1455
5438 1 193 194
5439 1 2428 2429
5440 1 2429 2430
5441 1 1284 1285
5442 1 182 183
5443 1 515 516
5444 1 137 138
5445 1 137 152
5446 1 136 137
5447 1 152 153
5448 1 1262 1263
5449 1 153 154
5450 1 181 182
5451 1 514 515
5452 1 1320 1321
5453 1 4825 4826
5454 1 134 135
5455 1 132 133
5456 1 212 213
5457 1 1319 1320
5458 1 133 134
5459 1 1318 1319
5460 1 1317 1318
5461 1 213 214
5462 1 131 132
5463 1 4849 4850
5464 1 217 218
5465 1 130 131
5466 1 214 215
5467 1 4848 4849
5468 1 219 220
5469 1 215 216
5470 1 218 219
5471 1 310 311
5472 1 4785 4786
5473 1 4784 4785
5474 1 309 310
5475 1 4870 4871
5476 1 287 288
5477 1 5404 5405
5478 1 5405 5406
5479 1 308 309
5480 1 5406 5407
5481 1 344 345
5482 1 1417 1418
5483 1 4841 100
5484 1 1354 1355
5485 1 4872 4873
5486 1 4872 4892
5487 1 1356 23
5488 1 4873 4874
5489 1 3710 3711
5490 1 3711 100
5491 1 1355 1356
5492 1 100 4872
5493 1 100 4907
5494 1 343 344
5495 1 616 617
5496 1 1409 1410
5497 1 1669 1670
5498 1 346 5
5499 1 1499 1500
5500 1 1157 1158
5501 1 1671 29
5502 1 393 394
5503 1 1670 1671
5504 1 4907 4908
5505 1 4908 4909
5506 1 1500 1501
5507 1 1501 29
5508 1 2409 2410
5509 1 2407 2408
5510 1 2422 2423
5511 1 1155 1156
5512 1 1155 1162
5513 1 4731 101
5514 1 2408 2409
5515 1 2408 2422
5516 1 1156 1157
5517 1 394 395
5518 1 395 396
5519 1 395 412
5520 1 4730 4731
5521 1 4729 4730
5522 1 1451 1452
5523 1 415 416
5524 1 512 513
5525 1 1288 1289
5526 1 196 20
5527 1 20 1262
5528 1 20 1287
5529 1 1453 1454
5530 1 165 166
5531 1 1287 1288
5532 1 513 514
5533 1 1452 1453
5534 1 164 165
5535 1 163 164
