LAMMPS data file (Kremer-Grest CG)

5446 atoms
5535 bonds
6102 angles

3 atom types
1 bond types
1 angle types

-50.0000 50.0000 xlo xhi
-50.0000 50.0000 ylo yhi
-50.0000 50.0000 zlo zhi

Masses

1 1.0 # A
2 1.0 # B
3 1.0 # G

Pair Coeffs

1 1.0 1.0 2.5
2 1.0 1.0 2.5
3 1.0 1.0 2.5

Bond Coeffs

1 466.1 0.97

Angle Coeffs

1 466.1 180.0

Atoms # full

1 1 1 0.0 0.0 0.0 0.0
2 1 1 0.0 0.0 0.0 0.0
3 1 1 0.0 0.0 0.0 0.0
4 1 1 0.0 0.0 0.0 0.0
5 1 1 0.0 0.0 0.0 0.0
6 1 1 0.0 0.0 0.0 0.0
7 1 1 0.0 0.0 0.0 0.0
8 1 1 0.0 0.0 0.0 0.0
9 1 1 0.0 0.0 0.0 0.0
10 1 1 0.0 0.0 0.0 0.0
11 1 1 0.0 0.0 0.0 0.0
12 1 1 0.0 0.0 0.0 0.0
13 1 1 0.0 0.0 0.0 0.0
14 1 1 0.0 0.0 0.0 0.0
15 1 1 0.0 0.0 0.0 0.0
16 1 1 0.0 0.0 0.0 0.0
17 1 1 0.0 0.0 0.0 0.0
18 1 1 0.0 0.0 0.0 0.0
19 1 1 0.0 0.0 0.0 0.0
20 1 1 0.0 0.0 0.0 0.0
21 1 1 0.0 0.0 0.0 0.0
22 1 1 0.0 0.0 0.0 0.0
23 1 1 0.0 0.0 0.0 0.0
24 1 1 0.0 0.0 0.0 0.0
25 1 1 0.0 0.0 0.0 0.0
26 1 1 0.0 0.0 0.0 0.0
27 1 1 0.0 0.0 0.0 0.0
28 1 1 0.0 0.0 0.0 0.0
29 1 1 0.0 0.0 0.0 0.0
30 1 1 0.0 0.0 0.0 0.0
31 1 1 0.0 0.0 0.0 0.0
32 1 1 0.0 0.0 0.0 0.0
33 1 1 0.0 0.0 0.0 0.0
34 1 1 0.0 0.0 0.0 0.0
35 1 1 0.0 0.0 0.0 0.0
36 1 1 0.0 0.0 0.0 0.0
37 1 1 0.0 0.0 0.0 0.0
38 1 1 0.0 0.0 0.0 0.0
39 1 1 0.0 0.0 0.0 0.0
40 1 1 0.0 0.0 0.0 0.0
41 1 1 0.0 0.0 0.0 0.0
42 1 1 0.0 0.0 0.0 0.0
43 1 1 0.0 0.0 0.0 0.0
44 1 1 0.0 0.0 0.0 0.0
45 1 1 0.0 0.0 0.0 0.0
46 1 1 0.0 0.0 0.0 0.0
47 1 1 0.0 0.0 0.0 0.0
48 1 1 0.0 0.0 0.0 0.0
49 1 1 0.0 0.0 0.0 0.0
50 1 1 0.0 0.0 0.0 0.0
51 1 1 0.0 0.0 0.0 0.0
52 1 1 0.0 0.0 0.0 0.0
53 1 1 0.0 0.0 0.0 0.0
54 1 1 0.0 0.0 0.0 0.0
55 1 1 0.0 0.0 0.0 0.0
56 1 1 0.0 0.0 0.0 0.0
57 1 1 0.0 0.0 0.0 0.0
58 1 1 0.0 0.0 0.0 0.0
59 1 1 0.0 0.0 0.0 0.0
60 1 1 0.0 0.0 0.0 0.0
61 1 1 0.0 0.0 0.0 0.0
62 1 1 0.0 0.0 0.0 0.0
63 1 1 0.0 0.0 0.0 0.0
64 1 1 0.0 0.0 0.0 0.0
65 1 1 0.0 0.0 0.0 0.0
66 1 1 0.0 0.0 0.0 0.0
67 1 1 0.0 0.0 0.0 0.0
68 1 1 0.0 0.0 0.0 0.0
69 1 1 0.0 0.0 0.0 0.0
70 1 1 0.0 0.0 0.0 0.0
71 1 1 0.0 0.0 0.0 0.0
72 1 1 0.0 0.0 0.0 0.0
73 1 1 0.0 0.0 0.0 0.0
74 1 1 0.0 0.0 0.0 0.0
75 1 1 0.0 0.0 0.0 0.0
76 1 1 0.0 0.0 0.0 0.0
77 1 1 0.0 0.0 0.0 0.0
78 1 1 0.0 0.0 0.0 0.0
79 1 1 0.0 0.0 0.0 0.0
80 1 1 0.0 0.0 0.0 0.0
81 1 1 0.0 0.0 0.0 0.0
82 1 1 0.0 0.0 0.0 0.0
83 1 1 0.0 0.0 0.0 0.0
84 1 1 0.0 0.0 0.0 0.0
85 1 1 0.0 0.0 0.0 0.0
86 1 1 0.0 0.0 0.0 0.0
87 1 1 0.0 0.0 0.0 0.0
88 1 1 0.0 0.0 0.0 0.0
89 1 1 0.0 0.0 0.0 0.0
90 1 1 0.0 0.0 0.0 0.0
91 1 1 0.0 0.0 0.0 0.0
92 1 1 0.0 0.0 0.0 0.0
93 1 1 0.0 0.0 0.0 0.0
94 1 1 0.0 0.0 0.0 0.0
95 1 1 0.0 0.0 0.0 0.0
96 1 1 0.0 0.0 0.0 0.0
97 1 1 0.0 0.0 0.0 0.0
98 1 1 0.0 0.0 0.0 0.0
99 1 1 0.0 0.0 0.0 0.0
100 1 1 0.0 0.0 0.0 0.0
101 1 1 0.0 0.0 0.0 0.0
102 1 1 0.0 0.0 0.0 0.0
103 1 1 0.0 0.0 0.0 0.0
104 1 1 0.0 0.0 0.0 0.0
105 1 1 0.0 0.0 0.0 0.0
106 1 1 0.0 0.0 0.0 0.0
107 1 1 0.0 0.0 0.0 0.0
108 1 1 0.0 0.0 0.0 0.0
109 1 1 0.0 0.0 0.0 0.0
110 1 1 0.0 0.0 0.0 0.0
111 1 1 0.0 0.0 0.0 0.0
112 1 1 0.0 0.0 0.0 0.0
113 1 1 0.0 0.0 0.0 0.0
114 1 1 0.0 0.0 0.0 0.0
115 1 1 0.0 0.0 0.0 0.0
116 1 1 0.0 0.0 0.0 0.0
117 1 1 0.0 0.0 0.0 0.0
118 1 1 0.0 0.0 0.0 0.0
119 1 1 0.0 0.0 0.0 0.0
120 1 1 0.0 0.0 0.0 0.0
121 1 1 0.0 0.0 0.0 0.0
122 1 2 0.0 0.0 0.0 0.0
123 1 2 0.0 0.0 0.0 0.0
124 1 2 0.0 0.0 0.0 0.0
125 1 2 0.0 0.0 0.0 0.0
126 1 2 0.0 0.0 0.0 0.0
127 1 2 0.0 0.0 0.0 0.0
128 1 2 0.0 0.0 0.0 0.0
129 1 2 0.0 0.0 0.0 0.0
130 1 2 0.0 0.0 0.0 0.0
131 1 2 0.0 0.0 0.0 0.0
132 1 2 0.0 0.0 0.0 0.0
133 1 2 0.0 0.0 0.0 0.0
134 1 2 0.0 0.0 0.0 0.0
135 1 2 0.0 0.0 0.0 0.0
136 1 2 0.0 0.0 0.0 0.0
137 1 2 0.0 0.0 0.0 0.0
138 1 2 0.0 0.0 0.0 0.0
139 1 2 0.0 0.0 0.0 0.0
140 1 2 0.0 0.0 0.0 0.0
141 1 2 0.0 0.0 0.0 0.0
142 1 3 0.0 0.0 0.0 0.0
143 1 3 0.0 0.0 0.0 0.0
144 1 3 0.0 0.0 0.0 0.0
145 1 3 0.0 0.0 0.0 0.0
146 1 3 0.0 0.0 0.0 0.0
147 1 3 0.0 0.0 0.0 0.0
148 1 3 0.0 0.0 0.0 0.0
149 1 3 0.0 0.0 0.0 0.0
150 1 3 0.0 0.0 0.0 0.0
151 1 3 0.0 0.0 0.0 0.0
152 1 3 0.0 0.0 0.0 0.0
153 1 3 0.0 0.0 0.0 0.0
154 1 3 0.0 0.0 0.0 0.0
155 1 3 0.0 0.0 0.0 0.0
156 1 3 0.0 0.0 0.0 0.0
157 1 2 0.0 0.0 0.0 0.0
158 1 2 0.0 0.0 0.0 0.0
159 1 2 0.0 0.0 0.0 0.0
160 1 2 0.0 0.0 0.0 0.0
161 1 2 0.0 0.0 0.0 0.0
162 1 2 0.0 0.0 0.0 0.0
163 1 2 0.0 0.0 0.0 0.0
164 1 2 0.0 0.0 0.0 0.0
165 1 2 0.0 0.0 0.0 0.0
166 1 2 0.0 0.0 0.0 0.0
167 1 2 0.0 0.0 0.0 0.0
168 1 2 0.0 0.0 0.0 0.0
169 1 2 0.0 0.0 0.0 0.0
170 1 2 0.0 0.0 0.0 0.0
171 1 2 0.0 0.0 0.0 0.0
172 1 2 0.0 0.0 0.0 0.0
173 1 2 0.0 0.0 0.0 0.0
174 1 2 0.0 0.0 0.0 0.0
175 1 2 0.0 0.0 0.0 0.0
176 1 2 0.0 0.0 0.0 0.0
177 1 2 0.0 0.0 0.0 0.0
178 1 2 0.0 0.0 0.0 0.0
179 1 2 0.0 0.0 0.0 0.0
180 1 2 0.0 0.0 0.0 0.0
181 1 2 0.0 0.0 0.0 0.0
182 1 2 0.0 0.0 0.0 0.0
183 1 2 0.0 0.0 0.0 0.0
184 1 2 0.0 0.0 0.0 0.0
185 1 2 0.0 0.0 0.0 0.0
186 1 2 0.0 0.0 0.0 0.0
187 1 2 0.0 0.0 0.0 0.0
188 1 2 0.0 0.0 0.0 0.0
189 1 2 0.0 0.0 0.0 0.0
190 1 2 0.0 0.0 0.0 0.0
191 1 2 0.0 0.0 0.0 0.0
192 1 2 0.0 0.0 0.0 0.0
193 1 2 0.0 0.0 0.0 0.0
194 1 2 0.0 0.0 0.0 0.0
195 1 2 0.0 0.0 0.0 0.0
196 1 2 0.0 0.0 0.0 0.0
197 1 2 0.0 0.0 0.0 0.0
198 1 2 0.0 0.0 0.0 0.0
199 1 2 0.0 0.0 0.0 0.0
200 1 2 0.0 0.0 0.0 0.0
201 1 2 0.0 0.0 0.0 0.0
202 1 2 0.0 0.0 0.0 0.0
203 1 2 0.0 0.0 0.0 0.0
204 1 2 0.0 0.0 0.0 0.0
205 1 2 0.0 0.0 0.0 0.0
206 1 2 0.0 0.0 0.0 0.0
207 1 2 0.0 0.0 0.0 0.0
208 1 2 0.0 0.0 0.0 0.0
209 1 2 0.0 0.0 0.0 0.0
210 1 2 0.0 0.0 0.0 0.0
211 1 2 0.0 0.0 0.0 0.0
212 1 2 0.0 0.0 0.0 0.0
213 1 2 0.0 0.0 0.0 0.0
214 1 2 0.0 0.0 0.0 0.0
215 1 2 0.0 0.0 0.0 0.0
216 1 2 0.0 0.0 0.0 0.0
217 1 3 0.0 0.0 0.0 0.0
218 1 3 0.0 0.0 0.0 0.0
219 1 3 0.0 0.0 0.0 0.0
220 1 3 0.0 0.0 0.0 0.0
221 1 3 0.0 0.0 0.0 0.0
222 1 2 0.0 0.0 0.0 0.0
223 1 2 0.0 0.0 0.0 0.0
224 1 2 0.0 0.0 0.0 0.0
225 1 2 0.0 0.0 0.0 0.0
226 1 2 0.0 0.0 0.0 0.0
227 1 2 0.0 0.0 0.0 0.0
228 1 2 0.0 0.0 0.0 0.0
229 1 2 0.0 0.0 0.0 0.0
230 1 2 0.0 0.0 0.0 0.0
231 1 2 0.0 0.0 0.0 0.0
232 1 2 0.0 0.0 0.0 0.0
233 1 2 0.0 0.0 0.0 0.0
234 1 2 0.0 0.0 0.0 0.0
235 1 2 0.0 0.0 0.0 0.0
236 1 2 0.0 0.0 0.0 0.0
237 1 2 0.0 0.0 0.0 0.0
238 1 2 0.0 0.0 0.0 0.0
239 1 2 0.0 0.0 0.0 0.0
240 1 2 0.0 0.0 0.0 0.0
241 1 2 0.0 0.0 0.0 0.0
242 1 2 0.0 0.0 0.0 0.0
243 1 2 0.0 0.0 0.0 0.0
244 1 2 0.0 0.0 0.0 0.0
245 1 2 0.0 0.0 0.0 0.0
246 1 2 0.0 0.0 0.0 0.0
247 1 2 0.0 0.0 0.0 0.0
248 1 2 0.0 0.0 0.0 0.0
249 1 2 0.0 0.0 0.0 0.0
250 1 2 0.0 0.0 0.0 0.0
251 1 2 0.0 0.0 0.0 0.0
252 1 2 0.0 0.0 0.0 0.0
253 1 2 0.0 0.0 0.0 0.0
254 1 2 0.0 0.0 0.0 0.0
255 1 2 0.0 0.0 0.0 0.0
256 1 2 0.0 0.0 0.0 0.0
257 1 2 0.0 0.0 0.0 0.0
258 1 2 0.0 0.0 0.0 0.0
259 1 2 0.0 0.0 0.0 0.0
260 1 2 0.0 0.0 0.0 0.0
261 1 2 0.0 0.0 0.0 0.0
262 1 2 0.0 0.0 0.0 0.0
263 1 2 0.0 0.0 0.0 0.0
264 1 2 0.0 0.0 0.0 0.0
265 1 2 0.0 0.0 0.0 0.0
266 1 2 0.0 0.0 0.0 0.0
267 1 2 0.0 0.0 0.0 0.0
268 1 2 0.0 0.0 0.0 0.0
269 1 2 0.0 0.0 0.0 0.0
270 1 2 0.0 0.0 0.0 0.0
271 1 2 0.0 0.0 0.0 0.0
272 1 2 0.0 0.0 0.0 0.0
273 1 2 0.0 0.0 0.0 0.0
274 1 2 0.0 0.0 0.0 0.0
275 1 2 0.0 0.0 0.0 0.0
276 1 2 0.0 0.0 0.0 0.0
277 1 2 0.0 0.0 0.0 0.0
278 1 2 0.0 0.0 0.0 0.0
279 1 2 0.0 0.0 0.0 0.0
280 1 2 0.0 0.0 0.0 0.0
281 1 2 0.0 0.0 0.0 0.0
282 1 3 0.0 0.0 0.0 0.0
283 1 3 0.0 0.0 0.0 0.0
284 1 3 0.0 0.0 0.0 0.0
285 1 3 0.0 0.0 0.0 0.0
286 1 3 0.0 0.0 0.0 0.0
287 1 2 0.0 0.0 0.0 0.0
288 1 2 0.0 0.0 0.0 0.0
289 1 2 0.0 0.0 0.0 0.0
290 1 2 0.0 0.0 0.0 0.0
291 1 2 0.0 0.0 0.0 0.0
292 1 2 0.0 0.0 0.0 0.0
293 1 2 0.0 0.0 0.0 0.0
294 1 2 0.0 0.0 0.0 0.0
295 1 2 0.0 0.0 0.0 0.0
296 1 2 0.0 0.0 0.0 0.0
297 1 2 0.0 0.0 0.0 0.0
298 1 2 0.0 0.0 0.0 0.0
299 1 2 0.0 0.0 0.0 0.0
300 1 2 0.0 0.0 0.0 0.0
301 1 2 0.0 0.0 0.0 0.0
302 1 2 0.0 0.0 0.0 0.0
303 1 2 0.0 0.0 0.0 0.0
304 1 2 0.0 0.0 0.0 0.0
305 1 2 0.0 0.0 0.0 0.0
306 1 2 0.0 0.0 0.0 0.0
307 1 2 0.0 0.0 0.0 0.0
308 1 2 0.0 0.0 0.0 0.0
309 1 2 0.0 0.0 0.0 0.0
310 1 2 0.0 0.0 0.0 0.0
311 1 2 0.0 0.0 0.0 0.0
312 1 2 0.0 0.0 0.0 0.0
313 1 2 0.0 0.0 0.0 0.0
314 1 2 0.0 0.0 0.0 0.0
315 1 2 0.0 0.0 0.0 0.0
316 1 2 0.0 0.0 0.0 0.0
317 1 2 0.0 0.0 0.0 0.0
318 1 2 0.0 0.0 0.0 0.0
319 1 2 0.0 0.0 0.0 0.0
320 1 2 0.0 0.0 0.0 0.0
321 1 2 0.0 0.0 0.0 0.0
322 1 2 0.0 0.0 0.0 0.0
323 1 2 0.0 0.0 0.0 0.0
324 1 2 0.0 0.0 0.0 0.0
325 1 2 0.0 0.0 0.0 0.0
326 1 2 0.0 0.0 0.0 0.0
327 1 2 0.0 0.0 0.0 0.0
328 1 2 0.0 0.0 0.0 0.0
329 1 2 0.0 0.0 0.0 0.0
330 1 2 0.0 0.0 0.0 0.0
331 1 2 0.0 0.0 0.0 0.0
332 1 2 0.0 0.0 0.0 0.0
333 1 2 0.0 0.0 0.0 0.0
334 1 2 0.0 0.0 0.0 0.0
335 1 2 0.0 0.0 0.0 0.0
336 1 2 0.0 0.0 0.0 0.0
337 1 2 0.0 0.0 0.0 0.0
338 1 2 0.0 0.0 0.0 0.0
339 1 2 0.0 0.0 0.0 0.0
340 1 2 0.0 0.0 0.0 0.0
341 1 2 0.0 0.0 0.0 0.0
342 1 2 0.0 0.0 0.0 0.0
343 1 2 0.0 0.0 0.0 0.0
344 1 2 0.0 0.0 0.0 0.0
345 1 2 0.0 0.0 0.0 0.0
346 1 2 0.0 0.0 0.0 0.0
347 1 3 0.0 0.0 0.0 0.0
348 1 3 0.0 0.0 0.0 0.0
349 1 3 0.0 0.0 0.0 0.0
350 1 3 0.0 0.0 0.0 0.0
351 1 3 0.0 0.0 0.0 0.0
352 1 2 0.0 0.0 0.0 0.0
353 1 2 0.0 0.0 0.0 0.0
354 1 2 0.0 0.0 0.0 0.0
355 1 2 0.0 0.0 0.0 0.0
356 1 2 0.0 0.0 0.0 0.0
357 1 2 0.0 0.0 0.0 0.0
358 1 2 0.0 0.0 0.0 0.0
359 1 2 0.0 0.0 0.0 0.0
360 1 2 0.0 0.0 0.0 0.0
361 1 2 0.0 0.0 0.0 0.0
362 1 2 0.0 0.0 0.0 0.0
363 1 2 0.0 0.0 0.0 0.0
364 1 2 0.0 0.0 0.0 0.0
365 1 2 0.0 0.0 0.0 0.0
366 1 2 0.0 0.0 0.0 0.0
367 1 2 0.0 0.0 0.0 0.0
368 1 2 0.0 0.0 0.0 0.0
369 1 2 0.0 0.0 0.0 0.0
370 1 2 0.0 0.0 0.0 0.0
371 1 2 0.0 0.0 0.0 0.0
372 1 2 0.0 0.0 0.0 0.0
373 1 2 0.0 0.0 0.0 0.0
374 1 2 0.0 0.0 0.0 0.0
375 1 2 0.0 0.0 0.0 0.0
376 1 2 0.0 0.0 0.0 0.0
377 1 2 0.0 0.0 0.0 0.0
378 1 2 0.0 0.0 0.0 0.0
379 1 2 0.0 0.0 0.0 0.0
380 1 2 0.0 0.0 0.0 0.0
381 1 2 0.0 0.0 0.0 0.0
382 1 2 0.0 0.0 0.0 0.0
383 1 2 0.0 0.0 0.0 0.0
384 1 2 0.0 0.0 0.0 0.0
385 1 2 0.0 0.0 0.0 0.0
386 1 2 0.0 0.0 0.0 0.0
387 1 2 0.0 0.0 0.0 0.0
388 1 2 0.0 0.0 0.0 0.0
389 1 2 0.0 0.0 0.0 0.0
390 1 2 0.0 0.0 0.0 0.0
391 1 2 0.0 0.0 0.0 0.0
392 1 2 0.0 0.0 0.0 0.0
393 1 2 0.0 0.0 0.0 0.0
394 1 2 0.0 0.0 0.0 0.0
395 1 2 0.0 0.0 0.0 0.0
396 1 2 0.0 0.0 0.0 0.0
397 1 2 0.0 0.0 0.0 0.0
398 1 2 0.0 0.0 0.0 0.0
399 1 2 0.0 0.0 0.0 0.0
400 1 2 0.0 0.0 0.0 0.0
401 1 2 0.0 0.0 0.0 0.0
402 1 2 0.0 0.0 0.0 0.0
403 1 2 0.0 0.0 0.0 0.0
404 1 2 0.0 0.0 0.0 0.0
405 1 2 0.0 0.0 0.0 0.0
406 1 2 0.0 0.0 0.0 0.0
407 1 2 0.0 0.0 0.0 0.0
408 1 2 0.0 0.0 0.0 0.0
409 1 2 0.0 0.0 0.0 0.0
410 1 2 0.0 0.0 0.0 0.0
411 1 2 0.0 0.0 0.0 0.0
412 1 3 0.0 0.0 0.0 0.0
413 1 3 0.0 0.0 0.0 0.0
414 1 3 0.0 0.0 0.0 0.0
415 1 3 0.0 0.0 0.0 0.0
416 1 3 0.0 0.0 0.0 0.0
417 1 3 0.0 0.0 0.0 0.0
418 1 3 0.0 0.0 0.0 0.0
419 1 3 0.0 0.0 0.0 0.0
420 1 3 0.0 0.0 0.0 0.0
421 1 3 0.0 0.0 0.0 0.0
422 1 2 0.0 0.0 0.0 0.0
423 1 2 0.0 0.0 0.0 0.0
424 1 2 0.0 0.0 0.0 0.0
425 1 2 0.0 0.0 0.0 0.0
426 1 2 0.0 0.0 0.0 0.0
427 1 2 0.0 0.0 0.0 0.0
428 1 2 0.0 0.0 0.0 0.0
429 1 2 0.0 0.0 0.0 0.0
430 1 2 0.0 0.0 0.0 0.0
431 1 2 0.0 0.0 0.0 0.0
432 1 2 0.0 0.0 0.0 0.0
433 1 2 0.0 0.0 0.0 0.0
434 1 2 0.0 0.0 0.0 0.0
435 1 2 0.0 0.0 0.0 0.0
436 1 2 0.0 0.0 0.0 0.0
437 1 2 0.0 0.0 0.0 0.0
438 1 2 0.0 0.0 0.0 0.0
439 1 2 0.0 0.0 0.0 0.0
440 1 2 0.0 0.0 0.0 0.0
441 1 2 0.0 0.0 0.0 0.0
442 1 3 0.0 0.0 0.0 0.0
443 1 3 0.0 0.0 0.0 0.0
444 1 3 0.0 0.0 0.0 0.0
445 1 3 0.0 0.0 0.0 0.0
446 1 3 0.0 0.0 0.0 0.0
447 1 3 0.0 0.0 0.0 0.0
448 1 3 0.0 0.0 0.0 0.0
449 1 3 0.0 0.0 0.0 0.0
450 1 3 0.0 0.0 0.0 0.0
451 1 3 0.0 0.0 0.0 0.0
452 1 3 0.0 0.0 0.0 0.0
453 1 3 0.0 0.0 0.0 0.0
454 1 3 0.0 0.0 0.0 0.0
455 1 3 0.0 0.0 0.0 0.0
456 1 3 0.0 0.0 0.0 0.0
457 1 2 0.0 0.0 0.0 0.0
458 1 2 0.0 0.0 0.0 0.0
459 1 2 0.0 0.0 0.0 0.0
460 1 2 0.0 0.0 0.0 0.0
461 1 2 0.0 0.0 0.0 0.0
462 1 2 0.0 0.0 0.0 0.0
463 1 2 0.0 0.0 0.0 0.0
464 1 2 0.0 0.0 0.0 0.0
465 1 2 0.0 0.0 0.0 0.0
466 1 2 0.0 0.0 0.0 0.0
467 1 2 0.0 0.0 0.0 0.0
468 1 2 0.0 0.0 0.0 0.0
469 1 2 0.0 0.0 0.0 0.0
470 1 2 0.0 0.0 0.0 0.0
471 1 2 0.0 0.0 0.0 0.0
472 1 2 0.0 0.0 0.0 0.0
473 1 2 0.0 0.0 0.0 0.0
474 1 2 0.0 0.0 0.0 0.0
475 1 2 0.0 0.0 0.0 0.0
476 1 2 0.0 0.0 0.0 0.0
477 1 2 0.0 0.0 0.0 0.0
478 1 2 0.0 0.0 0.0 0.0
479 1 2 0.0 0.0 0.0 0.0
480 1 2 0.0 0.0 0.0 0.0
481 1 2 0.0 0.0 0.0 0.0
482 1 2 0.0 0.0 0.0 0.0
483 1 2 0.0 0.0 0.0 0.0
484 1 2 0.0 0.0 0.0 0.0
485 1 2 0.0 0.0 0.0 0.0
486 1 2 0.0 0.0 0.0 0.0
487 1 2 0.0 0.0 0.0 0.0
488 1 2 0.0 0.0 0.0 0.0
489 1 2 0.0 0.0 0.0 0.0
490 1 2 0.0 0.0 0.0 0.0
491 1 2 0.0 0.0 0.0 0.0
492 1 2 0.0 0.0 0.0 0.0
493 1 2 0.0 0.0 0.0 0.0
494 1 2 0.0 0.0 0.0 0.0
495 1 2 0.0 0.0 0.0 0.0
496 1 2 0.0 0.0 0.0 0.0
497 1 2 0.0 0.0 0.0 0.0
498 1 2 0.0 0.0 0.0 0.0
499 1 2 0.0 0.0 0.0 0.0
500 1 2 0.0 0.0 0.0 0.0
501 1 2 0.0 0.0 0.0 0.0
502 1 2 0.0 0.0 0.0 0.0
503 1 2 0.0 0.0 0.0 0.0
504 1 2 0.0 0.0 0.0 0.0
505 1 2 0.0 0.0 0.0 0.0
506 1 2 0.0 0.0 0.0 0.0
507 1 2 0.0 0.0 0.0 0.0
508 1 2 0.0 0.0 0.0 0.0
509 1 2 0.0 0.0 0.0 0.0
510 1 2 0.0 0.0 0.0 0.0
511 1 2 0.0 0.0 0.0 0.0
512 1 2 0.0 0.0 0.0 0.0
513 1 2 0.0 0.0 0.0 0.0
514 1 2 0.0 0.0 0.0 0.0
515 1 2 0.0 0.0 0.0 0.0
516 1 2 0.0 0.0 0.0 0.0
517 1 3 0.0 0.0 0.0 0.0
518 1 3 0.0 0.0 0.0 0.0
519 1 3 0.0 0.0 0.0 0.0
520 1 3 0.0 0.0 0.0 0.0
521 1 3 0.0 0.0 0.0 0.0
522 1 3 0.0 0.0 0.0 0.0
523 1 3 0.0 0.0 0.0 0.0
524 1 3 0.0 0.0 0.0 0.0
525 1 3 0.0 0.0 0.0 0.0
526 1 3 0.0 0.0 0.0 0.0
527 1 2 0.0 0.0 0.0 0.0
528 1 2 0.0 0.0 0.0 0.0
529 1 2 0.0 0.0 0.0 0.0
530 1 2 0.0 0.0 0.0 0.0
531 1 2 0.0 0.0 0.0 0.0
532 1 2 0.0 0.0 0.0 0.0
533 1 2 0.0 0.0 0.0 0.0
534 1 2 0.0 0.0 0.0 0.0
535 1 2 0.0 0.0 0.0 0.0
536 1 2 0.0 0.0 0.0 0.0
537 1 2 0.0 0.0 0.0 0.0
538 1 2 0.0 0.0 0.0 0.0
539 1 2 0.0 0.0 0.0 0.0
540 1 2 0.0 0.0 0.0 0.0
541 1 2 0.0 0.0 0.0 0.0
542 1 2 0.0 0.0 0.0 0.0
543 1 2 0.0 0.0 0.0 0.0
544 1 2 0.0 0.0 0.0 0.0
545 1 2 0.0 0.0 0.0 0.0
546 1 2 0.0 0.0 0.0 0.0
547 1 2 0.0 0.0 0.0 0.0
548 1 2 0.0 0.0 0.0 0.0
549 1 2 0.0 0.0 0.0 0.0
550 1 2 0.0 0.0 0.0 0.0
551 1 2 0.0 0.0 0.0 0.0
552 1 2 0.0 0.0 0.0 0.0
553 1 2 0.0 0.0 0.0 0.0
554 1 2 0.0 0.0 0.0 0.0
555 1 2 0.0 0.0 0.0 0.0
556 1 2 0.0 0.0 0.0 0.0
557 1 2 0.0 0.0 0.0 0.0
558 1 2 0.0 0.0 0.0 0.0
559 1 2 0.0 0.0 0.0 0.0
560 1 2 0.0 0.0 0.0 0.0
561 1 2 0.0 0.0 0.0 0.0
562 1 2 0.0 0.0 0.0 0.0
563 1 2 0.0 0.0 0.0 0.0
564 1 2 0.0 0.0 0.0 0.0
565 1 2 0.0 0.0 0.0 0.0
566 1 2 0.0 0.0 0.0 0.0
567 1 2 0.0 0.0 0.0 0.0
568 1 2 0.0 0.0 0.0 0.0
569 1 2 0.0 0.0 0.0 0.0
570 1 2 0.0 0.0 0.0 0.0
571 1 2 0.0 0.0 0.0 0.0
572 1 2 0.0 0.0 0.0 0.0
573 1 2 0.0 0.0 0.0 0.0
574 1 2 0.0 0.0 0.0 0.0
575 1 2 0.0 0.0 0.0 0.0
576 1 2 0.0 0.0 0.0 0.0
577 1 2 0.0 0.0 0.0 0.0
578 1 2 0.0 0.0 0.0 0.0
579 1 2 0.0 0.0 0.0 0.0
580 1 2 0.0 0.0 0.0 0.0
581 1 2 0.0 0.0 0.0 0.0
582 1 2 0.0 0.0 0.0 0.0
583 1 2 0.0 0.0 0.0 0.0
584 1 2 0.0 0.0 0.0 0.0
585 1 2 0.0 0.0 0.0 0.0
586 1 2 0.0 0.0 0.0 0.0
587 1 2 0.0 0.0 0.0 0.0
588 1 2 0.0 0.0 0.0 0.0
589 1 2 0.0 0.0 0.0 0.0
590 1 2 0.0 0.0 0.0 0.0
591 1 2 0.0 0.0 0.0 0.0
592 1 2 0.0 0.0 0.0 0.0
593 1 2 0.0 0.0 0.0 0.0
594 1 2 0.0 0.0 0.0 0.0
595 1 2 0.0 0.0 0.0 0.0
596 1 2 0.0 0.0 0.0 0.0
597 1 2 0.0 0.0 0.0 0.0
598 1 2 0.0 0.0 0.0 0.0
599 1 2 0.0 0.0 0.0 0.0
600 1 2 0.0 0.0 0.0 0.0
601 1 2 0.0 0.0 0.0 0.0
602 1 2 0.0 0.0 0.0 0.0
603 1 2 0.0 0.0 0.0 0.0
604 1 2 0.0 0.0 0.0 0.0
605 1 2 0.0 0.0 0.0 0.0
606 1 2 0.0 0.0 0.0 0.0
607 1 2 0.0 0.0 0.0 0.0
608 1 2 0.0 0.0 0.0 0.0
609 1 2 0.0 0.0 0.0 0.0
610 1 2 0.0 0.0 0.0 0.0
611 1 2 0.0 0.0 0.0 0.0
612 1 2 0.0 0.0 0.0 0.0
613 1 2 0.0 0.0 0.0 0.0
614 1 2 0.0 0.0 0.0 0.0
615 1 2 0.0 0.0 0.0 0.0
616 1 2 0.0 0.0 0.0 0.0
617 1 2 0.0 0.0 0.0 0.0
618 1 2 0.0 0.0 0.0 0.0
619 1 2 0.0 0.0 0.0 0.0
620 1 2 0.0 0.0 0.0 0.0
621 1 2 0.0 0.0 0.0 0.0
622 1 2 0.0 0.0 0.0 0.0
623 1 2 0.0 0.0 0.0 0.0
624 1 2 0.0 0.0 0.0 0.0
625 1 2 0.0 0.0 0.0 0.0
626 1 2 0.0 0.0 0.0 0.0
627 1 3 0.0 0.0 0.0 0.0
628 1 3 0.0 0.0 0.0 0.0
629 1 3 0.0 0.0 0.0 0.0
630 1 3 0.0 0.0 0.0 0.0
631 1 3 0.0 0.0 0.0 0.0
632 1 2 0.0 0.0 0.0 0.0
633 1 2 0.0 0.0 0.0 0.0
634 1 2 0.0 0.0 0.0 0.0
635 1 2 0.0 0.0 0.0 0.0
636 1 2 0.0 0.0 0.0 0.0
637 1 2 0.0 0.0 0.0 0.0
638 1 2 0.0 0.0 0.0 0.0
639 1 2 0.0 0.0 0.0 0.0
640 1 2 0.0 0.0 0.0 0.0
641 1 2 0.0 0.0 0.0 0.0
642 1 2 0.0 0.0 0.0 0.0
643 1 2 0.0 0.0 0.0 0.0
644 1 2 0.0 0.0 0.0 0.0
645 1 2 0.0 0.0 0.0 0.0
646 1 2 0.0 0.0 0.0 0.0
647 1 2 0.0 0.0 0.0 0.0
648 1 2 0.0 0.0 0.0 0.0
649 1 2 0.0 0.0 0.0 0.0
650 1 2 0.0 0.0 0.0 0.0
651 1 2 0.0 0.0 0.0 0.0
652 1 3 0.0 0.0 0.0 0.0
653 1 3 0.0 0.0 0.0 0.0
654 1 3 0.0 0.0 0.0 0.0
655 1 3 0.0 0.0 0.0 0.0
656 1 3 0.0 0.0 0.0 0.0
657 1 3 0.0 0.0 0.0 0.0
658 1 3 0.0 0.0 0.0 0.0
659 1 3 0.0 0.0 0.0 0.0
660 1 3 0.0 0.0 0.0 0.0
661 1 3 0.0 0.0 0.0 0.0
662 1 3 0.0 0.0 0.0 0.0
663 1 3 0.0 0.0 0.0 0.0
664 1 3 0.0 0.0 0.0 0.0
665 1 3 0.0 0.0 0.0 0.0
666 1 3 0.0 0.0 0.0 0.0
667 1 3 0.0 0.0 0.0 0.0
668 1 3 0.0 0.0 0.0 0.0
669 1 3 0.0 0.0 0.0 0.0
670 1 3 0.0 0.0 0.0 0.0
671 1 3 0.0 0.0 0.0 0.0
672 1 2 0.0 0.0 0.0 0.0
673 1 2 0.0 0.0 0.0 0.0
674 1 2 0.0 0.0 0.0 0.0
675 1 2 0.0 0.0 0.0 0.0
676 1 2 0.0 0.0 0.0 0.0
677 1 2 0.0 0.0 0.0 0.0
678 1 2 0.0 0.0 0.0 0.0
679 1 2 0.0 0.0 0.0 0.0
680 1 2 0.0 0.0 0.0 0.0
681 1 2 0.0 0.0 0.0 0.0
682 1 2 0.0 0.0 0.0 0.0
683 1 2 0.0 0.0 0.0 0.0
684 1 2 0.0 0.0 0.0 0.0
685 1 2 0.0 0.0 0.0 0.0
686 1 2 0.0 0.0 0.0 0.0
687 1 2 0.0 0.0 0.0 0.0
688 1 2 0.0 0.0 0.0 0.0
689 1 2 0.0 0.0 0.0 0.0
690 1 2 0.0 0.0 0.0 0.0
691 1 2 0.0 0.0 0.0 0.0
692 1 3 0.0 0.0 0.0 0.0
693 1 3 0.0 0.0 0.0 0.0
694 1 3 0.0 0.0 0.0 0.0
695 1 3 0.0 0.0 0.0 0.0
696 1 3 0.0 0.0 0.0 0.0
697 1 2 0.0 0.0 0.0 0.0
698 1 2 0.0 0.0 0.0 0.0
699 1 2 0.0 0.0 0.0 0.0
700 1 2 0.0 0.0 0.0 0.0
701 1 2 0.0 0.0 0.0 0.0
702 1 2 0.0 0.0 0.0 0.0
703 1 2 0.0 0.0 0.0 0.0
704 1 2 0.0 0.0 0.0 0.0
705 1 2 0.0 0.0 0.0 0.0
706 1 2 0.0 0.0 0.0 0.0
707 1 2 0.0 0.0 0.0 0.0
708 1 2 0.0 0.0 0.0 0.0
709 1 2 0.0 0.0 0.0 0.0
710 1 2 0.0 0.0 0.0 0.0
711 1 2 0.0 0.0 0.0 0.0
712 1 2 0.0 0.0 0.0 0.0
713 1 2 0.0 0.0 0.0 0.0
714 1 2 0.0 0.0 0.0 0.0
715 1 2 0.0 0.0 0.0 0.0
716 1 2 0.0 0.0 0.0 0.0
717 1 3 0.0 0.0 0.0 0.0
718 1 3 0.0 0.0 0.0 0.0
719 1 3 0.0 0.0 0.0 0.0
720 1 3 0.0 0.0 0.0 0.0
721 1 3 0.0 0.0 0.0 0.0
722 1 3 0.0 0.0 0.0 0.0
723 1 3 0.0 0.0 0.0 0.0
724 1 3 0.0 0.0 0.0 0.0
725 1 3 0.0 0.0 0.0 0.0
726 1 3 0.0 0.0 0.0 0.0
727 1 2 0.0 0.0 0.0 0.0
728 1 2 0.0 0.0 0.0 0.0
729 1 2 0.0 0.0 0.0 0.0
730 1 2 0.0 0.0 0.0 0.0
731 1 2 0.0 0.0 0.0 0.0
732 1 2 0.0 0.0 0.0 0.0
733 1 2 0.0 0.0 0.0 0.0
734 1 2 0.0 0.0 0.0 0.0
735 1 2 0.0 0.0 0.0 0.0
736 1 2 0.0 0.0 0.0 0.0
737 1 2 0.0 0.0 0.0 0.0
738 1 2 0.0 0.0 0.0 0.0
739 1 2 0.0 0.0 0.0 0.0
740 1 2 0.0 0.0 0.0 0.0
741 1 2 0.0 0.0 0.0 0.0
742 1 2 0.0 0.0 0.0 0.0
743 1 2 0.0 0.0 0.0 0.0
744 1 2 0.0 0.0 0.0 0.0
745 1 2 0.0 0.0 0.0 0.0
746 1 2 0.0 0.0 0.0 0.0
747 1 3 0.0 0.0 0.0 0.0
748 1 3 0.0 0.0 0.0 0.0
749 1 3 0.0 0.0 0.0 0.0
750 1 3 0.0 0.0 0.0 0.0
751 1 3 0.0 0.0 0.0 0.0
752 1 2 0.0 0.0 0.0 0.0
753 1 2 0.0 0.0 0.0 0.0
754 1 2 0.0 0.0 0.0 0.0
755 1 2 0.0 0.0 0.0 0.0
756 1 2 0.0 0.0 0.0 0.0
757 1 2 0.0 0.0 0.0 0.0
758 1 2 0.0 0.0 0.0 0.0
759 1 2 0.0 0.0 0.0 0.0
760 1 2 0.0 0.0 0.0 0.0
761 1 2 0.0 0.0 0.0 0.0
762 1 2 0.0 0.0 0.0 0.0
763 1 2 0.0 0.0 0.0 0.0
764 1 2 0.0 0.0 0.0 0.0
765 1 2 0.0 0.0 0.0 0.0
766 1 2 0.0 0.0 0.0 0.0
767 1 2 0.0 0.0 0.0 0.0
768 1 2 0.0 0.0 0.0 0.0
769 1 2 0.0 0.0 0.0 0.0
770 1 2 0.0 0.0 0.0 0.0
771 1 2 0.0 0.0 0.0 0.0
772 1 2 0.0 0.0 0.0 0.0
773 1 2 0.0 0.0 0.0 0.0
774 1 2 0.0 0.0 0.0 0.0
775 1 2 0.0 0.0 0.0 0.0
776 1 2 0.0 0.0 0.0 0.0
777 1 2 0.0 0.0 0.0 0.0
778 1 2 0.0 0.0 0.0 0.0
779 1 2 0.0 0.0 0.0 0.0
780 1 2 0.0 0.0 0.0 0.0
781 1 2 0.0 0.0 0.0 0.0
782 1 2 0.0 0.0 0.0 0.0
783 1 2 0.0 0.0 0.0 0.0
784 1 2 0.0 0.0 0.0 0.0
785 1 2 0.0 0.0 0.0 0.0
786 1 2 0.0 0.0 0.0 0.0
787 1 2 0.0 0.0 0.0 0.0
788 1 2 0.0 0.0 0.0 0.0
789 1 2 0.0 0.0 0.0 0.0
790 1 2 0.0 0.0 0.0 0.0
791 1 2 0.0 0.0 0.0 0.0
792 1 3 0.0 0.0 0.0 0.0
793 1 3 0.0 0.0 0.0 0.0
794 1 3 0.0 0.0 0.0 0.0
795 1 3 0.0 0.0 0.0 0.0
796 1 3 0.0 0.0 0.0 0.0
797 1 2 0.0 0.0 0.0 0.0
798 1 2 0.0 0.0 0.0 0.0
799 1 2 0.0 0.0 0.0 0.0
800 1 2 0.0 0.0 0.0 0.0
801 1 2 0.0 0.0 0.0 0.0
802 1 2 0.0 0.0 0.0 0.0
803 1 2 0.0 0.0 0.0 0.0
804 1 2 0.0 0.0 0.0 0.0
805 1 2 0.0 0.0 0.0 0.0
806 1 2 0.0 0.0 0.0 0.0
807 1 2 0.0 0.0 0.0 0.0
808 1 2 0.0 0.0 0.0 0.0
809 1 2 0.0 0.0 0.0 0.0
810 1 2 0.0 0.0 0.0 0.0
811 1 2 0.0 0.0 0.0 0.0
812 1 2 0.0 0.0 0.0 0.0
813 1 2 0.0 0.0 0.0 0.0
814 1 2 0.0 0.0 0.0 0.0
815 1 2 0.0 0.0 0.0 0.0
816 1 2 0.0 0.0 0.0 0.0
817 1 2 0.0 0.0 0.0 0.0
818 1 2 0.0 0.0 0.0 0.0
819 1 2 0.0 0.0 0.0 0.0
820 1 2 0.0 0.0 0.0 0.0
821 1 2 0.0 0.0 0.0 0.0
822 1 2 0.0 0.0 0.0 0.0
823 1 2 0.0 0.0 0.0 0.0
824 1 2 0.0 0.0 0.0 0.0
825 1 2 0.0 0.0 0.0 0.0
826 1 2 0.0 0.0 0.0 0.0
827 1 2 0.0 0.0 0.0 0.0
828 1 2 0.0 0.0 0.0 0.0
829 1 2 0.0 0.0 0.0 0.0
830 1 2 0.0 0.0 0.0 0.0
831 1 2 0.0 0.0 0.0 0.0
832 1 2 0.0 0.0 0.0 0.0
833 1 2 0.0 0.0 0.0 0.0
834 1 2 0.0 0.0 0.0 0.0
835 1 2 0.0 0.0 0.0 0.0
836 1 2 0.0 0.0 0.0 0.0
837 1 3 0.0 0.0 0.0 0.0
838 1 3 0.0 0.0 0.0 0.0
839 1 3 0.0 0.0 0.0 0.0
840 1 3 0.0 0.0 0.0 0.0
841 1 3 0.0 0.0 0.0 0.0
842 1 3 0.0 0.0 0.0 0.0
843 1 3 0.0 0.0 0.0 0.0
844 1 3 0.0 0.0 0.0 0.0
845 1 3 0.0 0.0 0.0 0.0
846 1 3 0.0 0.0 0.0 0.0
847 1 2 0.0 0.0 0.0 0.0
848 1 2 0.0 0.0 0.0 0.0
849 1 2 0.0 0.0 0.0 0.0
850 1 2 0.0 0.0 0.0 0.0
851 1 2 0.0 0.0 0.0 0.0
852 1 2 0.0 0.0 0.0 0.0
853 1 2 0.0 0.0 0.0 0.0
854 1 2 0.0 0.0 0.0 0.0
855 1 2 0.0 0.0 0.0 0.0
856 1 2 0.0 0.0 0.0 0.0
857 1 2 0.0 0.0 0.0 0.0
858 1 2 0.0 0.0 0.0 0.0
859 1 2 0.0 0.0 0.0 0.0
860 1 2 0.0 0.0 0.0 0.0
861 1 2 0.0 0.0 0.0 0.0
862 1 2 0.0 0.0 0.0 0.0
863 1 2 0.0 0.0 0.0 0.0
864 1 2 0.0 0.0 0.0 0.0
865 1 2 0.0 0.0 0.0 0.0
866 1 2 0.0 0.0 0.0 0.0
867 1 3 0.0 0.0 0.0 0.0
868 1 3 0.0 0.0 0.0 0.0
869 1 3 0.0 0.0 0.0 0.0
870 1 3 0.0 0.0 0.0 0.0
871 1 3 0.0 0.0 0.0 0.0
872 1 2 0.0 0.0 0.0 0.0
873 1 2 0.0 0.0 0.0 0.0
874 1 2 0.0 0.0 0.0 0.0
875 1 2 0.0 0.0 0.0 0.0
876 1 2 0.0 0.0 0.0 0.0
877 1 2 0.0 0.0 0.0 0.0
878 1 2 0.0 0.0 0.0 0.0
879 1 2 0.0 0.0 0.0 0.0
880 1 2 0.0 0.0 0.0 0.0
881 1 2 0.0 0.0 0.0 0.0
882 1 2 0.0 0.0 0.0 0.0
883 1 2 0.0 0.0 0.0 0.0
884 1 2 0.0 0.0 0.0 0.0
885 1 2 0.0 0.0 0.0 0.0
886 1 2 0.0 0.0 0.0 0.0
887 1 2 0.0 0.0 0.0 0.0
888 1 2 0.0 0.0 0.0 0.0
889 1 2 0.0 0.0 0.0 0.0
890 1 2 0.0 0.0 0.0 0.0
891 1 2 0.0 0.0 0.0 0.0
892 1 3 0.0 0.0 0.0 0.0
893 1 3 0.0 0.0 0.0 0.0
894 1 3 0.0 0.0 0.0 0.0
895 1 3 0.0 0.0 0.0 0.0
896 1 3 0.0 0.0 0.0 0.0
897 1 2 0.0 0.0 0.0 0.0
898 1 2 0.0 0.0 0.0 0.0
899 1 2 0.0 0.0 0.0 0.0
900 1 2 0.0 0.0 0.0 0.0
901 1 2 0.0 0.0 0.0 0.0
902 1 2 0.0 0.0 0.0 0.0
903 1 2 0.0 0.0 0.0 0.0
904 1 2 0.0 0.0 0.0 0.0
905 1 2 0.0 0.0 0.0 0.0
906 1 2 0.0 0.0 0.0 0.0
907 1 2 0.0 0.0 0.0 0.0
908 1 2 0.0 0.0 0.0 0.0
909 1 2 0.0 0.0 0.0 0.0
910 1 2 0.0 0.0 0.0 0.0
911 1 2 0.0 0.0 0.0 0.0
912 1 2 0.0 0.0 0.0 0.0
913 1 2 0.0 0.0 0.0 0.0
914 1 2 0.0 0.0 0.0 0.0
915 1 2 0.0 0.0 0.0 0.0
916 1 2 0.0 0.0 0.0 0.0
917 1 3 0.0 0.0 0.0 0.0
918 1 3 0.0 0.0 0.0 0.0
919 1 3 0.0 0.0 0.0 0.0
920 1 3 0.0 0.0 0.0 0.0
921 1 3 0.0 0.0 0.0 0.0
922 1 2 0.0 0.0 0.0 0.0
923 1 2 0.0 0.0 0.0 0.0
924 1 2 0.0 0.0 0.0 0.0
925 1 2 0.0 0.0 0.0 0.0
926 1 2 0.0 0.0 0.0 0.0
927 1 2 0.0 0.0 0.0 0.0
928 1 2 0.0 0.0 0.0 0.0
929 1 2 0.0 0.0 0.0 0.0
930 1 2 0.0 0.0 0.0 0.0
931 1 2 0.0 0.0 0.0 0.0
932 1 2 0.0 0.0 0.0 0.0
933 1 2 0.0 0.0 0.0 0.0
934 1 2 0.0 0.0 0.0 0.0
935 1 2 0.0 0.0 0.0 0.0
936 1 2 0.0 0.0 0.0 0.0
937 1 2 0.0 0.0 0.0 0.0
938 1 2 0.0 0.0 0.0 0.0
939 1 2 0.0 0.0 0.0 0.0
940 1 2 0.0 0.0 0.0 0.0
941 1 2 0.0 0.0 0.0 0.0
942 1 3 0.0 0.0 0.0 0.0
943 1 3 0.0 0.0 0.0 0.0
944 1 3 0.0 0.0 0.0 0.0
945 1 3 0.0 0.0 0.0 0.0
946 1 3 0.0 0.0 0.0 0.0
947 1 2 0.0 0.0 0.0 0.0
948 1 2 0.0 0.0 0.0 0.0
949 1 2 0.0 0.0 0.0 0.0
950 1 2 0.0 0.0 0.0 0.0
951 1 2 0.0 0.0 0.0 0.0
952 1 2 0.0 0.0 0.0 0.0
953 1 2 0.0 0.0 0.0 0.0
954 1 2 0.0 0.0 0.0 0.0
955 1 2 0.0 0.0 0.0 0.0
956 1 2 0.0 0.0 0.0 0.0
957 1 2 0.0 0.0 0.0 0.0
958 1 2 0.0 0.0 0.0 0.0
959 1 2 0.0 0.0 0.0 0.0
960 1 2 0.0 0.0 0.0 0.0
961 1 2 0.0 0.0 0.0 0.0
962 1 2 0.0 0.0 0.0 0.0
963 1 2 0.0 0.0 0.0 0.0
964 1 2 0.0 0.0 0.0 0.0
965 1 2 0.0 0.0 0.0 0.0
966 1 2 0.0 0.0 0.0 0.0
967 1 2 0.0 0.0 0.0 0.0
968 1 2 0.0 0.0 0.0 0.0
969 1 2 0.0 0.0 0.0 0.0
970 1 2 0.0 0.0 0.0 0.0
971 1 2 0.0 0.0 0.0 0.0
972 1 2 0.0 0.0 0.0 0.0
973 1 2 0.0 0.0 0.0 0.0
974 1 2 0.0 0.0 0.0 0.0
975 1 2 0.0 0.0 0.0 0.0
976 1 2 0.0 0.0 0.0 0.0
977 1 2 0.0 0.0 0.0 0.0
978 1 2 0.0 0.0 0.0 0.0
979 1 2 0.0 0.0 0.0 0.0
980 1 2 0.0 0.0 0.0 0.0
981 1 2 0.0 0.0 0.0 0.0
982 1 2 0.0 0.0 0.0 0.0
983 1 2 0.0 0.0 0.0 0.0
984 1 2 0.0 0.0 0.0 0.0
985 1 2 0.0 0.0 0.0 0.0
986 1 2 0.0 0.0 0.0 0.0
987 1 2 0.0 0.0 0.0 0.0
988 1 2 0.0 0.0 0.0 0.0
989 1 2 0.0 0.0 0.0 0.0
990 1 2 0.0 0.0 0.0 0.0
991 1 2 0.0 0.0 0.0 0.0
992 1 2 0.0 0.0 0.0 0.0
993 1 2 0.0 0.0 0.0 0.0
994 1 2 0.0 0.0 0.0 0.0
995 1 2 0.0 0.0 0.0 0.0
996 1 2 0.0 0.0 0.0 0.0
997 1 2 0.0 0.0 0.0 0.0
998 1 2 0.0 0.0 0.0 0.0
999 1 2 0.0 0.0 0.0 0.0
1000 1 2 0.0 0.0 0.0 0.0
1001 1 2 0.0 0.0 0.0 0.0
1002 1 2 0.0 0.0 0.0 0.0
1003 1 2 0.0 0.0 0.0 0.0
1004 1 2 0.0 0.0 0.0 0.0
1005 1 2 0.0 0.0 0.0 0.0
1006 1 2 0.0 0.0 0.0 0.0
1007 1 3 0.0 0.0 0.0 0.0
1008 1 3 0.0 0.0 0.0 0.0
1009 1 3 0.0 0.0 0.0 0.0
1010 1 3 0.0 0.0 0.0 0.0
1011 1 3 0.0 0.0 0.0 0.0
1012 1 3 0.0 0.0 0.0 0.0
1013 1 3 0.0 0.0 0.0 0.0
1014 1 3 0.0 0.0 0.0 0.0
1015 1 3 0.0 0.0 0.0 0.0
1016 1 3 0.0 0.0 0.0 0.0
1017 1 2 0.0 0.0 0.0 0.0
1018 1 2 0.0 0.0 0.0 0.0
1019 1 2 0.0 0.0 0.0 0.0
1020 1 2 0.0 0.0 0.0 0.0
1021 1 2 0.0 0.0 0.0 0.0
1022 1 2 0.0 0.0 0.0 0.0
1023 1 2 0.0 0.0 0.0 0.0
1024 1 2 0.0 0.0 0.0 0.0
1025 1 2 0.0 0.0 0.0 0.0
1026 1 2 0.0 0.0 0.0 0.0
1027 1 2 0.0 0.0 0.0 0.0
1028 1 2 0.0 0.0 0.0 0.0
1029 1 2 0.0 0.0 0.0 0.0
1030 1 2 0.0 0.0 0.0 0.0
1031 1 2 0.0 0.0 0.0 0.0
1032 1 2 0.0 0.0 0.0 0.0
1033 1 2 0.0 0.0 0.0 0.0
1034 1 2 0.0 0.0 0.0 0.0
1035 1 2 0.0 0.0 0.0 0.0
1036 1 2 0.0 0.0 0.0 0.0
1037 1 3 0.0 0.0 0.0 0.0
1038 1 3 0.0 0.0 0.0 0.0
1039 1 3 0.0 0.0 0.0 0.0
1040 1 3 0.0 0.0 0.0 0.0
1041 1 3 0.0 0.0 0.0 0.0
1042 1 3 0.0 0.0 0.0 0.0
1043 1 3 0.0 0.0 0.0 0.0
1044 1 3 0.0 0.0 0.0 0.0
1045 1 3 0.0 0.0 0.0 0.0
1046 1 3 0.0 0.0 0.0 0.0
1047 1 2 0.0 0.0 0.0 0.0
1048 1 2 0.0 0.0 0.0 0.0
1049 1 2 0.0 0.0 0.0 0.0
1050 1 2 0.0 0.0 0.0 0.0
1051 1 2 0.0 0.0 0.0 0.0
1052 1 2 0.0 0.0 0.0 0.0
1053 1 2 0.0 0.0 0.0 0.0
1054 1 2 0.0 0.0 0.0 0.0
1055 1 2 0.0 0.0 0.0 0.0
1056 1 2 0.0 0.0 0.0 0.0
1057 1 2 0.0 0.0 0.0 0.0
1058 1 2 0.0 0.0 0.0 0.0
1059 1 2 0.0 0.0 0.0 0.0
1060 1 2 0.0 0.0 0.0 0.0
1061 1 2 0.0 0.0 0.0 0.0
1062 1 2 0.0 0.0 0.0 0.0
1063 1 2 0.0 0.0 0.0 0.0
1064 1 2 0.0 0.0 0.0 0.0
1065 1 2 0.0 0.0 0.0 0.0
1066 1 2 0.0 0.0 0.0 0.0
1067 1 2 0.0 0.0 0.0 0.0
1068 1 2 0.0 0.0 0.0 0.0
1069 1 2 0.0 0.0 0.0 0.0
1070 1 2 0.0 0.0 0.0 0.0
1071 1 2 0.0 0.0 0.0 0.0
1072 1 2 0.0 0.0 0.0 0.0
1073 1 2 0.0 0.0 0.0 0.0
1074 1 2 0.0 0.0 0.0 0.0
1075 1 2 0.0 0.0 0.0 0.0
1076 1 2 0.0 0.0 0.0 0.0
1077 1 2 0.0 0.0 0.0 0.0
1078 1 2 0.0 0.0 0.0 0.0
1079 1 2 0.0 0.0 0.0 0.0
1080 1 2 0.0 0.0 0.0 0.0
1081 1 2 0.0 0.0 0.0 0.0
1082 1 2 0.0 0.0 0.0 0.0
1083 1 2 0.0 0.0 0.0 0.0
1084 1 2 0.0 0.0 0.0 0.0
1085 1 2 0.0 0.0 0.0 0.0
1086 1 2 0.0 0.0 0.0 0.0
1087 1 3 0.0 0.0 0.0 0.0
1088 1 3 0.0 0.0 0.0 0.0
1089 1 3 0.0 0.0 0.0 0.0
1090 1 3 0.0 0.0 0.0 0.0
1091 1 3 0.0 0.0 0.0 0.0
1092 1 2 0.0 0.0 0.0 0.0
1093 1 2 0.0 0.0 0.0 0.0
1094 1 2 0.0 0.0 0.0 0.0
1095 1 2 0.0 0.0 0.0 0.0
1096 1 2 0.0 0.0 0.0 0.0
1097 1 2 0.0 0.0 0.0 0.0
1098 1 2 0.0 0.0 0.0 0.0
1099 1 2 0.0 0.0 0.0 0.0
1100 1 2 0.0 0.0 0.0 0.0
1101 1 2 0.0 0.0 0.0 0.0
1102 1 2 0.0 0.0 0.0 0.0
1103 1 2 0.0 0.0 0.0 0.0
1104 1 2 0.0 0.0 0.0 0.0
1105 1 2 0.0 0.0 0.0 0.0
1106 1 2 0.0 0.0 0.0 0.0
1107 1 2 0.0 0.0 0.0 0.0
1108 1 2 0.0 0.0 0.0 0.0
1109 1 2 0.0 0.0 0.0 0.0
1110 1 2 0.0 0.0 0.0 0.0
1111 1 2 0.0 0.0 0.0 0.0
1112 1 2 0.0 0.0 0.0 0.0
1113 1 2 0.0 0.0 0.0 0.0
1114 1 2 0.0 0.0 0.0 0.0
1115 1 2 0.0 0.0 0.0 0.0
1116 1 2 0.0 0.0 0.0 0.0
1117 1 2 0.0 0.0 0.0 0.0
1118 1 2 0.0 0.0 0.0 0.0
1119 1 2 0.0 0.0 0.0 0.0
1120 1 2 0.0 0.0 0.0 0.0
1121 1 2 0.0 0.0 0.0 0.0
1122 1 2 0.0 0.0 0.0 0.0
1123 1 2 0.0 0.0 0.0 0.0
1124 1 2 0.0 0.0 0.0 0.0
1125 1 2 0.0 0.0 0.0 0.0
1126 1 2 0.0 0.0 0.0 0.0
1127 1 2 0.0 0.0 0.0 0.0
1128 1 2 0.0 0.0 0.0 0.0
1129 1 2 0.0 0.0 0.0 0.0
1130 1 2 0.0 0.0 0.0 0.0
1131 1 2 0.0 0.0 0.0 0.0
1132 1 3 0.0 0.0 0.0 0.0
1133 1 3 0.0 0.0 0.0 0.0
1134 1 3 0.0 0.0 0.0 0.0
1135 1 3 0.0 0.0 0.0 0.0
1136 1 3 0.0 0.0 0.0 0.0
1137 1 3 0.0 0.0 0.0 0.0
1138 1 3 0.0 0.0 0.0 0.0
1139 1 3 0.0 0.0 0.0 0.0
1140 1 3 0.0 0.0 0.0 0.0
1141 1 3 0.0 0.0 0.0 0.0
1142 1 2 0.0 0.0 0.0 0.0
1143 1 2 0.0 0.0 0.0 0.0
1144 1 2 0.0 0.0 0.0 0.0
1145 1 2 0.0 0.0 0.0 0.0
1146 1 2 0.0 0.0 0.0 0.0
1147 1 2 0.0 0.0 0.0 0.0
1148 1 2 0.0 0.0 0.0 0.0
1149 1 2 0.0 0.0 0.0 0.0
1150 1 2 0.0 0.0 0.0 0.0
1151 1 2 0.0 0.0 0.0 0.0
1152 1 2 0.0 0.0 0.0 0.0
1153 1 2 0.0 0.0 0.0 0.0
1154 1 2 0.0 0.0 0.0 0.0
1155 1 2 0.0 0.0 0.0 0.0
1156 1 2 0.0 0.0 0.0 0.0
1157 1 2 0.0 0.0 0.0 0.0
1158 1 2 0.0 0.0 0.0 0.0
1159 1 2 0.0 0.0 0.0 0.0
1160 1 2 0.0 0.0 0.0 0.0
1161 1 2 0.0 0.0 0.0 0.0
1162 1 3 0.0 0.0 0.0 0.0
1163 1 3 0.0 0.0 0.0 0.0
1164 1 3 0.0 0.0 0.0 0.0
1165 1 3 0.0 0.0 0.0 0.0
1166 1 3 0.0 0.0 0.0 0.0
1167 1 2 0.0 0.0 0.0 0.0
1168 1 2 0.0 0.0 0.0 0.0
1169 1 2 0.0 0.0 0.0 0.0
1170 1 2 0.0 0.0 0.0 0.0
1171 1 2 0.0 0.0 0.0 0.0
1172 1 2 0.0 0.0 0.0 0.0
1173 1 2 0.0 0.0 0.0 0.0
1174 1 2 0.0 0.0 0.0 0.0
1175 1 2 0.0 0.0 0.0 0.0
1176 1 2 0.0 0.0 0.0 0.0
1177 1 2 0.0 0.0 0.0 0.0
1178 1 2 0.0 0.0 0.0 0.0
1179 1 2 0.0 0.0 0.0 0.0
1180 1 2 0.0 0.0 0.0 0.0
1181 1 2 0.0 0.0 0.0 0.0
1182 1 2 0.0 0.0 0.0 0.0
1183 1 2 0.0 0.0 0.0 0.0
1184 1 2 0.0 0.0 0.0 0.0
1185 1 2 0.0 0.0 0.0 0.0
1186 1 2 0.0 0.0 0.0 0.0
1187 1 3 0.0 0.0 0.0 0.0
1188 1 3 0.0 0.0 0.0 0.0
1189 1 3 0.0 0.0 0.0 0.0
1190 1 3 0.0 0.0 0.0 0.0
1191 1 3 0.0 0.0 0.0 0.0
1192 1 3 0.0 0.0 0.0 0.0
1193 1 3 0.0 0.0 0.0 0.0
1194 1 3 0.0 0.0 0.0 0.0
1195 1 3 0.0 0.0 0.0 0.0
1196 1 3 0.0 0.0 0.0 0.0
1197 1 3 0.0 0.0 0.0 0.0
1198 1 3 0.0 0.0 0.0 0.0
1199 1 3 0.0 0.0 0.0 0.0
1200 1 3 0.0 0.0 0.0 0.0
1201 1 3 0.0 0.0 0.0 0.0
1202 1 2 0.0 0.0 0.0 0.0
1203 1 2 0.0 0.0 0.0 0.0
1204 1 2 0.0 0.0 0.0 0.0
1205 1 2 0.0 0.0 0.0 0.0
1206 1 2 0.0 0.0 0.0 0.0
1207 1 2 0.0 0.0 0.0 0.0
1208 1 2 0.0 0.0 0.0 0.0
1209 1 2 0.0 0.0 0.0 0.0
1210 1 2 0.0 0.0 0.0 0.0
1211 1 2 0.0 0.0 0.0 0.0
1212 1 2 0.0 0.0 0.0 0.0
1213 1 2 0.0 0.0 0.0 0.0
1214 1 2 0.0 0.0 0.0 0.0
1215 1 2 0.0 0.0 0.0 0.0
1216 1 2 0.0 0.0 0.0 0.0
1217 1 2 0.0 0.0 0.0 0.0
1218 1 2 0.0 0.0 0.0 0.0
1219 1 2 0.0 0.0 0.0 0.0
1220 1 2 0.0 0.0 0.0 0.0
1221 1 2 0.0 0.0 0.0 0.0
1222 1 3 0.0 0.0 0.0 0.0
1223 1 3 0.0 0.0 0.0 0.0
1224 1 3 0.0 0.0 0.0 0.0
1225 1 3 0.0 0.0 0.0 0.0
1226 1 3 0.0 0.0 0.0 0.0
1227 1 3 0.0 0.0 0.0 0.0
1228 1 3 0.0 0.0 0.0 0.0
1229 1 3 0.0 0.0 0.0 0.0
1230 1 3 0.0 0.0 0.0 0.0
1231 1 3 0.0 0.0 0.0 0.0
1232 1 2 0.0 0.0 0.0 0.0
1233 1 2 0.0 0.0 0.0 0.0
1234 1 2 0.0 0.0 0.0 0.0
1235 1 2 0.0 0.0 0.0 0.0
1236 1 2 0.0 0.0 0.0 0.0
1237 1 2 0.0 0.0 0.0 0.0
1238 1 2 0.0 0.0 0.0 0.0
1239 1 2 0.0 0.0 0.0 0.0
1240 1 2 0.0 0.0 0.0 0.0
1241 1 2 0.0 0.0 0.0 0.0
1242 1 2 0.0 0.0 0.0 0.0
1243 1 2 0.0 0.0 0.0 0.0
1244 1 2 0.0 0.0 0.0 0.0
1245 1 2 0.0 0.0 0.0 0.0
1246 1 2 0.0 0.0 0.0 0.0
1247 1 2 0.0 0.0 0.0 0.0
1248 1 2 0.0 0.0 0.0 0.0
1249 1 2 0.0 0.0 0.0 0.0
1250 1 2 0.0 0.0 0.0 0.0
1251 1 2 0.0 0.0 0.0 0.0
1252 1 3 0.0 0.0 0.0 0.0
1253 1 3 0.0 0.0 0.0 0.0
1254 1 3 0.0 0.0 0.0 0.0
1255 1 3 0.0 0.0 0.0 0.0
1256 1 3 0.0 0.0 0.0 0.0
1257 1 3 0.0 0.0 0.0 0.0
1258 1 3 0.0 0.0 0.0 0.0
1259 1 3 0.0 0.0 0.0 0.0
1260 1 3 0.0 0.0 0.0 0.0
1261 1 3 0.0 0.0 0.0 0.0
1262 1 2 0.0 0.0 0.0 0.0
1263 1 2 0.0 0.0 0.0 0.0
1264 1 2 0.0 0.0 0.0 0.0
1265 1 2 0.0 0.0 0.0 0.0
1266 1 2 0.0 0.0 0.0 0.0
1267 1 2 0.0 0.0 0.0 0.0
1268 1 2 0.0 0.0 0.0 0.0
1269 1 2 0.0 0.0 0.0 0.0
1270 1 2 0.0 0.0 0.0 0.0
1271 1 2 0.0 0.0 0.0 0.0
1272 1 2 0.0 0.0 0.0 0.0
1273 1 2 0.0 0.0 0.0 0.0
1274 1 2 0.0 0.0 0.0 0.0
1275 1 2 0.0 0.0 0.0 0.0
1276 1 2 0.0 0.0 0.0 0.0
1277 1 2 0.0 0.0 0.0 0.0
1278 1 2 0.0 0.0 0.0 0.0
1279 1 2 0.0 0.0 0.0 0.0
1280 1 2 0.0 0.0 0.0 0.0
1281 1 2 0.0 0.0 0.0 0.0
1282 1 3 0.0 0.0 0.0 0.0
1283 1 3 0.0 0.0 0.0 0.0
1284 1 3 0.0 0.0 0.0 0.0
1285 1 3 0.0 0.0 0.0 0.0
1286 1 3 0.0 0.0 0.0 0.0
1287 1 2 0.0 0.0 0.0 0.0
1288 1 2 0.0 0.0 0.0 0.0
1289 1 2 0.0 0.0 0.0 0.0
1290 1 2 0.0 0.0 0.0 0.0
1291 1 2 0.0 0.0 0.0 0.0
1292 1 2 0.0 0.0 0.0 0.0
1293 1 2 0.0 0.0 0.0 0.0
1294 1 2 0.0 0.0 0.0 0.0
1295 1 2 0.0 0.0 0.0 0.0
1296 1 2 0.0 0.0 0.0 0.0
1297 1 2 0.0 0.0 0.0 0.0
1298 1 2 0.0 0.0 0.0 0.0
1299 1 2 0.0 0.0 0.0 0.0
1300 1 2 0.0 0.0 0.0 0.0
1301 1 2 0.0 0.0 0.0 0.0
1302 1 2 0.0 0.0 0.0 0.0
1303 1 2 0.0 0.0 0.0 0.0
1304 1 2 0.0 0.0 0.0 0.0
1305 1 2 0.0 0.0 0.0 0.0
1306 1 2 0.0 0.0 0.0 0.0
1307 1 3 0.0 0.0 0.0 0.0
1308 1 3 0.0 0.0 0.0 0.0
1309 1 3 0.0 0.0 0.0 0.0
1310 1 3 0.0 0.0 0.0 0.0
1311 1 3 0.0 0.0 0.0 0.0
1312 1 3 0.0 0.0 0.0 0.0
1313 1 3 0.0 0.0 0.0 0.0
1314 1 3 0.0 0.0 0.0 0.0
1315 1 3 0.0 0.0 0.0 0.0
1316 1 3 0.0 0.0 0.0 0.0
1317 1 2 0.0 0.0 0.0 0.0
1318 1 2 0.0 0.0 0.0 0.0
1319 1 2 0.0 0.0 0.0 0.0
1320 1 2 0.0 0.0 0.0 0.0
1321 1 2 0.0 0.0 0.0 0.0
1322 1 2 0.0 0.0 0.0 0.0
1323 1 2 0.0 0.0 0.0 0.0
1324 1 2 0.0 0.0 0.0 0.0
1325 1 2 0.0 0.0 0.0 0.0
1326 1 2 0.0 0.0 0.0 0.0
1327 1 2 0.0 0.0 0.0 0.0
1328 1 2 0.0 0.0 0.0 0.0
1329 1 2 0.0 0.0 0.0 0.0
1330 1 2 0.0 0.0 0.0 0.0
1331 1 2 0.0 0.0 0.0 0.0
1332 1 2 0.0 0.0 0.0 0.0
1333 1 2 0.0 0.0 0.0 0.0
1334 1 2 0.0 0.0 0.0 0.0
1335 1 2 0.0 0.0 0.0 0.0
1336 1 2 0.0 0.0 0.0 0.0
1337 1 2 0.0 0.0 0.0 0.0
1338 1 2 0.0 0.0 0.0 0.0
1339 1 2 0.0 0.0 0.0 0.0
1340 1 2 0.0 0.0 0.0 0.0
1341 1 2 0.0 0.0 0.0 0.0
1342 1 2 0.0 0.0 0.0 0.0
1343 1 2 0.0 0.0 0.0 0.0
1344 1 2 0.0 0.0 0.0 0.0
1345 1 2 0.0 0.0 0.0 0.0
1346 1 2 0.0 0.0 0.0 0.0
1347 1 2 0.0 0.0 0.0 0.0
1348 1 2 0.0 0.0 0.0 0.0
1349 1 2 0.0 0.0 0.0 0.0
1350 1 2 0.0 0.0 0.0 0.0
1351 1 2 0.0 0.0 0.0 0.0
1352 1 2 0.0 0.0 0.0 0.0
1353 1 2 0.0 0.0 0.0 0.0
1354 1 2 0.0 0.0 0.0 0.0
1355 1 2 0.0 0.0 0.0 0.0
1356 1 2 0.0 0.0 0.0 0.0
1357 1 3 0.0 0.0 0.0 0.0
1358 1 3 0.0 0.0 0.0 0.0
1359 1 3 0.0 0.0 0.0 0.0
1360 1 3 0.0 0.0 0.0 0.0
1361 1 3 0.0 0.0 0.0 0.0
1362 1 3 0.0 0.0 0.0 0.0
1363 1 3 0.0 0.0 0.0 0.0
1364 1 3 0.0 0.0 0.0 0.0
1365 1 3 0.0 0.0 0.0 0.0
1366 1 3 0.0 0.0 0.0 0.0
1367 1 2 0.0 0.0 0.0 0.0
1368 1 2 0.0 0.0 0.0 0.0
1369 1 2 0.0 0.0 0.0 0.0
1370 1 2 0.0 0.0 0.0 0.0
1371 1 2 0.0 0.0 0.0 0.0
1372 1 2 0.0 0.0 0.0 0.0
1373 1 2 0.0 0.0 0.0 0.0
1374 1 2 0.0 0.0 0.0 0.0
1375 1 2 0.0 0.0 0.0 0.0
1376 1 2 0.0 0.0 0.0 0.0
1377 1 2 0.0 0.0 0.0 0.0
1378 1 2 0.0 0.0 0.0 0.0
1379 1 2 0.0 0.0 0.0 0.0
1380 1 2 0.0 0.0 0.0 0.0
1381 1 2 0.0 0.0 0.0 0.0
1382 1 2 0.0 0.0 0.0 0.0
1383 1 2 0.0 0.0 0.0 0.0
1384 1 2 0.0 0.0 0.0 0.0
1385 1 2 0.0 0.0 0.0 0.0
1386 1 2 0.0 0.0 0.0 0.0
1387 1 3 0.0 0.0 0.0 0.0
1388 1 3 0.0 0.0 0.0 0.0
1389 1 3 0.0 0.0 0.0 0.0
1390 1 3 0.0 0.0 0.0 0.0
1391 1 3 0.0 0.0 0.0 0.0
1392 1 3 0.0 0.0 0.0 0.0
1393 1 3 0.0 0.0 0.0 0.0
1394 1 3 0.0 0.0 0.0 0.0
1395 1 3 0.0 0.0 0.0 0.0
1396 1 3 0.0 0.0 0.0 0.0
1397 1 2 0.0 0.0 0.0 0.0
1398 1 2 0.0 0.0 0.0 0.0
1399 1 2 0.0 0.0 0.0 0.0
1400 1 2 0.0 0.0 0.0 0.0
1401 1 2 0.0 0.0 0.0 0.0
1402 1 2 0.0 0.0 0.0 0.0
1403 1 2 0.0 0.0 0.0 0.0
1404 1 2 0.0 0.0 0.0 0.0
1405 1 2 0.0 0.0 0.0 0.0
1406 1 2 0.0 0.0 0.0 0.0
1407 1 2 0.0 0.0 0.0 0.0
1408 1 2 0.0 0.0 0.0 0.0
1409 1 2 0.0 0.0 0.0 0.0
1410 1 2 0.0 0.0 0.0 0.0
1411 1 2 0.0 0.0 0.0 0.0
1412 1 2 0.0 0.0 0.0 0.0
1413 1 2 0.0 0.0 0.0 0.0
1414 1 2 0.0 0.0 0.0 0.0
1415 1 2 0.0 0.0 0.0 0.0
1416 1 2 0.0 0.0 0.0 0.0
1417 1 2 0.0 0.0 0.0 0.0
1418 1 2 0.0 0.0 0.0 0.0
1419 1 2 0.0 0.0 0.0 0.0
1420 1 2 0.0 0.0 0.0 0.0
1421 1 2 0.0 0.0 0.0 0.0
1422 1 2 0.0 0.0 0.0 0.0
1423 1 2 0.0 0.0 0.0 0.0
1424 1 2 0.0 0.0 0.0 0.0
1425 1 2 0.0 0.0 0.0 0.0
1426 1 2 0.0 0.0 0.0 0.0
1427 1 2 0.0 0.0 0.0 0.0
1428 1 2 0.0 0.0 0.0 0.0
1429 1 2 0.0 0.0 0.0 0.0
1430 1 2 0.0 0.0 0.0 0.0
1431 1 2 0.0 0.0 0.0 0.0
1432 1 2 0.0 0.0 0.0 0.0
1433 1 2 0.0 0.0 0.0 0.0
1434 1 2 0.0 0.0 0.0 0.0
1435 1 2 0.0 0.0 0.0 0.0
1436 1 2 0.0 0.0 0.0 0.0
1437 1 2 0.0 0.0 0.0 0.0
1438 1 2 0.0 0.0 0.0 0.0
1439 1 2 0.0 0.0 0.0 0.0
1440 1 2 0.0 0.0 0.0 0.0
1441 1 2 0.0 0.0 0.0 0.0
1442 1 2 0.0 0.0 0.0 0.0
1443 1 2 0.0 0.0 0.0 0.0
1444 1 2 0.0 0.0 0.0 0.0
1445 1 2 0.0 0.0 0.0 0.0
1446 1 2 0.0 0.0 0.0 0.0
1447 1 2 0.0 0.0 0.0 0.0
1448 1 2 0.0 0.0 0.0 0.0
1449 1 2 0.0 0.0 0.0 0.0
1450 1 2 0.0 0.0 0.0 0.0
1451 1 2 0.0 0.0 0.0 0.0
1452 1 2 0.0 0.0 0.0 0.0
1453 1 2 0.0 0.0 0.0 0.0
1454 1 2 0.0 0.0 0.0 0.0
1455 1 2 0.0 0.0 0.0 0.0
1456 1 2 0.0 0.0 0.0 0.0
1457 1 2 0.0 0.0 0.0 0.0
1458 1 2 0.0 0.0 0.0 0.0
1459 1 2 0.0 0.0 0.0 0.0
1460 1 2 0.0 0.0 0.0 0.0
1461 1 2 0.0 0.0 0.0 0.0
1462 1 2 0.0 0.0 0.0 0.0
1463 1 2 0.0 0.0 0.0 0.0
1464 1 2 0.0 0.0 0.0 0.0
1465 1 2 0.0 0.0 0.0 0.0
1466 1 2 0.0 0.0 0.0 0.0
1467 1 2 0.0 0.0 0.0 0.0
1468 1 2 0.0 0.0 0.0 0.0
1469 1 2 0.0 0.0 0.0 0.0
1470 1 2 0.0 0.0 0.0 0.0
1471 1 2 0.0 0.0 0.0 0.0
1472 1 2 0.0 0.0 0.0 0.0
1473 1 2 0.0 0.0 0.0 0.0
1474 1 2 0.0 0.0 0.0 0.0
1475 1 2 0.0 0.0 0.0 0.0
1476 1 2 0.0 0.0 0.0 0.0
1477 1 3 0.0 0.0 0.0 0.0
1478 1 3 0.0 0.0 0.0 0.0
1479 1 3 0.0 0.0 0.0 0.0
1480 1 3 0.0 0.0 0.0 0.0
1481 1 3 0.0 0.0 0.0 0.0
1482 1 2 0.0 0.0 0.0 0.0
1483 1 2 0.0 0.0 0.0 0.0
1484 1 2 0.0 0.0 0.0 0.0
1485 1 2 0.0 0.0 0.0 0.0
1486 1 2 0.0 0.0 0.0 0.0
1487 1 2 0.0 0.0 0.0 0.0
1488 1 2 0.0 0.0 0.0 0.0
1489 1 2 0.0 0.0 0.0 0.0
1490 1 2 0.0 0.0 0.0 0.0
1491 1 2 0.0 0.0 0.0 0.0
1492 1 2 0.0 0.0 0.0 0.0
1493 1 2 0.0 0.0 0.0 0.0
1494 1 2 0.0 0.0 0.0 0.0
1495 1 2 0.0 0.0 0.0 0.0
1496 1 2 0.0 0.0 0.0 0.0
1497 1 2 0.0 0.0 0.0 0.0
1498 1 2 0.0 0.0 0.0 0.0
1499 1 2 0.0 0.0 0.0 0.0
1500 1 2 0.0 0.0 0.0 0.0
1501 1 2 0.0 0.0 0.0 0.0
1502 1 3 0.0 0.0 0.0 0.0
1503 1 3 0.0 0.0 0.0 0.0
1504 1 3 0.0 0.0 0.0 0.0
1505 1 3 0.0 0.0 0.0 0.0
1506 1 3 0.0 0.0 0.0 0.0
1507 1 2 0.0 0.0 0.0 0.0
1508 1 2 0.0 0.0 0.0 0.0
1509 1 2 0.0 0.0 0.0 0.0
1510 1 2 0.0 0.0 0.0 0.0
1511 1 2 0.0 0.0 0.0 0.0
1512 1 2 0.0 0.0 0.0 0.0
1513 1 2 0.0 0.0 0.0 0.0
1514 1 2 0.0 0.0 0.0 0.0
1515 1 2 0.0 0.0 0.0 0.0
1516 1 2 0.0 0.0 0.0 0.0
1517 1 2 0.0 0.0 0.0 0.0
1518 1 2 0.0 0.0 0.0 0.0
1519 1 2 0.0 0.0 0.0 0.0
1520 1 2 0.0 0.0 0.0 0.0
1521 1 2 0.0 0.0 0.0 0.0
1522 1 2 0.0 0.0 0.0 0.0
1523 1 2 0.0 0.0 0.0 0.0
1524 1 2 0.0 0.0 0.0 0.0
1525 1 2 0.0 0.0 0.0 0.0
1526 1 2 0.0 0.0 0.0 0.0
1527 1 2 0.0 0.0 0.0 0.0
1528 1 2 0.0 0.0 0.0 0.0
1529 1 2 0.0 0.0 0.0 0.0
1530 1 2 0.0 0.0 0.0 0.0
1531 1 2 0.0 0.0 0.0 0.0
1532 1 2 0.0 0.0 0.0 0.0
1533 1 2 0.0 0.0 0.0 0.0
1534 1 2 0.0 0.0 0.0 0.0
1535 1 2 0.0 0.0 0.0 0.0
1536 1 2 0.0 0.0 0.0 0.0
1537 1 2 0.0 0.0 0.0 0.0
1538 1 2 0.0 0.0 0.0 0.0
1539 1 2 0.0 0.0 0.0 0.0
1540 1 2 0.0 0.0 0.0 0.0
1541 1 2 0.0 0.0 0.0 0.0
1542 1 2 0.0 0.0 0.0 0.0
1543 1 2 0.0 0.0 0.0 0.0
1544 1 2 0.0 0.0 0.0 0.0
1545 1 2 0.0 0.0 0.0 0.0
1546 1 2 0.0 0.0 0.0 0.0
1547 1 3 0.0 0.0 0.0 0.0
1548 1 3 0.0 0.0 0.0 0.0
1549 1 3 0.0 0.0 0.0 0.0
1550 1 3 0.0 0.0 0.0 0.0
1551 1 3 0.0 0.0 0.0 0.0
1552 1 3 0.0 0.0 0.0 0.0
1553 1 3 0.0 0.0 0.0 0.0
1554 1 3 0.0 0.0 0.0 0.0
1555 1 3 0.0 0.0 0.0 0.0
1556 1 3 0.0 0.0 0.0 0.0
1557 1 2 0.0 0.0 0.0 0.0
1558 1 2 0.0 0.0 0.0 0.0
1559 1 2 0.0 0.0 0.0 0.0
1560 1 2 0.0 0.0 0.0 0.0
1561 1 2 0.0 0.0 0.0 0.0
1562 1 2 0.0 0.0 0.0 0.0
1563 1 2 0.0 0.0 0.0 0.0
1564 1 2 0.0 0.0 0.0 0.0
1565 1 2 0.0 0.0 0.0 0.0
1566 1 2 0.0 0.0 0.0 0.0
1567 1 2 0.0 0.0 0.0 0.0
1568 1 2 0.0 0.0 0.0 0.0
1569 1 2 0.0 0.0 0.0 0.0
1570 1 2 0.0 0.0 0.0 0.0
1571 1 2 0.0 0.0 0.0 0.0
1572 1 2 0.0 0.0 0.0 0.0
1573 1 2 0.0 0.0 0.0 0.0
1574 1 2 0.0 0.0 0.0 0.0
1575 1 2 0.0 0.0 0.0 0.0
1576 1 2 0.0 0.0 0.0 0.0
1577 1 3 0.0 0.0 0.0 0.0
1578 1 3 0.0 0.0 0.0 0.0
1579 1 3 0.0 0.0 0.0 0.0
1580 1 3 0.0 0.0 0.0 0.0
1581 1 3 0.0 0.0 0.0 0.0
1582 1 2 0.0 0.0 0.0 0.0
1583 1 2 0.0 0.0 0.0 0.0
1584 1 2 0.0 0.0 0.0 0.0
1585 1 2 0.0 0.0 0.0 0.0
1586 1 2 0.0 0.0 0.0 0.0
1587 1 2 0.0 0.0 0.0 0.0
1588 1 2 0.0 0.0 0.0 0.0
1589 1 2 0.0 0.0 0.0 0.0
1590 1 2 0.0 0.0 0.0 0.0
1591 1 2 0.0 0.0 0.0 0.0
1592 1 2 0.0 0.0 0.0 0.0
1593 1 2 0.0 0.0 0.0 0.0
1594 1 2 0.0 0.0 0.0 0.0
1595 1 2 0.0 0.0 0.0 0.0
1596 1 2 0.0 0.0 0.0 0.0
1597 1 2 0.0 0.0 0.0 0.0
1598 1 2 0.0 0.0 0.0 0.0
1599 1 2 0.0 0.0 0.0 0.0
1600 1 2 0.0 0.0 0.0 0.0
1601 1 2 0.0 0.0 0.0 0.0
1602 1 3 0.0 0.0 0.0 0.0
1603 1 3 0.0 0.0 0.0 0.0
1604 1 3 0.0 0.0 0.0 0.0
1605 1 3 0.0 0.0 0.0 0.0
1606 1 3 0.0 0.0 0.0 0.0
1607 1 2 0.0 0.0 0.0 0.0
1608 1 2 0.0 0.0 0.0 0.0
1609 1 2 0.0 0.0 0.0 0.0
1610 1 2 0.0 0.0 0.0 0.0
1611 1 2 0.0 0.0 0.0 0.0
1612 1 2 0.0 0.0 0.0 0.0
1613 1 2 0.0 0.0 0.0 0.0
1614 1 2 0.0 0.0 0.0 0.0
1615 1 2 0.0 0.0 0.0 0.0
1616 1 2 0.0 0.0 0.0 0.0
1617 1 2 0.0 0.0 0.0 0.0
1618 1 2 0.0 0.0 0.0 0.0
1619 1 2 0.0 0.0 0.0 0.0
1620 1 2 0.0 0.0 0.0 0.0
1621 1 2 0.0 0.0 0.0 0.0
1622 1 2 0.0 0.0 0.0 0.0
1623 1 2 0.0 0.0 0.0 0.0
1624 1 2 0.0 0.0 0.0 0.0
1625 1 2 0.0 0.0 0.0 0.0
1626 1 2 0.0 0.0 0.0 0.0
1627 1 2 0.0 0.0 0.0 0.0
1628 1 2 0.0 0.0 0.0 0.0
1629 1 2 0.0 0.0 0.0 0.0
1630 1 2 0.0 0.0 0.0 0.0
1631 1 2 0.0 0.0 0.0 0.0
1632 1 2 0.0 0.0 0.0 0.0
1633 1 2 0.0 0.0 0.0 0.0
1634 1 2 0.0 0.0 0.0 0.0
1635 1 2 0.0 0.0 0.0 0.0
1636 1 2 0.0 0.0 0.0 0.0
1637 1 2 0.0 0.0 0.0 0.0
1638 1 2 0.0 0.0 0.0 0.0
1639 1 2 0.0 0.0 0.0 0.0
1640 1 2 0.0 0.0 0.0 0.0
1641 1 2 0.0 0.0 0.0 0.0
1642 1 2 0.0 0.0 0.0 0.0
1643 1 2 0.0 0.0 0.0 0.0
1644 1 2 0.0 0.0 0.0 0.0
1645 1 2 0.0 0.0 0.0 0.0
1646 1 2 0.0 0.0 0.0 0.0
1647 1 3 0.0 0.0 0.0 0.0
1648 1 3 0.0 0.0 0.0 0.0
1649 1 3 0.0 0.0 0.0 0.0
1650 1 3 0.0 0.0 0.0 0.0
1651 1 3 0.0 0.0 0.0 0.0
1652 1 2 0.0 0.0 0.0 0.0
1653 1 2 0.0 0.0 0.0 0.0
1654 1 2 0.0 0.0 0.0 0.0
1655 1 2 0.0 0.0 0.0 0.0
1656 1 2 0.0 0.0 0.0 0.0
1657 1 2 0.0 0.0 0.0 0.0
1658 1 2 0.0 0.0 0.0 0.0
1659 1 2 0.0 0.0 0.0 0.0
1660 1 2 0.0 0.0 0.0 0.0
1661 1 2 0.0 0.0 0.0 0.0
1662 1 2 0.0 0.0 0.0 0.0
1663 1 2 0.0 0.0 0.0 0.0
1664 1 2 0.0 0.0 0.0 0.0
1665 1 2 0.0 0.0 0.0 0.0
1666 1 2 0.0 0.0 0.0 0.0
1667 1 2 0.0 0.0 0.0 0.0
1668 1 2 0.0 0.0 0.0 0.0
1669 1 2 0.0 0.0 0.0 0.0
1670 1 2 0.0 0.0 0.0 0.0
1671 1 2 0.0 0.0 0.0 0.0
1672 1 2 0.0 0.0 0.0 0.0
1673 1 2 0.0 0.0 0.0 0.0
1674 1 2 0.0 0.0 0.0 0.0
1675 1 2 0.0 0.0 0.0 0.0
1676 1 2 0.0 0.0 0.0 0.0
1677 1 2 0.0 0.0 0.0 0.0
1678 1 2 0.0 0.0 0.0 0.0
1679 1 2 0.0 0.0 0.0 0.0
1680 1 2 0.0 0.0 0.0 0.0
1681 1 2 0.0 0.0 0.0 0.0
1682 1 2 0.0 0.0 0.0 0.0
1683 1 2 0.0 0.0 0.0 0.0
1684 1 2 0.0 0.0 0.0 0.0
1685 1 2 0.0 0.0 0.0 0.0
1686 1 2 0.0 0.0 0.0 0.0
1687 1 2 0.0 0.0 0.0 0.0
1688 1 2 0.0 0.0 0.0 0.0
1689 1 2 0.0 0.0 0.0 0.0
1690 1 2 0.0 0.0 0.0 0.0
1691 1 2 0.0 0.0 0.0 0.0
1692 1 3 0.0 0.0 0.0 0.0
1693 1 3 0.0 0.0 0.0 0.0
1694 1 3 0.0 0.0 0.0 0.0
1695 1 3 0.0 0.0 0.0 0.0
1696 1 3 0.0 0.0 0.0 0.0
1697 1 2 0.0 0.0 0.0 0.0
1698 1 2 0.0 0.0 0.0 0.0
1699 1 2 0.0 0.0 0.0 0.0
1700 1 2 0.0 0.0 0.0 0.0
1701 1 2 0.0 0.0 0.0 0.0
1702 1 2 0.0 0.0 0.0 0.0
1703 1 2 0.0 0.0 0.0 0.0
1704 1 2 0.0 0.0 0.0 0.0
1705 1 2 0.0 0.0 0.0 0.0
1706 1 2 0.0 0.0 0.0 0.0
1707 1 2 0.0 0.0 0.0 0.0
1708 1 2 0.0 0.0 0.0 0.0
1709 1 2 0.0 0.0 0.0 0.0
1710 1 2 0.0 0.0 0.0 0.0
1711 1 2 0.0 0.0 0.0 0.0
1712 1 2 0.0 0.0 0.0 0.0
1713 1 2 0.0 0.0 0.0 0.0
1714 1 2 0.0 0.0 0.0 0.0
1715 1 2 0.0 0.0 0.0 0.0
1716 1 2 0.0 0.0 0.0 0.0
1717 1 2 0.0 0.0 0.0 0.0
1718 1 2 0.0 0.0 0.0 0.0
1719 1 2 0.0 0.0 0.0 0.0
1720 1 2 0.0 0.0 0.0 0.0
1721 1 2 0.0 0.0 0.0 0.0
1722 1 2 0.0 0.0 0.0 0.0
1723 1 2 0.0 0.0 0.0 0.0
1724 1 2 0.0 0.0 0.0 0.0
1725 1 2 0.0 0.0 0.0 0.0
1726 1 2 0.0 0.0 0.0 0.0
1727 1 2 0.0 0.0 0.0 0.0
1728 1 2 0.0 0.0 0.0 0.0
1729 1 2 0.0 0.0 0.0 0.0
1730 1 2 0.0 0.0 0.0 0.0
1731 1 2 0.0 0.0 0.0 0.0
1732 1 2 0.0 0.0 0.0 0.0
1733 1 2 0.0 0.0 0.0 0.0
1734 1 2 0.0 0.0 0.0 0.0
1735 1 2 0.0 0.0 0.0 0.0
1736 1 2 0.0 0.0 0.0 0.0
1737 1 2 0.0 0.0 0.0 0.0
1738 1 2 0.0 0.0 0.0 0.0
1739 1 2 0.0 0.0 0.0 0.0
1740 1 2 0.0 0.0 0.0 0.0
1741 1 2 0.0 0.0 0.0 0.0
1742 1 2 0.0 0.0 0.0 0.0
1743 1 2 0.0 0.0 0.0 0.0
1744 1 2 0.0 0.0 0.0 0.0
1745 1 2 0.0 0.0 0.0 0.0
1746 1 2 0.0 0.0 0.0 0.0
1747 1 2 0.0 0.0 0.0 0.0
1748 1 2 0.0 0.0 0.0 0.0
1749 1 2 0.0 0.0 0.0 0.0
1750 1 2 0.0 0.0 0.0 0.0
1751 1 2 0.0 0.0 0.0 0.0
1752 1 2 0.0 0.0 0.0 0.0
1753 1 2 0.0 0.0 0.0 0.0
1754 1 2 0.0 0.0 0.0 0.0
1755 1 2 0.0 0.0 0.0 0.0
1756 1 2 0.0 0.0 0.0 0.0
1757 1 2 0.0 0.0 0.0 0.0
1758 1 2 0.0 0.0 0.0 0.0
1759 1 2 0.0 0.0 0.0 0.0
1760 1 2 0.0 0.0 0.0 0.0
1761 1 2 0.0 0.0 0.0 0.0
1762 1 2 0.0 0.0 0.0 0.0
1763 1 2 0.0 0.0 0.0 0.0
1764 1 2 0.0 0.0 0.0 0.0
1765 1 2 0.0 0.0 0.0 0.0
1766 1 2 0.0 0.0 0.0 0.0
1767 1 2 0.0 0.0 0.0 0.0
1768 1 2 0.0 0.0 0.0 0.0
1769 1 2 0.0 0.0 0.0 0.0
1770 1 2 0.0 0.0 0.0 0.0
1771 1 2 0.0 0.0 0.0 0.0
1772 1 2 0.0 0.0 0.0 0.0
1773 1 2 0.0 0.0 0.0 0.0
1774 1 2 0.0 0.0 0.0 0.0
1775 1 2 0.0 0.0 0.0 0.0
1776 1 2 0.0 0.0 0.0 0.0
1777 1 2 0.0 0.0 0.0 0.0
1778 1 2 0.0 0.0 0.0 0.0
1779 1 2 0.0 0.0 0.0 0.0
1780 1 2 0.0 0.0 0.0 0.0
1781 1 2 0.0 0.0 0.0 0.0
1782 1 2 0.0 0.0 0.0 0.0
1783 1 2 0.0 0.0 0.0 0.0
1784 1 2 0.0 0.0 0.0 0.0
1785 1 2 0.0 0.0 0.0 0.0
1786 1 2 0.0 0.0 0.0 0.0
1787 1 2 0.0 0.0 0.0 0.0
1788 1 2 0.0 0.0 0.0 0.0
1789 1 2 0.0 0.0 0.0 0.0
1790 1 2 0.0 0.0 0.0 0.0
1791 1 2 0.0 0.0 0.0 0.0
1792 1 2 0.0 0.0 0.0 0.0
1793 1 2 0.0 0.0 0.0 0.0
1794 1 2 0.0 0.0 0.0 0.0
1795 1 2 0.0 0.0 0.0 0.0
1796 1 2 0.0 0.0 0.0 0.0
1797 1 3 0.0 0.0 0.0 0.0
1798 1 3 0.0 0.0 0.0 0.0
1799 1 3 0.0 0.0 0.0 0.0
1800 1 3 0.0 0.0 0.0 0.0
1801 1 3 0.0 0.0 0.0 0.0
1802 1 3 0.0 0.0 0.0 0.0
1803 1 3 0.0 0.0 0.0 0.0
1804 1 3 0.0 0.0 0.0 0.0
1805 1 3 0.0 0.0 0.0 0.0
1806 1 3 0.0 0.0 0.0 0.0
1807 1 2 0.0 0.0 0.0 0.0
1808 1 2 0.0 0.0 0.0 0.0
1809 1 2 0.0 0.0 0.0 0.0
1810 1 2 0.0 0.0 0.0 0.0
1811 1 2 0.0 0.0 0.0 0.0
1812 1 2 0.0 0.0 0.0 0.0
1813 1 2 0.0 0.0 0.0 0.0
1814 1 2 0.0 0.0 0.0 0.0
1815 1 2 0.0 0.0 0.0 0.0
1816 1 2 0.0 0.0 0.0 0.0
1817 1 2 0.0 0.0 0.0 0.0
1818 1 2 0.0 0.0 0.0 0.0
1819 1 2 0.0 0.0 0.0 0.0
1820 1 2 0.0 0.0 0.0 0.0
1821 1 2 0.0 0.0 0.0 0.0
1822 1 2 0.0 0.0 0.0 0.0
1823 1 2 0.0 0.0 0.0 0.0
1824 1 2 0.0 0.0 0.0 0.0
1825 1 2 0.0 0.0 0.0 0.0
1826 1 2 0.0 0.0 0.0 0.0
1827 1 3 0.0 0.0 0.0 0.0
1828 1 3 0.0 0.0 0.0 0.0
1829 1 3 0.0 0.0 0.0 0.0
1830 1 3 0.0 0.0 0.0 0.0
1831 1 3 0.0 0.0 0.0 0.0
1832 1 2 0.0 0.0 0.0 0.0
1833 1 2 0.0 0.0 0.0 0.0
1834 1 2 0.0 0.0 0.0 0.0
1835 1 2 0.0 0.0 0.0 0.0
1836 1 2 0.0 0.0 0.0 0.0
1837 1 2 0.0 0.0 0.0 0.0
1838 1 2 0.0 0.0 0.0 0.0
1839 1 2 0.0 0.0 0.0 0.0
1840 1 2 0.0 0.0 0.0 0.0
1841 1 2 0.0 0.0 0.0 0.0
1842 1 2 0.0 0.0 0.0 0.0
1843 1 2 0.0 0.0 0.0 0.0
1844 1 2 0.0 0.0 0.0 0.0
1845 1 2 0.0 0.0 0.0 0.0
1846 1 2 0.0 0.0 0.0 0.0
1847 1 2 0.0 0.0 0.0 0.0
1848 1 2 0.0 0.0 0.0 0.0
1849 1 2 0.0 0.0 0.0 0.0
1850 1 2 0.0 0.0 0.0 0.0
1851 1 2 0.0 0.0 0.0 0.0
1852 1 2 0.0 0.0 0.0 0.0
1853 1 2 0.0 0.0 0.0 0.0
1854 1 2 0.0 0.0 0.0 0.0
1855 1 2 0.0 0.0 0.0 0.0
1856 1 2 0.0 0.0 0.0 0.0
1857 1 2 0.0 0.0 0.0 0.0
1858 1 2 0.0 0.0 0.0 0.0
1859 1 2 0.0 0.0 0.0 0.0
1860 1 2 0.0 0.0 0.0 0.0
1861 1 2 0.0 0.0 0.0 0.0
1862 1 2 0.0 0.0 0.0 0.0
1863 1 2 0.0 0.0 0.0 0.0
1864 1 2 0.0 0.0 0.0 0.0
1865 1 2 0.0 0.0 0.0 0.0
1866 1 2 0.0 0.0 0.0 0.0
1867 1 2 0.0 0.0 0.0 0.0
1868 1 2 0.0 0.0 0.0 0.0
1869 1 2 0.0 0.0 0.0 0.0
1870 1 2 0.0 0.0 0.0 0.0
1871 1 2 0.0 0.0 0.0 0.0
1872 1 3 0.0 0.0 0.0 0.0
1873 1 3 0.0 0.0 0.0 0.0
1874 1 3 0.0 0.0 0.0 0.0
1875 1 3 0.0 0.0 0.0 0.0
1876 1 3 0.0 0.0 0.0 0.0
1877 1 2 0.0 0.0 0.0 0.0
1878 1 2 0.0 0.0 0.0 0.0
1879 1 2 0.0 0.0 0.0 0.0
1880 1 2 0.0 0.0 0.0 0.0
1881 1 2 0.0 0.0 0.0 0.0
1882 1 2 0.0 0.0 0.0 0.0
1883 1 2 0.0 0.0 0.0 0.0
1884 1 2 0.0 0.0 0.0 0.0
1885 1 2 0.0 0.0 0.0 0.0
1886 1 2 0.0 0.0 0.0 0.0
1887 1 2 0.0 0.0 0.0 0.0
1888 1 2 0.0 0.0 0.0 0.0
1889 1 2 0.0 0.0 0.0 0.0
1890 1 2 0.0 0.0 0.0 0.0
1891 1 2 0.0 0.0 0.0 0.0
1892 1 2 0.0 0.0 0.0 0.0
1893 1 2 0.0 0.0 0.0 0.0
1894 1 2 0.0 0.0 0.0 0.0
1895 1 2 0.0 0.0 0.0 0.0
1896 1 2 0.0 0.0 0.0 0.0
1897 1 2 0.0 0.0 0.0 0.0
1898 1 2 0.0 0.0 0.0 0.0
1899 1 2 0.0 0.0 0.0 0.0
1900 1 2 0.0 0.0 0.0 0.0
1901 1 2 0.0 0.0 0.0 0.0
1902 1 2 0.0 0.0 0.0 0.0
1903 1 2 0.0 0.0 0.0 0.0
1904 1 2 0.0 0.0 0.0 0.0
1905 1 2 0.0 0.0 0.0 0.0
1906 1 2 0.0 0.0 0.0 0.0
1907 1 2 0.0 0.0 0.0 0.0
1908 1 2 0.0 0.0 0.0 0.0
1909 1 2 0.0 0.0 0.0 0.0
1910 1 2 0.0 0.0 0.0 0.0
1911 1 2 0.0 0.0 0.0 0.0
1912 1 2 0.0 0.0 0.0 0.0
1913 1 2 0.0 0.0 0.0 0.0
1914 1 2 0.0 0.0 0.0 0.0
1915 1 2 0.0 0.0 0.0 0.0
1916 1 2 0.0 0.0 0.0 0.0
1917 1 3 0.0 0.0 0.0 0.0
1918 1 3 0.0 0.0 0.0 0.0
1919 1 3 0.0 0.0 0.0 0.0
1920 1 3 0.0 0.0 0.0 0.0
1921 1 3 0.0 0.0 0.0 0.0
1922 1 3 0.0 0.0 0.0 0.0
1923 1 3 0.0 0.0 0.0 0.0
1924 1 3 0.0 0.0 0.0 0.0
1925 1 3 0.0 0.0 0.0 0.0
1926 1 3 0.0 0.0 0.0 0.0
1927 1 2 0.0 0.0 0.0 0.0
1928 1 2 0.0 0.0 0.0 0.0
1929 1 2 0.0 0.0 0.0 0.0
1930 1 2 0.0 0.0 0.0 0.0
1931 1 2 0.0 0.0 0.0 0.0
1932 1 2 0.0 0.0 0.0 0.0
1933 1 2 0.0 0.0 0.0 0.0
1934 1 2 0.0 0.0 0.0 0.0
1935 1 2 0.0 0.0 0.0 0.0
1936 1 2 0.0 0.0 0.0 0.0
1937 1 2 0.0 0.0 0.0 0.0
1938 1 2 0.0 0.0 0.0 0.0
1939 1 2 0.0 0.0 0.0 0.0
1940 1 2 0.0 0.0 0.0 0.0
1941 1 2 0.0 0.0 0.0 0.0
1942 1 2 0.0 0.0 0.0 0.0
1943 1 2 0.0 0.0 0.0 0.0
1944 1 2 0.0 0.0 0.0 0.0
1945 1 2 0.0 0.0 0.0 0.0
1946 1 2 0.0 0.0 0.0 0.0
1947 1 3 0.0 0.0 0.0 0.0
1948 1 3 0.0 0.0 0.0 0.0
1949 1 3 0.0 0.0 0.0 0.0
1950 1 3 0.0 0.0 0.0 0.0
1951 1 3 0.0 0.0 0.0 0.0
1952 1 3 0.0 0.0 0.0 0.0
1953 1 3 0.0 0.0 0.0 0.0
1954 1 3 0.0 0.0 0.0 0.0
1955 1 3 0.0 0.0 0.0 0.0
1956 1 3 0.0 0.0 0.0 0.0
1957 1 3 0.0 0.0 0.0 0.0
1958 1 3 0.0 0.0 0.0 0.0
1959 1 3 0.0 0.0 0.0 0.0
1960 1 3 0.0 0.0 0.0 0.0
1961 1 3 0.0 0.0 0.0 0.0
1962 1 2 0.0 0.0 0.0 0.0
1963 1 2 0.0 0.0 0.0 0.0
1964 1 2 0.0 0.0 0.0 0.0
1965 1 2 0.0 0.0 0.0 0.0
1966 1 2 0.0 0.0 0.0 0.0
1967 1 2 0.0 0.0 0.0 0.0
1968 1 2 0.0 0.0 0.0 0.0
1969 1 2 0.0 0.0 0.0 0.0
1970 1 2 0.0 0.0 0.0 0.0
1971 1 2 0.0 0.0 0.0 0.0
1972 1 2 0.0 0.0 0.0 0.0
1973 1 2 0.0 0.0 0.0 0.0
1974 1 2 0.0 0.0 0.0 0.0
1975 1 2 0.0 0.0 0.0 0.0
1976 1 2 0.0 0.0 0.0 0.0
1977 1 2 0.0 0.0 0.0 0.0
1978 1 2 0.0 0.0 0.0 0.0
1979 1 2 0.0 0.0 0.0 0.0
1980 1 2 0.0 0.0 0.0 0.0
1981 1 2 0.0 0.0 0.0 0.0
1982 1 3 0.0 0.0 0.0 0.0
1983 1 3 0.0 0.0 0.0 0.0
1984 1 3 0.0 0.0 0.0 0.0
1985 1 3 0.0 0.0 0.0 0.0
1986 1 3 0.0 0.0 0.0 0.0
1987 1 2 0.0 0.0 0.0 0.0
1988 1 2 0.0 0.0 0.0 0.0
1989 1 2 0.0 0.0 0.0 0.0
1990 1 2 0.0 0.0 0.0 0.0
1991 1 2 0.0 0.0 0.0 0.0
1992 1 2 0.0 0.0 0.0 0.0
1993 1 2 0.0 0.0 0.0 0.0
1994 1 2 0.0 0.0 0.0 0.0
1995 1 2 0.0 0.0 0.0 0.0
1996 1 2 0.0 0.0 0.0 0.0
1997 1 2 0.0 0.0 0.0 0.0
1998 1 2 0.0 0.0 0.0 0.0
1999 1 2 0.0 0.0 0.0 0.0
2000 1 2 0.0 0.0 0.0 0.0
2001 1 2 0.0 0.0 0.0 0.0
2002 1 2 0.0 0.0 0.0 0.0
2003 1 2 0.0 0.0 0.0 0.0
2004 1 2 0.0 0.0 0.0 0.0
2005 1 2 0.0 0.0 0.0 0.0
2006 1 2 0.0 0.0 0.0 0.0
2007 1 2 0.0 0.0 0.0 0.0
2008 1 2 0.0 0.0 0.0 0.0
2009 1 2 0.0 0.0 0.0 0.0
2010 1 2 0.0 0.0 0.0 0.0
2011 1 2 0.0 0.0 0.0 0.0
2012 1 2 0.0 0.0 0.0 0.0
2013 1 2 0.0 0.0 0.0 0.0
2014 1 2 0.0 0.0 0.0 0.0
2015 1 2 0.0 0.0 0.0 0.0
2016 1 2 0.0 0.0 0.0 0.0
2017 1 2 0.0 0.0 0.0 0.0
2018 1 2 0.0 0.0 0.0 0.0
2019 1 2 0.0 0.0 0.0 0.0
2020 1 2 0.0 0.0 0.0 0.0
2021 1 2 0.0 0.0 0.0 0.0
2022 1 2 0.0 0.0 0.0 0.0
2023 1 2 0.0 0.0 0.0 0.0
2024 1 2 0.0 0.0 0.0 0.0
2025 1 2 0.0 0.0 0.0 0.0
2026 1 2 0.0 0.0 0.0 0.0
2027 1 3 0.0 0.0 0.0 0.0
2028 1 3 0.0 0.0 0.0 0.0
2029 1 3 0.0 0.0 0.0 0.0
2030 1 3 0.0 0.0 0.0 0.0
2031 1 3 0.0 0.0 0.0 0.0
2032 1 3 0.0 0.0 0.0 0.0
2033 1 3 0.0 0.0 0.0 0.0
2034 1 3 0.0 0.0 0.0 0.0
2035 1 3 0.0 0.0 0.0 0.0
2036 1 3 0.0 0.0 0.0 0.0
2037 1 2 0.0 0.0 0.0 0.0
2038 1 2 0.0 0.0 0.0 0.0
2039 1 2 0.0 0.0 0.0 0.0
2040 1 2 0.0 0.0 0.0 0.0
2041 1 2 0.0 0.0 0.0 0.0
2042 1 2 0.0 0.0 0.0 0.0
2043 1 2 0.0 0.0 0.0 0.0
2044 1 2 0.0 0.0 0.0 0.0
2045 1 2 0.0 0.0 0.0 0.0
2046 1 2 0.0 0.0 0.0 0.0
2047 1 2 0.0 0.0 0.0 0.0
2048 1 2 0.0 0.0 0.0 0.0
2049 1 2 0.0 0.0 0.0 0.0
2050 1 2 0.0 0.0 0.0 0.0
2051 1 2 0.0 0.0 0.0 0.0
2052 1 2 0.0 0.0 0.0 0.0
2053 1 2 0.0 0.0 0.0 0.0
2054 1 2 0.0 0.0 0.0 0.0
2055 1 2 0.0 0.0 0.0 0.0
2056 1 2 0.0 0.0 0.0 0.0
2057 1 3 0.0 0.0 0.0 0.0
2058 1 3 0.0 0.0 0.0 0.0
2059 1 3 0.0 0.0 0.0 0.0
2060 1 3 0.0 0.0 0.0 0.0
2061 1 3 0.0 0.0 0.0 0.0
2062 1 2 0.0 0.0 0.0 0.0
2063 1 2 0.0 0.0 0.0 0.0
2064 1 2 0.0 0.0 0.0 0.0
2065 1 2 0.0 0.0 0.0 0.0
2066 1 2 0.0 0.0 0.0 0.0
2067 1 2 0.0 0.0 0.0 0.0
2068 1 2 0.0 0.0 0.0 0.0
2069 1 2 0.0 0.0 0.0 0.0
2070 1 2 0.0 0.0 0.0 0.0
2071 1 2 0.0 0.0 0.0 0.0
2072 1 2 0.0 0.0 0.0 0.0
2073 1 2 0.0 0.0 0.0 0.0
2074 1 2 0.0 0.0 0.0 0.0
2075 1 2 0.0 0.0 0.0 0.0
2076 1 2 0.0 0.0 0.0 0.0
2077 1 2 0.0 0.0 0.0 0.0
2078 1 2 0.0 0.0 0.0 0.0
2079 1 2 0.0 0.0 0.0 0.0
2080 1 2 0.0 0.0 0.0 0.0
2081 1 2 0.0 0.0 0.0 0.0
2082 1 3 0.0 0.0 0.0 0.0
2083 1 3 0.0 0.0 0.0 0.0
2084 1 3 0.0 0.0 0.0 0.0
2085 1 3 0.0 0.0 0.0 0.0
2086 1 3 0.0 0.0 0.0 0.0
2087 1 2 0.0 0.0 0.0 0.0
2088 1 2 0.0 0.0 0.0 0.0
2089 1 2 0.0 0.0 0.0 0.0
2090 1 2 0.0 0.0 0.0 0.0
2091 1 2 0.0 0.0 0.0 0.0
2092 1 2 0.0 0.0 0.0 0.0
2093 1 2 0.0 0.0 0.0 0.0
2094 1 2 0.0 0.0 0.0 0.0
2095 1 2 0.0 0.0 0.0 0.0
2096 1 2 0.0 0.0 0.0 0.0
2097 1 2 0.0 0.0 0.0 0.0
2098 1 2 0.0 0.0 0.0 0.0
2099 1 2 0.0 0.0 0.0 0.0
2100 1 2 0.0 0.0 0.0 0.0
2101 1 2 0.0 0.0 0.0 0.0
2102 1 2 0.0 0.0 0.0 0.0
2103 1 2 0.0 0.0 0.0 0.0
2104 1 2 0.0 0.0 0.0 0.0
2105 1 2 0.0 0.0 0.0 0.0
2106 1 2 0.0 0.0 0.0 0.0
2107 1 3 0.0 0.0 0.0 0.0
2108 1 3 0.0 0.0 0.0 0.0
2109 1 3 0.0 0.0 0.0 0.0
2110 1 3 0.0 0.0 0.0 0.0
2111 1 3 0.0 0.0 0.0 0.0
2112 1 2 0.0 0.0 0.0 0.0
2113 1 2 0.0 0.0 0.0 0.0
2114 1 2 0.0 0.0 0.0 0.0
2115 1 2 0.0 0.0 0.0 0.0
2116 1 2 0.0 0.0 0.0 0.0
2117 1 2 0.0 0.0 0.0 0.0
2118 1 2 0.0 0.0 0.0 0.0
2119 1 2 0.0 0.0 0.0 0.0
2120 1 2 0.0 0.0 0.0 0.0
2121 1 2 0.0 0.0 0.0 0.0
2122 1 2 0.0 0.0 0.0 0.0
2123 1 2 0.0 0.0 0.0 0.0
2124 1 2 0.0 0.0 0.0 0.0
2125 1 2 0.0 0.0 0.0 0.0
2126 1 2 0.0 0.0 0.0 0.0
2127 1 2 0.0 0.0 0.0 0.0
2128 1 2 0.0 0.0 0.0 0.0
2129 1 2 0.0 0.0 0.0 0.0
2130 1 2 0.0 0.0 0.0 0.0
2131 1 2 0.0 0.0 0.0 0.0
2132 1 2 0.0 0.0 0.0 0.0
2133 1 2 0.0 0.0 0.0 0.0
2134 1 2 0.0 0.0 0.0 0.0
2135 1 2 0.0 0.0 0.0 0.0
2136 1 2 0.0 0.0 0.0 0.0
2137 1 2 0.0 0.0 0.0 0.0
2138 1 2 0.0 0.0 0.0 0.0
2139 1 2 0.0 0.0 0.0 0.0
2140 1 2 0.0 0.0 0.0 0.0
2141 1 2 0.0 0.0 0.0 0.0
2142 1 2 0.0 0.0 0.0 0.0
2143 1 2 0.0 0.0 0.0 0.0
2144 1 2 0.0 0.0 0.0 0.0
2145 1 2 0.0 0.0 0.0 0.0
2146 1 2 0.0 0.0 0.0 0.0
2147 1 2 0.0 0.0 0.0 0.0
2148 1 2 0.0 0.0 0.0 0.0
2149 1 2 0.0 0.0 0.0 0.0
2150 1 2 0.0 0.0 0.0 0.0
2151 1 2 0.0 0.0 0.0 0.0
2152 1 2 0.0 0.0 0.0 0.0
2153 1 2 0.0 0.0 0.0 0.0
2154 1 2 0.0 0.0 0.0 0.0
2155 1 2 0.0 0.0 0.0 0.0
2156 1 2 0.0 0.0 0.0 0.0
2157 1 2 0.0 0.0 0.0 0.0
2158 1 2 0.0 0.0 0.0 0.0
2159 1 2 0.0 0.0 0.0 0.0
2160 1 2 0.0 0.0 0.0 0.0
2161 1 2 0.0 0.0 0.0 0.0
2162 1 2 0.0 0.0 0.0 0.0
2163 1 2 0.0 0.0 0.0 0.0
2164 1 2 0.0 0.0 0.0 0.0
2165 1 2 0.0 0.0 0.0 0.0
2166 1 2 0.0 0.0 0.0 0.0
2167 1 2 0.0 0.0 0.0 0.0
2168 1 2 0.0 0.0 0.0 0.0
2169 1 2 0.0 0.0 0.0 0.0
2170 1 2 0.0 0.0 0.0 0.0
2171 1 2 0.0 0.0 0.0 0.0
2172 1 3 0.0 0.0 0.0 0.0
2173 1 3 0.0 0.0 0.0 0.0
2174 1 3 0.0 0.0 0.0 0.0
2175 1 3 0.0 0.0 0.0 0.0
2176 1 3 0.0 0.0 0.0 0.0
2177 1 2 0.0 0.0 0.0 0.0
2178 1 2 0.0 0.0 0.0 0.0
2179 1 2 0.0 0.0 0.0 0.0
2180 1 2 0.0 0.0 0.0 0.0
2181 1 2 0.0 0.0 0.0 0.0
2182 1 2 0.0 0.0 0.0 0.0
2183 1 2 0.0 0.0 0.0 0.0
2184 1 2 0.0 0.0 0.0 0.0
2185 1 2 0.0 0.0 0.0 0.0
2186 1 2 0.0 0.0 0.0 0.0
2187 1 2 0.0 0.0 0.0 0.0
2188 1 2 0.0 0.0 0.0 0.0
2189 1 2 0.0 0.0 0.0 0.0
2190 1 2 0.0 0.0 0.0 0.0
2191 1 2 0.0 0.0 0.0 0.0
2192 1 2 0.0 0.0 0.0 0.0
2193 1 2 0.0 0.0 0.0 0.0
2194 1 2 0.0 0.0 0.0 0.0
2195 1 2 0.0 0.0 0.0 0.0
2196 1 2 0.0 0.0 0.0 0.0
2197 1 2 0.0 0.0 0.0 0.0
2198 1 2 0.0 0.0 0.0 0.0
2199 1 2 0.0 0.0 0.0 0.0
2200 1 2 0.0 0.0 0.0 0.0
2201 1 2 0.0 0.0 0.0 0.0
2202 1 2 0.0 0.0 0.0 0.0
2203 1 2 0.0 0.0 0.0 0.0
2204 1 2 0.0 0.0 0.0 0.0
2205 1 2 0.0 0.0 0.0 0.0
2206 1 2 0.0 0.0 0.0 0.0
2207 1 2 0.0 0.0 0.0 0.0
2208 1 2 0.0 0.0 0.0 0.0
2209 1 2 0.0 0.0 0.0 0.0
2210 1 2 0.0 0.0 0.0 0.0
2211 1 2 0.0 0.0 0.0 0.0
2212 1 2 0.0 0.0 0.0 0.0
2213 1 2 0.0 0.0 0.0 0.0
2214 1 2 0.0 0.0 0.0 0.0
2215 1 2 0.0 0.0 0.0 0.0
2216 1 2 0.0 0.0 0.0 0.0
2217 1 3 0.0 0.0 0.0 0.0
2218 1 3 0.0 0.0 0.0 0.0
2219 1 3 0.0 0.0 0.0 0.0
2220 1 3 0.0 0.0 0.0 0.0
2221 1 3 0.0 0.0 0.0 0.0
2222 1 3 0.0 0.0 0.0 0.0
2223 1 3 0.0 0.0 0.0 0.0
2224 1 3 0.0 0.0 0.0 0.0
2225 1 3 0.0 0.0 0.0 0.0
2226 1 3 0.0 0.0 0.0 0.0
2227 1 3 0.0 0.0 0.0 0.0
2228 1 3 0.0 0.0 0.0 0.0
2229 1 3 0.0 0.0 0.0 0.0
2230 1 3 0.0 0.0 0.0 0.0
2231 1 3 0.0 0.0 0.0 0.0
2232 1 3 0.0 0.0 0.0 0.0
2233 1 3 0.0 0.0 0.0 0.0
2234 1 3 0.0 0.0 0.0 0.0
2235 1 3 0.0 0.0 0.0 0.0
2236 1 3 0.0 0.0 0.0 0.0
2237 1 3 0.0 0.0 0.0 0.0
2238 1 3 0.0 0.0 0.0 0.0
2239 1 3 0.0 0.0 0.0 0.0
2240 1 3 0.0 0.0 0.0 0.0
2241 1 3 0.0 0.0 0.0 0.0
2242 1 2 0.0 0.0 0.0 0.0
2243 1 2 0.0 0.0 0.0 0.0
2244 1 2 0.0 0.0 0.0 0.0
2245 1 2 0.0 0.0 0.0 0.0
2246 1 2 0.0 0.0 0.0 0.0
2247 1 2 0.0 0.0 0.0 0.0
2248 1 2 0.0 0.0 0.0 0.0
2249 1 2 0.0 0.0 0.0 0.0
2250 1 2 0.0 0.0 0.0 0.0
2251 1 2 0.0 0.0 0.0 0.0
2252 1 2 0.0 0.0 0.0 0.0
2253 1 2 0.0 0.0 0.0 0.0
2254 1 2 0.0 0.0 0.0 0.0
2255 1 2 0.0 0.0 0.0 0.0
2256 1 2 0.0 0.0 0.0 0.0
2257 1 2 0.0 0.0 0.0 0.0
2258 1 2 0.0 0.0 0.0 0.0
2259 1 2 0.0 0.0 0.0 0.0
2260 1 2 0.0 0.0 0.0 0.0
2261 1 2 0.0 0.0 0.0 0.0
2262 1 3 0.0 0.0 0.0 0.0
2263 1 3 0.0 0.0 0.0 0.0
2264 1 3 0.0 0.0 0.0 0.0
2265 1 3 0.0 0.0 0.0 0.0
2266 1 3 0.0 0.0 0.0 0.0
2267 1 2 0.0 0.0 0.0 0.0
2268 1 2 0.0 0.0 0.0 0.0
2269 1 2 0.0 0.0 0.0 0.0
2270 1 2 0.0 0.0 0.0 0.0
2271 1 2 0.0 0.0 0.0 0.0
2272 1 2 0.0 0.0 0.0 0.0
2273 1 2 0.0 0.0 0.0 0.0
2274 1 2 0.0 0.0 0.0 0.0
2275 1 2 0.0 0.0 0.0 0.0
2276 1 2 0.0 0.0 0.0 0.0
2277 1 2 0.0 0.0 0.0 0.0
2278 1 2 0.0 0.0 0.0 0.0
2279 1 2 0.0 0.0 0.0 0.0
2280 1 2 0.0 0.0 0.0 0.0
2281 1 2 0.0 0.0 0.0 0.0
2282 1 2 0.0 0.0 0.0 0.0
2283 1 2 0.0 0.0 0.0 0.0
2284 1 2 0.0 0.0 0.0 0.0
2285 1 2 0.0 0.0 0.0 0.0
2286 1 2 0.0 0.0 0.0 0.0
2287 1 3 0.0 0.0 0.0 0.0
2288 1 3 0.0 0.0 0.0 0.0
2289 1 3 0.0 0.0 0.0 0.0
2290 1 3 0.0 0.0 0.0 0.0
2291 1 3 0.0 0.0 0.0 0.0
2292 1 3 0.0 0.0 0.0 0.0
2293 1 3 0.0 0.0 0.0 0.0
2294 1 3 0.0 0.0 0.0 0.0
2295 1 3 0.0 0.0 0.0 0.0
2296 1 3 0.0 0.0 0.0 0.0
2297 1 3 0.0 0.0 0.0 0.0
2298 1 3 0.0 0.0 0.0 0.0
2299 1 3 0.0 0.0 0.0 0.0
2300 1 3 0.0 0.0 0.0 0.0
2301 1 3 0.0 0.0 0.0 0.0
2302 1 2 0.0 0.0 0.0 0.0
2303 1 2 0.0 0.0 0.0 0.0
2304 1 2 0.0 0.0 0.0 0.0
2305 1 2 0.0 0.0 0.0 0.0
2306 1 2 0.0 0.0 0.0 0.0
2307 1 2 0.0 0.0 0.0 0.0
2308 1 2 0.0 0.0 0.0 0.0
2309 1 2 0.0 0.0 0.0 0.0
2310 1 2 0.0 0.0 0.0 0.0
2311 1 2 0.0 0.0 0.0 0.0
2312 1 2 0.0 0.0 0.0 0.0
2313 1 2 0.0 0.0 0.0 0.0
2314 1 2 0.0 0.0 0.0 0.0
2315 1 2 0.0 0.0 0.0 0.0
2316 1 2 0.0 0.0 0.0 0.0
2317 1 2 0.0 0.0 0.0 0.0
2318 1 2 0.0 0.0 0.0 0.0
2319 1 2 0.0 0.0 0.0 0.0
2320 1 2 0.0 0.0 0.0 0.0
2321 1 2 0.0 0.0 0.0 0.0
2322 1 3 0.0 0.0 0.0 0.0
2323 1 3 0.0 0.0 0.0 0.0
2324 1 3 0.0 0.0 0.0 0.0
2325 1 3 0.0 0.0 0.0 0.0
2326 1 3 0.0 0.0 0.0 0.0
2327 1 2 0.0 0.0 0.0 0.0
2328 1 2 0.0 0.0 0.0 0.0
2329 1 2 0.0 0.0 0.0 0.0
2330 1 2 0.0 0.0 0.0 0.0
2331 1 2 0.0 0.0 0.0 0.0
2332 1 2 0.0 0.0 0.0 0.0
2333 1 2 0.0 0.0 0.0 0.0
2334 1 2 0.0 0.0 0.0 0.0
2335 1 2 0.0 0.0 0.0 0.0
2336 1 2 0.0 0.0 0.0 0.0
2337 1 2 0.0 0.0 0.0 0.0
2338 1 2 0.0 0.0 0.0 0.0
2339 1 2 0.0 0.0 0.0 0.0
2340 1 2 0.0 0.0 0.0 0.0
2341 1 2 0.0 0.0 0.0 0.0
2342 1 2 0.0 0.0 0.0 0.0
2343 1 2 0.0 0.0 0.0 0.0
2344 1 2 0.0 0.0 0.0 0.0
2345 1 2 0.0 0.0 0.0 0.0
2346 1 2 0.0 0.0 0.0 0.0
2347 1 2 0.0 0.0 0.0 0.0
2348 1 2 0.0 0.0 0.0 0.0
2349 1 2 0.0 0.0 0.0 0.0
2350 1 2 0.0 0.0 0.0 0.0
2351 1 2 0.0 0.0 0.0 0.0
2352 1 2 0.0 0.0 0.0 0.0
2353 1 2 0.0 0.0 0.0 0.0
2354 1 2 0.0 0.0 0.0 0.0
2355 1 2 0.0 0.0 0.0 0.0
2356 1 2 0.0 0.0 0.0 0.0
2357 1 2 0.0 0.0 0.0 0.0
2358 1 2 0.0 0.0 0.0 0.0
2359 1 2 0.0 0.0 0.0 0.0
2360 1 2 0.0 0.0 0.0 0.0
2361 1 2 0.0 0.0 0.0 0.0
2362 1 2 0.0 0.0 0.0 0.0
2363 1 2 0.0 0.0 0.0 0.0
2364 1 2 0.0 0.0 0.0 0.0
2365 1 2 0.0 0.0 0.0 0.0
2366 1 2 0.0 0.0 0.0 0.0
2367 1 2 0.0 0.0 0.0 0.0
2368 1 2 0.0 0.0 0.0 0.0
2369 1 2 0.0 0.0 0.0 0.0
2370 1 2 0.0 0.0 0.0 0.0
2371 1 2 0.0 0.0 0.0 0.0
2372 1 2 0.0 0.0 0.0 0.0
2373 1 2 0.0 0.0 0.0 0.0
2374 1 2 0.0 0.0 0.0 0.0
2375 1 2 0.0 0.0 0.0 0.0
2376 1 2 0.0 0.0 0.0 0.0
2377 1 2 0.0 0.0 0.0 0.0
2378 1 2 0.0 0.0 0.0 0.0
2379 1 2 0.0 0.0 0.0 0.0
2380 1 2 0.0 0.0 0.0 0.0
2381 1 2 0.0 0.0 0.0 0.0
2382 1 2 0.0 0.0 0.0 0.0
2383 1 2 0.0 0.0 0.0 0.0
2384 1 2 0.0 0.0 0.0 0.0
2385 1 2 0.0 0.0 0.0 0.0
2386 1 2 0.0 0.0 0.0 0.0
2387 1 3 0.0 0.0 0.0 0.0
2388 1 3 0.0 0.0 0.0 0.0
2389 1 3 0.0 0.0 0.0 0.0
2390 1 3 0.0 0.0 0.0 0.0
2391 1 3 0.0 0.0 0.0 0.0
2392 1 2 0.0 0.0 0.0 0.0
2393 1 2 0.0 0.0 0.0 0.0
2394 1 2 0.0 0.0 0.0 0.0
2395 1 2 0.0 0.0 0.0 0.0
2396 1 2 0.0 0.0 0.0 0.0
2397 1 2 0.0 0.0 0.0 0.0
2398 1 2 0.0 0.0 0.0 0.0
2399 1 2 0.0 0.0 0.0 0.0
2400 1 2 0.0 0.0 0.0 0.0
2401 1 2 0.0 0.0 0.0 0.0
2402 1 2 0.0 0.0 0.0 0.0
2403 1 2 0.0 0.0 0.0 0.0
2404 1 2 0.0 0.0 0.0 0.0
2405 1 2 0.0 0.0 0.0 0.0
2406 1 2 0.0 0.0 0.0 0.0
2407 1 2 0.0 0.0 0.0 0.0
2408 1 2 0.0 0.0 0.0 0.0
2409 1 2 0.0 0.0 0.0 0.0
2410 1 2 0.0 0.0 0.0 0.0
2411 1 2 0.0 0.0 0.0 0.0
2412 1 3 0.0 0.0 0.0 0.0
2413 1 3 0.0 0.0 0.0 0.0
2414 1 3 0.0 0.0 0.0 0.0
2415 1 3 0.0 0.0 0.0 0.0
2416 1 3 0.0 0.0 0.0 0.0
2417 1 3 0.0 0.0 0.0 0.0
2418 1 3 0.0 0.0 0.0 0.0
2419 1 3 0.0 0.0 0.0 0.0
2420 1 3 0.0 0.0 0.0 0.0
2421 1 3 0.0 0.0 0.0 0.0
2422 1 3 0.0 0.0 0.0 0.0
2423 1 3 0.0 0.0 0.0 0.0
2424 1 3 0.0 0.0 0.0 0.0
2425 1 3 0.0 0.0 0.0 0.0
2426 1 3 0.0 0.0 0.0 0.0
2427 1 3 0.0 0.0 0.0 0.0
2428 1 3 0.0 0.0 0.0 0.0
2429 1 3 0.0 0.0 0.0 0.0
2430 1 3 0.0 0.0 0.0 0.0
2431 1 3 0.0 0.0 0.0 0.0
2432 1 2 0.0 0.0 0.0 0.0
2433 1 2 0.0 0.0 0.0 0.0
2434 1 2 0.0 0.0 0.0 0.0
2435 1 2 0.0 0.0 0.0 0.0
2436 1 2 0.0 0.0 0.0 0.0
2437 1 2 0.0 0.0 0.0 0.0
2438 1 2 0.0 0.0 0.0 0.0
2439 1 2 0.0 0.0 0.0 0.0
2440 1 2 0.0 0.0 0.0 0.0
2441 1 2 0.0 0.0 0.0 0.0
2442 1 2 0.0 0.0 0.0 0.0
2443 1 2 0.0 0.0 0.0 0.0
2444 1 2 0.0 0.0 0.0 0.0
2445 1 2 0.0 0.0 0.0 0.0
2446 1 2 0.0 0.0 0.0 0.0
2447 1 2 0.0 0.0 0.0 0.0
2448 1 2 0.0 0.0 0.0 0.0
2449 1 2 0.0 0.0 0.0 0.0
2450 1 2 0.0 0.0 0.0 0.0
2451 1 2 0.0 0.0 0.0 0.0
2452 1 2 0.0 0.0 0.0 0.0
2453 1 2 0.0 0.0 0.0 0.0
2454 1 2 0.0 0.0 0.0 0.0
2455 1 2 0.0 0.0 0.0 0.0
2456 1 2 0.0 0.0 0.0 0.0
2457 1 2 0.0 0.0 0.0 0.0
2458 1 2 0.0 0.0 0.0 0.0
2459 1 2 0.0 0.0 0.0 0.0
2460 1 2 0.0 0.0 0.0 0.0
2461 1 2 0.0 0.0 0.0 0.0
2462 1 2 0.0 0.0 0.0 0.0
2463 1 2 0.0 0.0 0.0 0.0
2464 1 2 0.0 0.0 0.0 0.0
2465 1 2 0.0 0.0 0.0 0.0
2466 1 2 0.0 0.0 0.0 0.0
2467 1 2 0.0 0.0 0.0 0.0
2468 1 2 0.0 0.0 0.0 0.0
2469 1 2 0.0 0.0 0.0 0.0
2470 1 2 0.0 0.0 0.0 0.0
2471 1 2 0.0 0.0 0.0 0.0
2472 1 2 0.0 0.0 0.0 0.0
2473 1 2 0.0 0.0 0.0 0.0
2474 1 2 0.0 0.0 0.0 0.0
2475 1 2 0.0 0.0 0.0 0.0
2476 1 2 0.0 0.0 0.0 0.0
2477 1 2 0.0 0.0 0.0 0.0
2478 1 2 0.0 0.0 0.0 0.0
2479 1 2 0.0 0.0 0.0 0.0
2480 1 2 0.0 0.0 0.0 0.0
2481 1 2 0.0 0.0 0.0 0.0
2482 1 2 0.0 0.0 0.0 0.0
2483 1 2 0.0 0.0 0.0 0.0
2484 1 2 0.0 0.0 0.0 0.0
2485 1 2 0.0 0.0 0.0 0.0
2486 1 2 0.0 0.0 0.0 0.0
2487 1 2 0.0 0.0 0.0 0.0
2488 1 2 0.0 0.0 0.0 0.0
2489 1 2 0.0 0.0 0.0 0.0
2490 1 2 0.0 0.0 0.0 0.0
2491 1 2 0.0 0.0 0.0 0.0
2492 1 2 0.0 0.0 0.0 0.0
2493 1 2 0.0 0.0 0.0 0.0
2494 1 2 0.0 0.0 0.0 0.0
2495 1 2 0.0 0.0 0.0 0.0
2496 1 2 0.0 0.0 0.0 0.0
2497 1 2 0.0 0.0 0.0 0.0
2498 1 2 0.0 0.0 0.0 0.0
2499 1 2 0.0 0.0 0.0 0.0
2500 1 2 0.0 0.0 0.0 0.0
2501 1 2 0.0 0.0 0.0 0.0
2502 1 2 0.0 0.0 0.0 0.0
2503 1 2 0.0 0.0 0.0 0.0
2504 1 2 0.0 0.0 0.0 0.0
2505 1 2 0.0 0.0 0.0 0.0
2506 1 2 0.0 0.0 0.0 0.0
2507 1 2 0.0 0.0 0.0 0.0
2508 1 2 0.0 0.0 0.0 0.0
2509 1 2 0.0 0.0 0.0 0.0
2510 1 2 0.0 0.0 0.0 0.0
2511 1 2 0.0 0.0 0.0 0.0
2512 1 2 0.0 0.0 0.0 0.0
2513 1 2 0.0 0.0 0.0 0.0
2514 1 2 0.0 0.0 0.0 0.0
2515 1 2 0.0 0.0 0.0 0.0
2516 1 2 0.0 0.0 0.0 0.0
2517 1 2 0.0 0.0 0.0 0.0
2518 1 2 0.0 0.0 0.0 0.0
2519 1 2 0.0 0.0 0.0 0.0
2520 1 2 0.0 0.0 0.0 0.0
2521 1 2 0.0 0.0 0.0 0.0
2522 1 2 0.0 0.0 0.0 0.0
2523 1 2 0.0 0.0 0.0 0.0
2524 1 2 0.0 0.0 0.0 0.0
2525 1 2 0.0 0.0 0.0 0.0
2526 1 2 0.0 0.0 0.0 0.0
2527 1 2 0.0 0.0 0.0 0.0
2528 1 2 0.0 0.0 0.0 0.0
2529 1 2 0.0 0.0 0.0 0.0
2530 1 2 0.0 0.0 0.0 0.0
2531 1 2 0.0 0.0 0.0 0.0
2532 1 3 0.0 0.0 0.0 0.0
2533 1 3 0.0 0.0 0.0 0.0
2534 1 3 0.0 0.0 0.0 0.0
2535 1 3 0.0 0.0 0.0 0.0
2536 1 3 0.0 0.0 0.0 0.0
2537 1 2 0.0 0.0 0.0 0.0
2538 1 2 0.0 0.0 0.0 0.0
2539 1 2 0.0 0.0 0.0 0.0
2540 1 2 0.0 0.0 0.0 0.0
2541 1 2 0.0 0.0 0.0 0.0
2542 1 2 0.0 0.0 0.0 0.0
2543 1 2 0.0 0.0 0.0 0.0
2544 1 2 0.0 0.0 0.0 0.0
2545 1 2 0.0 0.0 0.0 0.0
2546 1 2 0.0 0.0 0.0 0.0
2547 1 2 0.0 0.0 0.0 0.0
2548 1 2 0.0 0.0 0.0 0.0
2549 1 2 0.0 0.0 0.0 0.0
2550 1 2 0.0 0.0 0.0 0.0
2551 1 2 0.0 0.0 0.0 0.0
2552 1 2 0.0 0.0 0.0 0.0
2553 1 2 0.0 0.0 0.0 0.0
2554 1 2 0.0 0.0 0.0 0.0
2555 1 2 0.0 0.0 0.0 0.0
2556 1 2 0.0 0.0 0.0 0.0
2557 1 3 0.0 0.0 0.0 0.0
2558 1 3 0.0 0.0 0.0 0.0
2559 1 3 0.0 0.0 0.0 0.0
2560 1 3 0.0 0.0 0.0 0.0
2561 1 3 0.0 0.0 0.0 0.0
2562 1 2 0.0 0.0 0.0 0.0
2563 1 2 0.0 0.0 0.0 0.0
2564 1 2 0.0 0.0 0.0 0.0
2565 1 2 0.0 0.0 0.0 0.0
2566 1 2 0.0 0.0 0.0 0.0
2567 1 2 0.0 0.0 0.0 0.0
2568 1 2 0.0 0.0 0.0 0.0
2569 1 2 0.0 0.0 0.0 0.0
2570 1 2 0.0 0.0 0.0 0.0
2571 1 2 0.0 0.0 0.0 0.0
2572 1 2 0.0 0.0 0.0 0.0
2573 1 2 0.0 0.0 0.0 0.0
2574 1 2 0.0 0.0 0.0 0.0
2575 1 2 0.0 0.0 0.0 0.0
2576 1 2 0.0 0.0 0.0 0.0
2577 1 2 0.0 0.0 0.0 0.0
2578 1 2 0.0 0.0 0.0 0.0
2579 1 2 0.0 0.0 0.0 0.0
2580 1 2 0.0 0.0 0.0 0.0
2581 1 2 0.0 0.0 0.0 0.0
2582 1 3 0.0 0.0 0.0 0.0
2583 1 3 0.0 0.0 0.0 0.0
2584 1 3 0.0 0.0 0.0 0.0
2585 1 3 0.0 0.0 0.0 0.0
2586 1 3 0.0 0.0 0.0 0.0
2587 1 3 0.0 0.0 0.0 0.0
2588 1 3 0.0 0.0 0.0 0.0
2589 1 3 0.0 0.0 0.0 0.0
2590 1 3 0.0 0.0 0.0 0.0
2591 1 3 0.0 0.0 0.0 0.0
2592 1 2 0.0 0.0 0.0 0.0
2593 1 2 0.0 0.0 0.0 0.0
2594 1 2 0.0 0.0 0.0 0.0
2595 1 2 0.0 0.0 0.0 0.0
2596 1 2 0.0 0.0 0.0 0.0
2597 1 2 0.0 0.0 0.0 0.0
2598 1 2 0.0 0.0 0.0 0.0
2599 1 2 0.0 0.0 0.0 0.0
2600 1 2 0.0 0.0 0.0 0.0
2601 1 2 0.0 0.0 0.0 0.0
2602 1 2 0.0 0.0 0.0 0.0
2603 1 2 0.0 0.0 0.0 0.0
2604 1 2 0.0 0.0 0.0 0.0
2605 1 2 0.0 0.0 0.0 0.0
2606 1 2 0.0 0.0 0.0 0.0
2607 1 2 0.0 0.0 0.0 0.0
2608 1 2 0.0 0.0 0.0 0.0
2609 1 2 0.0 0.0 0.0 0.0
2610 1 2 0.0 0.0 0.0 0.0
2611 1 2 0.0 0.0 0.0 0.0
2612 1 2 0.0 0.0 0.0 0.0
2613 1 2 0.0 0.0 0.0 0.0
2614 1 2 0.0 0.0 0.0 0.0
2615 1 2 0.0 0.0 0.0 0.0
2616 1 2 0.0 0.0 0.0 0.0
2617 1 2 0.0 0.0 0.0 0.0
2618 1 2 0.0 0.0 0.0 0.0
2619 1 2 0.0 0.0 0.0 0.0
2620 1 2 0.0 0.0 0.0 0.0
2621 1 2 0.0 0.0 0.0 0.0
2622 1 2 0.0 0.0 0.0 0.0
2623 1 2 0.0 0.0 0.0 0.0
2624 1 2 0.0 0.0 0.0 0.0
2625 1 2 0.0 0.0 0.0 0.0
2626 1 2 0.0 0.0 0.0 0.0
2627 1 2 0.0 0.0 0.0 0.0
2628 1 2 0.0 0.0 0.0 0.0
2629 1 2 0.0 0.0 0.0 0.0
2630 1 2 0.0 0.0 0.0 0.0
2631 1 2 0.0 0.0 0.0 0.0
2632 1 3 0.0 0.0 0.0 0.0
2633 1 3 0.0 0.0 0.0 0.0
2634 1 3 0.0 0.0 0.0 0.0
2635 1 3 0.0 0.0 0.0 0.0
2636 1 3 0.0 0.0 0.0 0.0
2637 1 3 0.0 0.0 0.0 0.0
2638 1 3 0.0 0.0 0.0 0.0
2639 1 3 0.0 0.0 0.0 0.0
2640 1 3 0.0 0.0 0.0 0.0
2641 1 3 0.0 0.0 0.0 0.0
2642 1 2 0.0 0.0 0.0 0.0
2643 1 2 0.0 0.0 0.0 0.0
2644 1 2 0.0 0.0 0.0 0.0
2645 1 2 0.0 0.0 0.0 0.0
2646 1 2 0.0 0.0 0.0 0.0
2647 1 2 0.0 0.0 0.0 0.0
2648 1 2 0.0 0.0 0.0 0.0
2649 1 2 0.0 0.0 0.0 0.0
2650 1 2 0.0 0.0 0.0 0.0
2651 1 2 0.0 0.0 0.0 0.0
2652 1 2 0.0 0.0 0.0 0.0
2653 1 2 0.0 0.0 0.0 0.0
2654 1 2 0.0 0.0 0.0 0.0
2655 1 2 0.0 0.0 0.0 0.0
2656 1 2 0.0 0.0 0.0 0.0
2657 1 2 0.0 0.0 0.0 0.0
2658 1 2 0.0 0.0 0.0 0.0
2659 1 2 0.0 0.0 0.0 0.0
2660 1 2 0.0 0.0 0.0 0.0
2661 1 2 0.0 0.0 0.0 0.0
2662 1 3 0.0 0.0 0.0 0.0
2663 1 3 0.0 0.0 0.0 0.0
2664 1 3 0.0 0.0 0.0 0.0
2665 1 3 0.0 0.0 0.0 0.0
2666 1 3 0.0 0.0 0.0 0.0
2667 1 2 0.0 0.0 0.0 0.0
2668 1 2 0.0 0.0 0.0 0.0
2669 1 2 0.0 0.0 0.0 0.0
2670 1 2 0.0 0.0 0.0 0.0
2671 1 2 0.0 0.0 0.0 0.0
2672 1 2 0.0 0.0 0.0 0.0
2673 1 2 0.0 0.0 0.0 0.0
2674 1 2 0.0 0.0 0.0 0.0
2675 1 2 0.0 0.0 0.0 0.0
2676 1 2 0.0 0.0 0.0 0.0
2677 1 2 0.0 0.0 0.0 0.0
2678 1 2 0.0 0.0 0.0 0.0
2679 1 2 0.0 0.0 0.0 0.0
2680 1 2 0.0 0.0 0.0 0.0
2681 1 2 0.0 0.0 0.0 0.0
2682 1 2 0.0 0.0 0.0 0.0
2683 1 2 0.0 0.0 0.0 0.0
2684 1 2 0.0 0.0 0.0 0.0
2685 1 2 0.0 0.0 0.0 0.0
2686 1 2 0.0 0.0 0.0 0.0
2687 1 3 0.0 0.0 0.0 0.0
2688 1 3 0.0 0.0 0.0 0.0
2689 1 3 0.0 0.0 0.0 0.0
2690 1 3 0.0 0.0 0.0 0.0
2691 1 3 0.0 0.0 0.0 0.0
2692 1 2 0.0 0.0 0.0 0.0
2693 1 2 0.0 0.0 0.0 0.0
2694 1 2 0.0 0.0 0.0 0.0
2695 1 2 0.0 0.0 0.0 0.0
2696 1 2 0.0 0.0 0.0 0.0
2697 1 2 0.0 0.0 0.0 0.0
2698 1 2 0.0 0.0 0.0 0.0
2699 1 2 0.0 0.0 0.0 0.0
2700 1 2 0.0 0.0 0.0 0.0
2701 1 2 0.0 0.0 0.0 0.0
2702 1 2 0.0 0.0 0.0 0.0
2703 1 2 0.0 0.0 0.0 0.0
2704 1 2 0.0 0.0 0.0 0.0
2705 1 2 0.0 0.0 0.0 0.0
2706 1 2 0.0 0.0 0.0 0.0
2707 1 2 0.0 0.0 0.0 0.0
2708 1 2 0.0 0.0 0.0 0.0
2709 1 2 0.0 0.0 0.0 0.0
2710 1 2 0.0 0.0 0.0 0.0
2711 1 2 0.0 0.0 0.0 0.0
2712 1 3 0.0 0.0 0.0 0.0
2713 1 3 0.0 0.0 0.0 0.0
2714 1 3 0.0 0.0 0.0 0.0
2715 1 3 0.0 0.0 0.0 0.0
2716 1 3 0.0 0.0 0.0 0.0
2717 1 3 0.0 0.0 0.0 0.0
2718 1 3 0.0 0.0 0.0 0.0
2719 1 3 0.0 0.0 0.0 0.0
2720 1 3 0.0 0.0 0.0 0.0
2721 1 3 0.0 0.0 0.0 0.0
2722 1 2 0.0 0.0 0.0 0.0
2723 1 2 0.0 0.0 0.0 0.0
2724 1 2 0.0 0.0 0.0 0.0
2725 1 2 0.0 0.0 0.0 0.0
2726 1 2 0.0 0.0 0.0 0.0
2727 1 2 0.0 0.0 0.0 0.0
2728 1 2 0.0 0.0 0.0 0.0
2729 1 2 0.0 0.0 0.0 0.0
2730 1 2 0.0 0.0 0.0 0.0
2731 1 2 0.0 0.0 0.0 0.0
2732 1 2 0.0 0.0 0.0 0.0
2733 1 2 0.0 0.0 0.0 0.0
2734 1 2 0.0 0.0 0.0 0.0
2735 1 2 0.0 0.0 0.0 0.0
2736 1 2 0.0 0.0 0.0 0.0
2737 1 2 0.0 0.0 0.0 0.0
2738 1 2 0.0 0.0 0.0 0.0
2739 1 2 0.0 0.0 0.0 0.0
2740 1 2 0.0 0.0 0.0 0.0
2741 1 2 0.0 0.0 0.0 0.0
2742 1 2 0.0 0.0 0.0 0.0
2743 1 2 0.0 0.0 0.0 0.0
2744 1 2 0.0 0.0 0.0 0.0
2745 1 2 0.0 0.0 0.0 0.0
2746 1 2 0.0 0.0 0.0 0.0
2747 1 2 0.0 0.0 0.0 0.0
2748 1 2 0.0 0.0 0.0 0.0
2749 1 2 0.0 0.0 0.0 0.0
2750 1 2 0.0 0.0 0.0 0.0
2751 1 2 0.0 0.0 0.0 0.0
2752 1 2 0.0 0.0 0.0 0.0
2753 1 2 0.0 0.0 0.0 0.0
2754 1 2 0.0 0.0 0.0 0.0
2755 1 2 0.0 0.0 0.0 0.0
2756 1 2 0.0 0.0 0.0 0.0
2757 1 2 0.0 0.0 0.0 0.0
2758 1 2 0.0 0.0 0.0 0.0
2759 1 2 0.0 0.0 0.0 0.0
2760 1 2 0.0 0.0 0.0 0.0
2761 1 2 0.0 0.0 0.0 0.0
2762 1 3 0.0 0.0 0.0 0.0
2763 1 3 0.0 0.0 0.0 0.0
2764 1 3 0.0 0.0 0.0 0.0
2765 1 3 0.0 0.0 0.0 0.0
2766 1 3 0.0 0.0 0.0 0.0
2767 1 3 0.0 0.0 0.0 0.0
2768 1 3 0.0 0.0 0.0 0.0
2769 1 3 0.0 0.0 0.0 0.0
2770 1 3 0.0 0.0 0.0 0.0
2771 1 3 0.0 0.0 0.0 0.0
2772 1 3 0.0 0.0 0.0 0.0
2773 1 3 0.0 0.0 0.0 0.0
2774 1 3 0.0 0.0 0.0 0.0
2775 1 3 0.0 0.0 0.0 0.0
2776 1 3 0.0 0.0 0.0 0.0
2777 1 2 0.0 0.0 0.0 0.0
2778 1 2 0.0 0.0 0.0 0.0
2779 1 2 0.0 0.0 0.0 0.0
2780 1 2 0.0 0.0 0.0 0.0
2781 1 2 0.0 0.0 0.0 0.0
2782 1 2 0.0 0.0 0.0 0.0
2783 1 2 0.0 0.0 0.0 0.0
2784 1 2 0.0 0.0 0.0 0.0
2785 1 2 0.0 0.0 0.0 0.0
2786 1 2 0.0 0.0 0.0 0.0
2787 1 2 0.0 0.0 0.0 0.0
2788 1 2 0.0 0.0 0.0 0.0
2789 1 2 0.0 0.0 0.0 0.0
2790 1 2 0.0 0.0 0.0 0.0
2791 1 2 0.0 0.0 0.0 0.0
2792 1 2 0.0 0.0 0.0 0.0
2793 1 2 0.0 0.0 0.0 0.0
2794 1 2 0.0 0.0 0.0 0.0
2795 1 2 0.0 0.0 0.0 0.0
2796 1 2 0.0 0.0 0.0 0.0
2797 1 3 0.0 0.0 0.0 0.0
2798 1 3 0.0 0.0 0.0 0.0
2799 1 3 0.0 0.0 0.0 0.0
2800 1 3 0.0 0.0 0.0 0.0
2801 1 3 0.0 0.0 0.0 0.0
2802 1 3 0.0 0.0 0.0 0.0
2803 1 3 0.0 0.0 0.0 0.0
2804 1 3 0.0 0.0 0.0 0.0
2805 1 3 0.0 0.0 0.0 0.0
2806 1 3 0.0 0.0 0.0 0.0
2807 1 2 0.0 0.0 0.0 0.0
2808 1 2 0.0 0.0 0.0 0.0
2809 1 2 0.0 0.0 0.0 0.0
2810 1 2 0.0 0.0 0.0 0.0
2811 1 2 0.0 0.0 0.0 0.0
2812 1 2 0.0 0.0 0.0 0.0
2813 1 2 0.0 0.0 0.0 0.0
2814 1 2 0.0 0.0 0.0 0.0
2815 1 2 0.0 0.0 0.0 0.0
2816 1 2 0.0 0.0 0.0 0.0
2817 1 2 0.0 0.0 0.0 0.0
2818 1 2 0.0 0.0 0.0 0.0
2819 1 2 0.0 0.0 0.0 0.0
2820 1 2 0.0 0.0 0.0 0.0
2821 1 2 0.0 0.0 0.0 0.0
2822 1 2 0.0 0.0 0.0 0.0
2823 1 2 0.0 0.0 0.0 0.0
2824 1 2 0.0 0.0 0.0 0.0
2825 1 2 0.0 0.0 0.0 0.0
2826 1 2 0.0 0.0 0.0 0.0
2827 1 2 0.0 0.0 0.0 0.0
2828 1 2 0.0 0.0 0.0 0.0
2829 1 2 0.0 0.0 0.0 0.0
2830 1 2 0.0 0.0 0.0 0.0
2831 1 2 0.0 0.0 0.0 0.0
2832 1 2 0.0 0.0 0.0 0.0
2833 1 2 0.0 0.0 0.0 0.0
2834 1 2 0.0 0.0 0.0 0.0
2835 1 2 0.0 0.0 0.0 0.0
2836 1 2 0.0 0.0 0.0 0.0
2837 1 2 0.0 0.0 0.0 0.0
2838 1 2 0.0 0.0 0.0 0.0
2839 1 2 0.0 0.0 0.0 0.0
2840 1 2 0.0 0.0 0.0 0.0
2841 1 2 0.0 0.0 0.0 0.0
2842 1 2 0.0 0.0 0.0 0.0
2843 1 2 0.0 0.0 0.0 0.0
2844 1 2 0.0 0.0 0.0 0.0
2845 1 2 0.0 0.0 0.0 0.0
2846 1 2 0.0 0.0 0.0 0.0
2847 1 3 0.0 0.0 0.0 0.0
2848 1 3 0.0 0.0 0.0 0.0
2849 1 3 0.0 0.0 0.0 0.0
2850 1 3 0.0 0.0 0.0 0.0
2851 1 3 0.0 0.0 0.0 0.0
2852 1 3 0.0 0.0 0.0 0.0
2853 1 3 0.0 0.0 0.0 0.0
2854 1 3 0.0 0.0 0.0 0.0
2855 1 3 0.0 0.0 0.0 0.0
2856 1 3 0.0 0.0 0.0 0.0
2857 1 2 0.0 0.0 0.0 0.0
2858 1 2 0.0 0.0 0.0 0.0
2859 1 2 0.0 0.0 0.0 0.0
2860 1 2 0.0 0.0 0.0 0.0
2861 1 2 0.0 0.0 0.0 0.0
2862 1 2 0.0 0.0 0.0 0.0
2863 1 2 0.0 0.0 0.0 0.0
2864 1 2 0.0 0.0 0.0 0.0
2865 1 2 0.0 0.0 0.0 0.0
2866 1 2 0.0 0.0 0.0 0.0
2867 1 2 0.0 0.0 0.0 0.0
2868 1 2 0.0 0.0 0.0 0.0
2869 1 2 0.0 0.0 0.0 0.0
2870 1 2 0.0 0.0 0.0 0.0
2871 1 2 0.0 0.0 0.0 0.0
2872 1 2 0.0 0.0 0.0 0.0
2873 1 2 0.0 0.0 0.0 0.0
2874 1 2 0.0 0.0 0.0 0.0
2875 1 2 0.0 0.0 0.0 0.0
2876 1 2 0.0 0.0 0.0 0.0
2877 1 3 0.0 0.0 0.0 0.0
2878 1 3 0.0 0.0 0.0 0.0
2879 1 3 0.0 0.0 0.0 0.0
2880 1 3 0.0 0.0 0.0 0.0
2881 1 3 0.0 0.0 0.0 0.0
2882 1 3 0.0 0.0 0.0 0.0
2883 1 3 0.0 0.0 0.0 0.0
2884 1 3 0.0 0.0 0.0 0.0
2885 1 3 0.0 0.0 0.0 0.0
2886 1 3 0.0 0.0 0.0 0.0
2887 1 3 0.0 0.0 0.0 0.0
2888 1 3 0.0 0.0 0.0 0.0
2889 1 3 0.0 0.0 0.0 0.0
2890 1 3 0.0 0.0 0.0 0.0
2891 1 3 0.0 0.0 0.0 0.0
2892 1 2 0.0 0.0 0.0 0.0
2893 1 2 0.0 0.0 0.0 0.0
2894 1 2 0.0 0.0 0.0 0.0
2895 1 2 0.0 0.0 0.0 0.0
2896 1 2 0.0 0.0 0.0 0.0
2897 1 2 0.0 0.0 0.0 0.0
2898 1 2 0.0 0.0 0.0 0.0
2899 1 2 0.0 0.0 0.0 0.0
2900 1 2 0.0 0.0 0.0 0.0
2901 1 2 0.0 0.0 0.0 0.0
2902 1 2 0.0 0.0 0.0 0.0
2903 1 2 0.0 0.0 0.0 0.0
2904 1 2 0.0 0.0 0.0 0.0
2905 1 2 0.0 0.0 0.0 0.0
2906 1 2 0.0 0.0 0.0 0.0
2907 1 2 0.0 0.0 0.0 0.0
2908 1 2 0.0 0.0 0.0 0.0
2909 1 2 0.0 0.0 0.0 0.0
2910 1 2 0.0 0.0 0.0 0.0
2911 1 2 0.0 0.0 0.0 0.0
2912 1 2 0.0 0.0 0.0 0.0
2913 1 2 0.0 0.0 0.0 0.0
2914 1 2 0.0 0.0 0.0 0.0
2915 1 2 0.0 0.0 0.0 0.0
2916 1 2 0.0 0.0 0.0 0.0
2917 1 2 0.0 0.0 0.0 0.0
2918 1 2 0.0 0.0 0.0 0.0
2919 1 2 0.0 0.0 0.0 0.0
2920 1 2 0.0 0.0 0.0 0.0
2921 1 2 0.0 0.0 0.0 0.0
2922 1 2 0.0 0.0 0.0 0.0
2923 1 2 0.0 0.0 0.0 0.0
2924 1 2 0.0 0.0 0.0 0.0
2925 1 2 0.0 0.0 0.0 0.0
2926 1 2 0.0 0.0 0.0 0.0
2927 1 2 0.0 0.0 0.0 0.0
2928 1 2 0.0 0.0 0.0 0.0
2929 1 2 0.0 0.0 0.0 0.0
2930 1 2 0.0 0.0 0.0 0.0
2931 1 2 0.0 0.0 0.0 0.0
2932 1 3 0.0 0.0 0.0 0.0
2933 1 3 0.0 0.0 0.0 0.0
2934 1 3 0.0 0.0 0.0 0.0
2935 1 3 0.0 0.0 0.0 0.0
2936 1 3 0.0 0.0 0.0 0.0
2937 1 2 0.0 0.0 0.0 0.0
2938 1 2 0.0 0.0 0.0 0.0
2939 1 2 0.0 0.0 0.0 0.0
2940 1 2 0.0 0.0 0.0 0.0
2941 1 2 0.0 0.0 0.0 0.0
2942 1 2 0.0 0.0 0.0 0.0
2943 1 2 0.0 0.0 0.0 0.0
2944 1 2 0.0 0.0 0.0 0.0
2945 1 2 0.0 0.0 0.0 0.0
2946 1 2 0.0 0.0 0.0 0.0
2947 1 2 0.0 0.0 0.0 0.0
2948 1 2 0.0 0.0 0.0 0.0
2949 1 2 0.0 0.0 0.0 0.0
2950 1 2 0.0 0.0 0.0 0.0
2951 1 2 0.0 0.0 0.0 0.0
2952 1 2 0.0 0.0 0.0 0.0
2953 1 2 0.0 0.0 0.0 0.0
2954 1 2 0.0 0.0 0.0 0.0
2955 1 2 0.0 0.0 0.0 0.0
2956 1 2 0.0 0.0 0.0 0.0
2957 1 3 0.0 0.0 0.0 0.0
2958 1 3 0.0 0.0 0.0 0.0
2959 1 3 0.0 0.0 0.0 0.0
2960 1 3 0.0 0.0 0.0 0.0
2961 1 3 0.0 0.0 0.0 0.0
2962 1 2 0.0 0.0 0.0 0.0
2963 1 2 0.0 0.0 0.0 0.0
2964 1 2 0.0 0.0 0.0 0.0
2965 1 2 0.0 0.0 0.0 0.0
2966 1 2 0.0 0.0 0.0 0.0
2967 1 2 0.0 0.0 0.0 0.0
2968 1 2 0.0 0.0 0.0 0.0
2969 1 2 0.0 0.0 0.0 0.0
2970 1 2 0.0 0.0 0.0 0.0
2971 1 2 0.0 0.0 0.0 0.0
2972 1 2 0.0 0.0 0.0 0.0
2973 1 2 0.0 0.0 0.0 0.0
2974 1 2 0.0 0.0 0.0 0.0
2975 1 2 0.0 0.0 0.0 0.0
2976 1 2 0.0 0.0 0.0 0.0
2977 1 2 0.0 0.0 0.0 0.0
2978 1 2 0.0 0.0 0.0 0.0
2979 1 2 0.0 0.0 0.0 0.0
2980 1 2 0.0 0.0 0.0 0.0
2981 1 2 0.0 0.0 0.0 0.0
2982 1 2 0.0 0.0 0.0 0.0
2983 1 2 0.0 0.0 0.0 0.0
2984 1 2 0.0 0.0 0.0 0.0
2985 1 2 0.0 0.0 0.0 0.0
2986 1 2 0.0 0.0 0.0 0.0
2987 1 2 0.0 0.0 0.0 0.0
2988 1 2 0.0 0.0 0.0 0.0
2989 1 2 0.0 0.0 0.0 0.0
2990 1 2 0.0 0.0 0.0 0.0
2991 1 2 0.0 0.0 0.0 0.0
2992 1 2 0.0 0.0 0.0 0.0
2993 1 2 0.0 0.0 0.0 0.0
2994 1 2 0.0 0.0 0.0 0.0
2995 1 2 0.0 0.0 0.0 0.0
2996 1 2 0.0 0.0 0.0 0.0
2997 1 2 0.0 0.0 0.0 0.0
2998 1 2 0.0 0.0 0.0 0.0
2999 1 2 0.0 0.0 0.0 0.0
3000 1 2 0.0 0.0 0.0 0.0
3001 1 2 0.0 0.0 0.0 0.0
3002 1 3 0.0 0.0 0.0 0.0
3003 1 3 0.0 0.0 0.0 0.0
3004 1 3 0.0 0.0 0.0 0.0
3005 1 3 0.0 0.0 0.0 0.0
3006 1 3 0.0 0.0 0.0 0.0
3007 1 3 0.0 0.0 0.0 0.0
3008 1 3 0.0 0.0 0.0 0.0
3009 1 3 0.0 0.0 0.0 0.0
3010 1 3 0.0 0.0 0.0 0.0
3011 1 3 0.0 0.0 0.0 0.0
3012 1 2 0.0 0.0 0.0 0.0
3013 1 2 0.0 0.0 0.0 0.0
3014 1 2 0.0 0.0 0.0 0.0
3015 1 2 0.0 0.0 0.0 0.0
3016 1 2 0.0 0.0 0.0 0.0
3017 1 2 0.0 0.0 0.0 0.0
3018 1 2 0.0 0.0 0.0 0.0
3019 1 2 0.0 0.0 0.0 0.0
3020 1 2 0.0 0.0 0.0 0.0
3021 1 2 0.0 0.0 0.0 0.0
3022 1 2 0.0 0.0 0.0 0.0
3023 1 2 0.0 0.0 0.0 0.0
3024 1 2 0.0 0.0 0.0 0.0
3025 1 2 0.0 0.0 0.0 0.0
3026 1 2 0.0 0.0 0.0 0.0
3027 1 2 0.0 0.0 0.0 0.0
3028 1 2 0.0 0.0 0.0 0.0
3029 1 2 0.0 0.0 0.0 0.0
3030 1 2 0.0 0.0 0.0 0.0
3031 1 2 0.0 0.0 0.0 0.0
3032 1 3 0.0 0.0 0.0 0.0
3033 1 3 0.0 0.0 0.0 0.0
3034 1 3 0.0 0.0 0.0 0.0
3035 1 3 0.0 0.0 0.0 0.0
3036 1 3 0.0 0.0 0.0 0.0
3037 1 3 0.0 0.0 0.0 0.0
3038 1 3 0.0 0.0 0.0 0.0
3039 1 3 0.0 0.0 0.0 0.0
3040 1 3 0.0 0.0 0.0 0.0
3041 1 3 0.0 0.0 0.0 0.0
3042 1 2 0.0 0.0 0.0 0.0
3043 1 2 0.0 0.0 0.0 0.0
3044 1 2 0.0 0.0 0.0 0.0
3045 1 2 0.0 0.0 0.0 0.0
3046 1 2 0.0 0.0 0.0 0.0
3047 1 2 0.0 0.0 0.0 0.0
3048 1 2 0.0 0.0 0.0 0.0
3049 1 2 0.0 0.0 0.0 0.0
3050 1 2 0.0 0.0 0.0 0.0
3051 1 2 0.0 0.0 0.0 0.0
3052 1 2 0.0 0.0 0.0 0.0
3053 1 2 0.0 0.0 0.0 0.0
3054 1 2 0.0 0.0 0.0 0.0
3055 1 2 0.0 0.0 0.0 0.0
3056 1 2 0.0 0.0 0.0 0.0
3057 1 2 0.0 0.0 0.0 0.0
3058 1 2 0.0 0.0 0.0 0.0
3059 1 2 0.0 0.0 0.0 0.0
3060 1 2 0.0 0.0 0.0 0.0
3061 1 2 0.0 0.0 0.0 0.0
3062 1 2 0.0 0.0 0.0 0.0
3063 1 2 0.0 0.0 0.0 0.0
3064 1 2 0.0 0.0 0.0 0.0
3065 1 2 0.0 0.0 0.0 0.0
3066 1 2 0.0 0.0 0.0 0.0
3067 1 2 0.0 0.0 0.0 0.0
3068 1 2 0.0 0.0 0.0 0.0
3069 1 2 0.0 0.0 0.0 0.0
3070 1 2 0.0 0.0 0.0 0.0
3071 1 2 0.0 0.0 0.0 0.0
3072 1 2 0.0 0.0 0.0 0.0
3073 1 2 0.0 0.0 0.0 0.0
3074 1 2 0.0 0.0 0.0 0.0
3075 1 2 0.0 0.0 0.0 0.0
3076 1 2 0.0 0.0 0.0 0.0
3077 1 2 0.0 0.0 0.0 0.0
3078 1 2 0.0 0.0 0.0 0.0
3079 1 2 0.0 0.0 0.0 0.0
3080 1 2 0.0 0.0 0.0 0.0
3081 1 2 0.0 0.0 0.0 0.0
3082 1 3 0.0 0.0 0.0 0.0
3083 1 3 0.0 0.0 0.0 0.0
3084 1 3 0.0 0.0 0.0 0.0
3085 1 3 0.0 0.0 0.0 0.0
3086 1 3 0.0 0.0 0.0 0.0
3087 1 3 0.0 0.0 0.0 0.0
3088 1 3 0.0 0.0 0.0 0.0
3089 1 3 0.0 0.0 0.0 0.0
3090 1 3 0.0 0.0 0.0 0.0
3091 1 3 0.0 0.0 0.0 0.0
3092 1 3 0.0 0.0 0.0 0.0
3093 1 3 0.0 0.0 0.0 0.0
3094 1 3 0.0 0.0 0.0 0.0
3095 1 3 0.0 0.0 0.0 0.0
3096 1 3 0.0 0.0 0.0 0.0
3097 1 2 0.0 0.0 0.0 0.0
3098 1 2 0.0 0.0 0.0 0.0
3099 1 2 0.0 0.0 0.0 0.0
3100 1 2 0.0 0.0 0.0 0.0
3101 1 2 0.0 0.0 0.0 0.0
3102 1 2 0.0 0.0 0.0 0.0
3103 1 2 0.0 0.0 0.0 0.0
3104 1 2 0.0 0.0 0.0 0.0
3105 1 2 0.0 0.0 0.0 0.0
3106 1 2 0.0 0.0 0.0 0.0
3107 1 2 0.0 0.0 0.0 0.0
3108 1 2 0.0 0.0 0.0 0.0
3109 1 2 0.0 0.0 0.0 0.0
3110 1 2 0.0 0.0 0.0 0.0
3111 1 2 0.0 0.0 0.0 0.0
3112 1 2 0.0 0.0 0.0 0.0
3113 1 2 0.0 0.0 0.0 0.0
3114 1 2 0.0 0.0 0.0 0.0
3115 1 2 0.0 0.0 0.0 0.0
3116 1 2 0.0 0.0 0.0 0.0
3117 1 3 0.0 0.0 0.0 0.0
3118 1 3 0.0 0.0 0.0 0.0
3119 1 3 0.0 0.0 0.0 0.0
3120 1 3 0.0 0.0 0.0 0.0
3121 1 3 0.0 0.0 0.0 0.0
3122 1 2 0.0 0.0 0.0 0.0
3123 1 2 0.0 0.0 0.0 0.0
3124 1 2 0.0 0.0 0.0 0.0
3125 1 2 0.0 0.0 0.0 0.0
3126 1 2 0.0 0.0 0.0 0.0
3127 1 2 0.0 0.0 0.0 0.0
3128 1 2 0.0 0.0 0.0 0.0
3129 1 2 0.0 0.0 0.0 0.0
3130 1 2 0.0 0.0 0.0 0.0
3131 1 2 0.0 0.0 0.0 0.0
3132 1 2 0.0 0.0 0.0 0.0
3133 1 2 0.0 0.0 0.0 0.0
3134 1 2 0.0 0.0 0.0 0.0
3135 1 2 0.0 0.0 0.0 0.0
3136 1 2 0.0 0.0 0.0 0.0
3137 1 2 0.0 0.0 0.0 0.0
3138 1 2 0.0 0.0 0.0 0.0
3139 1 2 0.0 0.0 0.0 0.0
3140 1 2 0.0 0.0 0.0 0.0
3141 1 2 0.0 0.0 0.0 0.0
3142 1 3 0.0 0.0 0.0 0.0
3143 1 3 0.0 0.0 0.0 0.0
3144 1 3 0.0 0.0 0.0 0.0
3145 1 3 0.0 0.0 0.0 0.0
3146 1 3 0.0 0.0 0.0 0.0
3147 1 2 0.0 0.0 0.0 0.0
3148 1 2 0.0 0.0 0.0 0.0
3149 1 2 0.0 0.0 0.0 0.0
3150 1 2 0.0 0.0 0.0 0.0
3151 1 2 0.0 0.0 0.0 0.0
3152 1 2 0.0 0.0 0.0 0.0
3153 1 2 0.0 0.0 0.0 0.0
3154 1 2 0.0 0.0 0.0 0.0
3155 1 2 0.0 0.0 0.0 0.0
3156 1 2 0.0 0.0 0.0 0.0
3157 1 2 0.0 0.0 0.0 0.0
3158 1 2 0.0 0.0 0.0 0.0
3159 1 2 0.0 0.0 0.0 0.0
3160 1 2 0.0 0.0 0.0 0.0
3161 1 2 0.0 0.0 0.0 0.0
3162 1 2 0.0 0.0 0.0 0.0
3163 1 2 0.0 0.0 0.0 0.0
3164 1 2 0.0 0.0 0.0 0.0
3165 1 2 0.0 0.0 0.0 0.0
3166 1 2 0.0 0.0 0.0 0.0
3167 1 3 0.0 0.0 0.0 0.0
3168 1 3 0.0 0.0 0.0 0.0
3169 1 3 0.0 0.0 0.0 0.0
3170 1 3 0.0 0.0 0.0 0.0
3171 1 3 0.0 0.0 0.0 0.0
3172 1 2 0.0 0.0 0.0 0.0
3173 1 2 0.0 0.0 0.0 0.0
3174 1 2 0.0 0.0 0.0 0.0
3175 1 2 0.0 0.0 0.0 0.0
3176 1 2 0.0 0.0 0.0 0.0
3177 1 2 0.0 0.0 0.0 0.0
3178 1 2 0.0 0.0 0.0 0.0
3179 1 2 0.0 0.0 0.0 0.0
3180 1 2 0.0 0.0 0.0 0.0
3181 1 2 0.0 0.0 0.0 0.0
3182 1 2 0.0 0.0 0.0 0.0
3183 1 2 0.0 0.0 0.0 0.0
3184 1 2 0.0 0.0 0.0 0.0
3185 1 2 0.0 0.0 0.0 0.0
3186 1 2 0.0 0.0 0.0 0.0
3187 1 2 0.0 0.0 0.0 0.0
3188 1 2 0.0 0.0 0.0 0.0
3189 1 2 0.0 0.0 0.0 0.0
3190 1 2 0.0 0.0 0.0 0.0
3191 1 2 0.0 0.0 0.0 0.0
3192 1 2 0.0 0.0 0.0 0.0
3193 1 2 0.0 0.0 0.0 0.0
3194 1 2 0.0 0.0 0.0 0.0
3195 1 2 0.0 0.0 0.0 0.0
3196 1 2 0.0 0.0 0.0 0.0
3197 1 2 0.0 0.0 0.0 0.0
3198 1 2 0.0 0.0 0.0 0.0
3199 1 2 0.0 0.0 0.0 0.0
3200 1 2 0.0 0.0 0.0 0.0
3201 1 2 0.0 0.0 0.0 0.0
3202 1 2 0.0 0.0 0.0 0.0
3203 1 2 0.0 0.0 0.0 0.0
3204 1 2 0.0 0.0 0.0 0.0
3205 1 2 0.0 0.0 0.0 0.0
3206 1 2 0.0 0.0 0.0 0.0
3207 1 2 0.0 0.0 0.0 0.0
3208 1 2 0.0 0.0 0.0 0.0
3209 1 2 0.0 0.0 0.0 0.0
3210 1 2 0.0 0.0 0.0 0.0
3211 1 2 0.0 0.0 0.0 0.0
3212 1 3 0.0 0.0 0.0 0.0
3213 1 3 0.0 0.0 0.0 0.0
3214 1 3 0.0 0.0 0.0 0.0
3215 1 3 0.0 0.0 0.0 0.0
3216 1 3 0.0 0.0 0.0 0.0
3217 1 2 0.0 0.0 0.0 0.0
3218 1 2 0.0 0.0 0.0 0.0
3219 1 2 0.0 0.0 0.0 0.0
3220 1 2 0.0 0.0 0.0 0.0
3221 1 2 0.0 0.0 0.0 0.0
3222 1 2 0.0 0.0 0.0 0.0
3223 1 2 0.0 0.0 0.0 0.0
3224 1 2 0.0 0.0 0.0 0.0
3225 1 2 0.0 0.0 0.0 0.0
3226 1 2 0.0 0.0 0.0 0.0
3227 1 2 0.0 0.0 0.0 0.0
3228 1 2 0.0 0.0 0.0 0.0
3229 1 2 0.0 0.0 0.0 0.0
3230 1 2 0.0 0.0 0.0 0.0
3231 1 2 0.0 0.0 0.0 0.0
3232 1 2 0.0 0.0 0.0 0.0
3233 1 2 0.0 0.0 0.0 0.0
3234 1 2 0.0 0.0 0.0 0.0
3235 1 2 0.0 0.0 0.0 0.0
3236 1 2 0.0 0.0 0.0 0.0
3237 1 3 0.0 0.0 0.0 0.0
3238 1 3 0.0 0.0 0.0 0.0
3239 1 3 0.0 0.0 0.0 0.0
3240 1 3 0.0 0.0 0.0 0.0
3241 1 3 0.0 0.0 0.0 0.0
3242 1 3 0.0 0.0 0.0 0.0
3243 1 3 0.0 0.0 0.0 0.0
3244 1 3 0.0 0.0 0.0 0.0
3245 1 3 0.0 0.0 0.0 0.0
3246 1 3 0.0 0.0 0.0 0.0
3247 1 2 0.0 0.0 0.0 0.0
3248 1 2 0.0 0.0 0.0 0.0
3249 1 2 0.0 0.0 0.0 0.0
3250 1 2 0.0 0.0 0.0 0.0
3251 1 2 0.0 0.0 0.0 0.0
3252 1 2 0.0 0.0 0.0 0.0
3253 1 2 0.0 0.0 0.0 0.0
3254 1 2 0.0 0.0 0.0 0.0
3255 1 2 0.0 0.0 0.0 0.0
3256 1 2 0.0 0.0 0.0 0.0
3257 1 2 0.0 0.0 0.0 0.0
3258 1 2 0.0 0.0 0.0 0.0
3259 1 2 0.0 0.0 0.0 0.0
3260 1 2 0.0 0.0 0.0 0.0
3261 1 2 0.0 0.0 0.0 0.0
3262 1 2 0.0 0.0 0.0 0.0
3263 1 2 0.0 0.0 0.0 0.0
3264 1 2 0.0 0.0 0.0 0.0
3265 1 2 0.0 0.0 0.0 0.0
3266 1 2 0.0 0.0 0.0 0.0
3267 1 3 0.0 0.0 0.0 0.0
3268 1 3 0.0 0.0 0.0 0.0
3269 1 3 0.0 0.0 0.0 0.0
3270 1 3 0.0 0.0 0.0 0.0
3271 1 3 0.0 0.0 0.0 0.0
3272 1 3 0.0 0.0 0.0 0.0
3273 1 3 0.0 0.0 0.0 0.0
3274 1 3 0.0 0.0 0.0 0.0
3275 1 3 0.0 0.0 0.0 0.0
3276 1 3 0.0 0.0 0.0 0.0
3277 1 2 0.0 0.0 0.0 0.0
3278 1 2 0.0 0.0 0.0 0.0
3279 1 2 0.0 0.0 0.0 0.0
3280 1 2 0.0 0.0 0.0 0.0
3281 1 2 0.0 0.0 0.0 0.0
3282 1 2 0.0 0.0 0.0 0.0
3283 1 2 0.0 0.0 0.0 0.0
3284 1 2 0.0 0.0 0.0 0.0
3285 1 2 0.0 0.0 0.0 0.0
3286 1 2 0.0 0.0 0.0 0.0
3287 1 2 0.0 0.0 0.0 0.0
3288 1 2 0.0 0.0 0.0 0.0
3289 1 2 0.0 0.0 0.0 0.0
3290 1 2 0.0 0.0 0.0 0.0
3291 1 2 0.0 0.0 0.0 0.0
3292 1 2 0.0 0.0 0.0 0.0
3293 1 2 0.0 0.0 0.0 0.0
3294 1 2 0.0 0.0 0.0 0.0
3295 1 2 0.0 0.0 0.0 0.0
3296 1 2 0.0 0.0 0.0 0.0
3297 1 3 0.0 0.0 0.0 0.0
3298 1 3 0.0 0.0 0.0 0.0
3299 1 3 0.0 0.0 0.0 0.0
3300 1 3 0.0 0.0 0.0 0.0
3301 1 3 0.0 0.0 0.0 0.0
3302 1 3 0.0 0.0 0.0 0.0
3303 1 3 0.0 0.0 0.0 0.0
3304 1 3 0.0 0.0 0.0 0.0
3305 1 3 0.0 0.0 0.0 0.0
3306 1 3 0.0 0.0 0.0 0.0
3307 1 2 0.0 0.0 0.0 0.0
3308 1 2 0.0 0.0 0.0 0.0
3309 1 2 0.0 0.0 0.0 0.0
3310 1 2 0.0 0.0 0.0 0.0
3311 1 2 0.0 0.0 0.0 0.0
3312 1 2 0.0 0.0 0.0 0.0
3313 1 2 0.0 0.0 0.0 0.0
3314 1 2 0.0 0.0 0.0 0.0
3315 1 2 0.0 0.0 0.0 0.0
3316 1 2 0.0 0.0 0.0 0.0
3317 1 2 0.0 0.0 0.0 0.0
3318 1 2 0.0 0.0 0.0 0.0
3319 1 2 0.0 0.0 0.0 0.0
3320 1 2 0.0 0.0 0.0 0.0
3321 1 2 0.0 0.0 0.0 0.0
3322 1 2 0.0 0.0 0.0 0.0
3323 1 2 0.0 0.0 0.0 0.0
3324 1 2 0.0 0.0 0.0 0.0
3325 1 2 0.0 0.0 0.0 0.0
3326 1 2 0.0 0.0 0.0 0.0
3327 1 3 0.0 0.0 0.0 0.0
3328 1 3 0.0 0.0 0.0 0.0
3329 1 3 0.0 0.0 0.0 0.0
3330 1 3 0.0 0.0 0.0 0.0
3331 1 3 0.0 0.0 0.0 0.0
3332 1 3 0.0 0.0 0.0 0.0
3333 1 3 0.0 0.0 0.0 0.0
3334 1 3 0.0 0.0 0.0 0.0
3335 1 3 0.0 0.0 0.0 0.0
3336 1 3 0.0 0.0 0.0 0.0
3337 1 2 0.0 0.0 0.0 0.0
3338 1 2 0.0 0.0 0.0 0.0
3339 1 2 0.0 0.0 0.0 0.0
3340 1 2 0.0 0.0 0.0 0.0
3341 1 2 0.0 0.0 0.0 0.0
3342 1 2 0.0 0.0 0.0 0.0
3343 1 2 0.0 0.0 0.0 0.0
3344 1 2 0.0 0.0 0.0 0.0
3345 1 2 0.0 0.0 0.0 0.0
3346 1 2 0.0 0.0 0.0 0.0
3347 1 2 0.0 0.0 0.0 0.0
3348 1 2 0.0 0.0 0.0 0.0
3349 1 2 0.0 0.0 0.0 0.0
3350 1 2 0.0 0.0 0.0 0.0
3351 1 2 0.0 0.0 0.0 0.0
3352 1 2 0.0 0.0 0.0 0.0
3353 1 2 0.0 0.0 0.0 0.0
3354 1 2 0.0 0.0 0.0 0.0
3355 1 2 0.0 0.0 0.0 0.0
3356 1 2 0.0 0.0 0.0 0.0
3357 1 3 0.0 0.0 0.0 0.0
3358 1 3 0.0 0.0 0.0 0.0
3359 1 3 0.0 0.0 0.0 0.0
3360 1 3 0.0 0.0 0.0 0.0
3361 1 3 0.0 0.0 0.0 0.0
3362 1 3 0.0 0.0 0.0 0.0
3363 1 3 0.0 0.0 0.0 0.0
3364 1 3 0.0 0.0 0.0 0.0
3365 1 3 0.0 0.0 0.0 0.0
3366 1 3 0.0 0.0 0.0 0.0
3367 1 2 0.0 0.0 0.0 0.0
3368 1 2 0.0 0.0 0.0 0.0
3369 1 2 0.0 0.0 0.0 0.0
3370 1 2 0.0 0.0 0.0 0.0
3371 1 2 0.0 0.0 0.0 0.0
3372 1 2 0.0 0.0 0.0 0.0
3373 1 2 0.0 0.0 0.0 0.0
3374 1 2 0.0 0.0 0.0 0.0
3375 1 2 0.0 0.0 0.0 0.0
3376 1 2 0.0 0.0 0.0 0.0
3377 1 2 0.0 0.0 0.0 0.0
3378 1 2 0.0 0.0 0.0 0.0
3379 1 2 0.0 0.0 0.0 0.0
3380 1 2 0.0 0.0 0.0 0.0
3381 1 2 0.0 0.0 0.0 0.0
3382 1 2 0.0 0.0 0.0 0.0
3383 1 2 0.0 0.0 0.0 0.0
3384 1 2 0.0 0.0 0.0 0.0
3385 1 2 0.0 0.0 0.0 0.0
3386 1 2 0.0 0.0 0.0 0.0
3387 1 3 0.0 0.0 0.0 0.0
3388 1 3 0.0 0.0 0.0 0.0
3389 1 3 0.0 0.0 0.0 0.0
3390 1 3 0.0 0.0 0.0 0.0
3391 1 3 0.0 0.0 0.0 0.0
3392 1 2 0.0 0.0 0.0 0.0
3393 1 2 0.0 0.0 0.0 0.0
3394 1 2 0.0 0.0 0.0 0.0
3395 1 2 0.0 0.0 0.0 0.0
3396 1 2 0.0 0.0 0.0 0.0
3397 1 2 0.0 0.0 0.0 0.0
3398 1 2 0.0 0.0 0.0 0.0
3399 1 2 0.0 0.0 0.0 0.0
3400 1 2 0.0 0.0 0.0 0.0
3401 1 2 0.0 0.0 0.0 0.0
3402 1 2 0.0 0.0 0.0 0.0
3403 1 2 0.0 0.0 0.0 0.0
3404 1 2 0.0 0.0 0.0 0.0
3405 1 2 0.0 0.0 0.0 0.0
3406 1 2 0.0 0.0 0.0 0.0
3407 1 2 0.0 0.0 0.0 0.0
3408 1 2 0.0 0.0 0.0 0.0
3409 1 2 0.0 0.0 0.0 0.0
3410 1 2 0.0 0.0 0.0 0.0
3411 1 2 0.0 0.0 0.0 0.0
3412 1 2 0.0 0.0 0.0 0.0
3413 1 2 0.0 0.0 0.0 0.0
3414 1 2 0.0 0.0 0.0 0.0
3415 1 2 0.0 0.0 0.0 0.0
3416 1 2 0.0 0.0 0.0 0.0
3417 1 2 0.0 0.0 0.0 0.0
3418 1 2 0.0 0.0 0.0 0.0
3419 1 2 0.0 0.0 0.0 0.0
3420 1 2 0.0 0.0 0.0 0.0
3421 1 2 0.0 0.0 0.0 0.0
3422 1 2 0.0 0.0 0.0 0.0
3423 1 2 0.0 0.0 0.0 0.0
3424 1 2 0.0 0.0 0.0 0.0
3425 1 2 0.0 0.0 0.0 0.0
3426 1 2 0.0 0.0 0.0 0.0
3427 1 2 0.0 0.0 0.0 0.0
3428 1 2 0.0 0.0 0.0 0.0
3429 1 2 0.0 0.0 0.0 0.0
3430 1 2 0.0 0.0 0.0 0.0
3431 1 2 0.0 0.0 0.0 0.0
3432 1 2 0.0 0.0 0.0 0.0
3433 1 2 0.0 0.0 0.0 0.0
3434 1 2 0.0 0.0 0.0 0.0
3435 1 2 0.0 0.0 0.0 0.0
3436 1 2 0.0 0.0 0.0 0.0
3437 1 2 0.0 0.0 0.0 0.0
3438 1 2 0.0 0.0 0.0 0.0
3439 1 2 0.0 0.0 0.0 0.0
3440 1 2 0.0 0.0 0.0 0.0
3441 1 2 0.0 0.0 0.0 0.0
3442 1 2 0.0 0.0 0.0 0.0
3443 1 2 0.0 0.0 0.0 0.0
3444 1 2 0.0 0.0 0.0 0.0
3445 1 2 0.0 0.0 0.0 0.0
3446 1 2 0.0 0.0 0.0 0.0
3447 1 2 0.0 0.0 0.0 0.0
3448 1 2 0.0 0.0 0.0 0.0
3449 1 2 0.0 0.0 0.0 0.0
3450 1 2 0.0 0.0 0.0 0.0
3451 1 2 0.0 0.0 0.0 0.0
3452 1 3 0.0 0.0 0.0 0.0
3453 1 3 0.0 0.0 0.0 0.0
3454 1 3 0.0 0.0 0.0 0.0
3455 1 3 0.0 0.0 0.0 0.0
3456 1 3 0.0 0.0 0.0 0.0
3457 1 2 0.0 0.0 0.0 0.0
3458 1 2 0.0 0.0 0.0 0.0
3459 1 2 0.0 0.0 0.0 0.0
3460 1 2 0.0 0.0 0.0 0.0
3461 1 2 0.0 0.0 0.0 0.0
3462 1 2 0.0 0.0 0.0 0.0
3463 1 2 0.0 0.0 0.0 0.0
3464 1 2 0.0 0.0 0.0 0.0
3465 1 2 0.0 0.0 0.0 0.0
3466 1 2 0.0 0.0 0.0 0.0
3467 1 2 0.0 0.0 0.0 0.0
3468 1 2 0.0 0.0 0.0 0.0
3469 1 2 0.0 0.0 0.0 0.0
3470 1 2 0.0 0.0 0.0 0.0
3471 1 2 0.0 0.0 0.0 0.0
3472 1 2 0.0 0.0 0.0 0.0
3473 1 2 0.0 0.0 0.0 0.0
3474 1 2 0.0 0.0 0.0 0.0
3475 1 2 0.0 0.0 0.0 0.0
3476 1 2 0.0 0.0 0.0 0.0
3477 1 2 0.0 0.0 0.0 0.0
3478 1 2 0.0 0.0 0.0 0.0
3479 1 2 0.0 0.0 0.0 0.0
3480 1 2 0.0 0.0 0.0 0.0
3481 1 2 0.0 0.0 0.0 0.0
3482 1 2 0.0 0.0 0.0 0.0
3483 1 2 0.0 0.0 0.0 0.0
3484 1 2 0.0 0.0 0.0 0.0
3485 1 2 0.0 0.0 0.0 0.0
3486 1 2 0.0 0.0 0.0 0.0
3487 1 2 0.0 0.0 0.0 0.0
3488 1 2 0.0 0.0 0.0 0.0
3489 1 2 0.0 0.0 0.0 0.0
3490 1 2 0.0 0.0 0.0 0.0
3491 1 2 0.0 0.0 0.0 0.0
3492 1 2 0.0 0.0 0.0 0.0
3493 1 2 0.0 0.0 0.0 0.0
3494 1 2 0.0 0.0 0.0 0.0
3495 1 2 0.0 0.0 0.0 0.0
3496 1 2 0.0 0.0 0.0 0.0
3497 1 3 0.0 0.0 0.0 0.0
3498 1 3 0.0 0.0 0.0 0.0
3499 1 3 0.0 0.0 0.0 0.0
3500 1 3 0.0 0.0 0.0 0.0
3501 1 3 0.0 0.0 0.0 0.0
3502 1 2 0.0 0.0 0.0 0.0
3503 1 2 0.0 0.0 0.0 0.0
3504 1 2 0.0 0.0 0.0 0.0
3505 1 2 0.0 0.0 0.0 0.0
3506 1 2 0.0 0.0 0.0 0.0
3507 1 2 0.0 0.0 0.0 0.0
3508 1 2 0.0 0.0 0.0 0.0
3509 1 2 0.0 0.0 0.0 0.0
3510 1 2 0.0 0.0 0.0 0.0
3511 1 2 0.0 0.0 0.0 0.0
3512 1 2 0.0 0.0 0.0 0.0
3513 1 2 0.0 0.0 0.0 0.0
3514 1 2 0.0 0.0 0.0 0.0
3515 1 2 0.0 0.0 0.0 0.0
3516 1 2 0.0 0.0 0.0 0.0
3517 1 2 0.0 0.0 0.0 0.0
3518 1 2 0.0 0.0 0.0 0.0
3519 1 2 0.0 0.0 0.0 0.0
3520 1 2 0.0 0.0 0.0 0.0
3521 1 2 0.0 0.0 0.0 0.0
3522 1 3 0.0 0.0 0.0 0.0
3523 1 3 0.0 0.0 0.0 0.0
3524 1 3 0.0 0.0 0.0 0.0
3525 1 3 0.0 0.0 0.0 0.0
3526 1 3 0.0 0.0 0.0 0.0
3527 1 2 0.0 0.0 0.0 0.0
3528 1 2 0.0 0.0 0.0 0.0
3529 1 2 0.0 0.0 0.0 0.0
3530 1 2 0.0 0.0 0.0 0.0
3531 1 2 0.0 0.0 0.0 0.0
3532 1 2 0.0 0.0 0.0 0.0
3533 1 2 0.0 0.0 0.0 0.0
3534 1 2 0.0 0.0 0.0 0.0
3535 1 2 0.0 0.0 0.0 0.0
3536 1 2 0.0 0.0 0.0 0.0
3537 1 2 0.0 0.0 0.0 0.0
3538 1 2 0.0 0.0 0.0 0.0
3539 1 2 0.0 0.0 0.0 0.0
3540 1 2 0.0 0.0 0.0 0.0
3541 1 2 0.0 0.0 0.0 0.0
3542 1 2 0.0 0.0 0.0 0.0
3543 1 2 0.0 0.0 0.0 0.0
3544 1 2 0.0 0.0 0.0 0.0
3545 1 2 0.0 0.0 0.0 0.0
3546 1 2 0.0 0.0 0.0 0.0
3547 1 3 0.0 0.0 0.0 0.0
3548 1 3 0.0 0.0 0.0 0.0
3549 1 3 0.0 0.0 0.0 0.0
3550 1 3 0.0 0.0 0.0 0.0
3551 1 3 0.0 0.0 0.0 0.0
3552 1 2 0.0 0.0 0.0 0.0
3553 1 2 0.0 0.0 0.0 0.0
3554 1 2 0.0 0.0 0.0 0.0
3555 1 2 0.0 0.0 0.0 0.0
3556 1 2 0.0 0.0 0.0 0.0
3557 1 2 0.0 0.0 0.0 0.0
3558 1 2 0.0 0.0 0.0 0.0
3559 1 2 0.0 0.0 0.0 0.0
3560 1 2 0.0 0.0 0.0 0.0
3561 1 2 0.0 0.0 0.0 0.0
3562 1 2 0.0 0.0 0.0 0.0
3563 1 2 0.0 0.0 0.0 0.0
3564 1 2 0.0 0.0 0.0 0.0
3565 1 2 0.0 0.0 0.0 0.0
3566 1 2 0.0 0.0 0.0 0.0
3567 1 2 0.0 0.0 0.0 0.0
3568 1 2 0.0 0.0 0.0 0.0
3569 1 2 0.0 0.0 0.0 0.0
3570 1 2 0.0 0.0 0.0 0.0
3571 1 2 0.0 0.0 0.0 0.0
3572 1 3 0.0 0.0 0.0 0.0
3573 1 3 0.0 0.0 0.0 0.0
3574 1 3 0.0 0.0 0.0 0.0
3575 1 3 0.0 0.0 0.0 0.0
3576 1 3 0.0 0.0 0.0 0.0
3577 1 3 0.0 0.0 0.0 0.0
3578 1 3 0.0 0.0 0.0 0.0
3579 1 3 0.0 0.0 0.0 0.0
3580 1 3 0.0 0.0 0.0 0.0
3581 1 3 0.0 0.0 0.0 0.0
3582 1 2 0.0 0.0 0.0 0.0
3583 1 2 0.0 0.0 0.0 0.0
3584 1 2 0.0 0.0 0.0 0.0
3585 1 2 0.0 0.0 0.0 0.0
3586 1 2 0.0 0.0 0.0 0.0
3587 1 2 0.0 0.0 0.0 0.0
3588 1 2 0.0 0.0 0.0 0.0
3589 1 2 0.0 0.0 0.0 0.0
3590 1 2 0.0 0.0 0.0 0.0
3591 1 2 0.0 0.0 0.0 0.0
3592 1 2 0.0 0.0 0.0 0.0
3593 1 2 0.0 0.0 0.0 0.0
3594 1 2 0.0 0.0 0.0 0.0
3595 1 2 0.0 0.0 0.0 0.0
3596 1 2 0.0 0.0 0.0 0.0
3597 1 2 0.0 0.0 0.0 0.0
3598 1 2 0.0 0.0 0.0 0.0
3599 1 2 0.0 0.0 0.0 0.0
3600 1 2 0.0 0.0 0.0 0.0
3601 1 2 0.0 0.0 0.0 0.0
3602 1 3 0.0 0.0 0.0 0.0
3603 1 3 0.0 0.0 0.0 0.0
3604 1 3 0.0 0.0 0.0 0.0
3605 1 3 0.0 0.0 0.0 0.0
3606 1 3 0.0 0.0 0.0 0.0
3607 1 3 0.0 0.0 0.0 0.0
3608 1 3 0.0 0.0 0.0 0.0
3609 1 3 0.0 0.0 0.0 0.0
3610 1 3 0.0 0.0 0.0 0.0
3611 1 3 0.0 0.0 0.0 0.0
3612 1 3 0.0 0.0 0.0 0.0
3613 1 3 0.0 0.0 0.0 0.0
3614 1 3 0.0 0.0 0.0 0.0
3615 1 3 0.0 0.0 0.0 0.0
3616 1 3 0.0 0.0 0.0 0.0
3617 1 3 0.0 0.0 0.0 0.0
3618 1 3 0.0 0.0 0.0 0.0
3619 1 3 0.0 0.0 0.0 0.0
3620 1 3 0.0 0.0 0.0 0.0
3621 1 3 0.0 0.0 0.0 0.0
3622 1 2 0.0 0.0 0.0 0.0
3623 1 2 0.0 0.0 0.0 0.0
3624 1 2 0.0 0.0 0.0 0.0
3625 1 2 0.0 0.0 0.0 0.0
3626 1 2 0.0 0.0 0.0 0.0
3627 1 2 0.0 0.0 0.0 0.0
3628 1 2 0.0 0.0 0.0 0.0
3629 1 2 0.0 0.0 0.0 0.0
3630 1 2 0.0 0.0 0.0 0.0
3631 1 2 0.0 0.0 0.0 0.0
3632 1 2 0.0 0.0 0.0 0.0
3633 1 2 0.0 0.0 0.0 0.0
3634 1 2 0.0 0.0 0.0 0.0
3635 1 2 0.0 0.0 0.0 0.0
3636 1 2 0.0 0.0 0.0 0.0
3637 1 2 0.0 0.0 0.0 0.0
3638 1 2 0.0 0.0 0.0 0.0
3639 1 2 0.0 0.0 0.0 0.0
3640 1 2 0.0 0.0 0.0 0.0
3641 1 2 0.0 0.0 0.0 0.0
3642 1 3 0.0 0.0 0.0 0.0
3643 1 3 0.0 0.0 0.0 0.0
3644 1 3 0.0 0.0 0.0 0.0
3645 1 3 0.0 0.0 0.0 0.0
3646 1 3 0.0 0.0 0.0 0.0
3647 1 3 0.0 0.0 0.0 0.0
3648 1 3 0.0 0.0 0.0 0.0
3649 1 3 0.0 0.0 0.0 0.0
3650 1 3 0.0 0.0 0.0 0.0
3651 1 3 0.0 0.0 0.0 0.0
3652 1 2 0.0 0.0 0.0 0.0
3653 1 2 0.0 0.0 0.0 0.0
3654 1 2 0.0 0.0 0.0 0.0
3655 1 2 0.0 0.0 0.0 0.0
3656 1 2 0.0 0.0 0.0 0.0
3657 1 2 0.0 0.0 0.0 0.0
3658 1 2 0.0 0.0 0.0 0.0
3659 1 2 0.0 0.0 0.0 0.0
3660 1 2 0.0 0.0 0.0 0.0
3661 1 2 0.0 0.0 0.0 0.0
3662 1 2 0.0 0.0 0.0 0.0
3663 1 2 0.0 0.0 0.0 0.0
3664 1 2 0.0 0.0 0.0 0.0
3665 1 2 0.0 0.0 0.0 0.0
3666 1 2 0.0 0.0 0.0 0.0
3667 1 2 0.0 0.0 0.0 0.0
3668 1 2 0.0 0.0 0.0 0.0
3669 1 2 0.0 0.0 0.0 0.0
3670 1 2 0.0 0.0 0.0 0.0
3671 1 2 0.0 0.0 0.0 0.0
3672 1 2 0.0 0.0 0.0 0.0
3673 1 2 0.0 0.0 0.0 0.0
3674 1 2 0.0 0.0 0.0 0.0
3675 1 2 0.0 0.0 0.0 0.0
3676 1 2 0.0 0.0 0.0 0.0
3677 1 2 0.0 0.0 0.0 0.0
3678 1 2 0.0 0.0 0.0 0.0
3679 1 2 0.0 0.0 0.0 0.0
3680 1 2 0.0 0.0 0.0 0.0
3681 1 2 0.0 0.0 0.0 0.0
3682 1 2 0.0 0.0 0.0 0.0
3683 1 2 0.0 0.0 0.0 0.0
3684 1 2 0.0 0.0 0.0 0.0
3685 1 2 0.0 0.0 0.0 0.0
3686 1 2 0.0 0.0 0.0 0.0
3687 1 2 0.0 0.0 0.0 0.0
3688 1 2 0.0 0.0 0.0 0.0
3689 1 2 0.0 0.0 0.0 0.0
3690 1 2 0.0 0.0 0.0 0.0
3691 1 2 0.0 0.0 0.0 0.0
3692 1 2 0.0 0.0 0.0 0.0
3693 1 2 0.0 0.0 0.0 0.0
3694 1 2 0.0 0.0 0.0 0.0
3695 1 2 0.0 0.0 0.0 0.0
3696 1 2 0.0 0.0 0.0 0.0
3697 1 2 0.0 0.0 0.0 0.0
3698 1 2 0.0 0.0 0.0 0.0
3699 1 2 0.0 0.0 0.0 0.0
3700 1 2 0.0 0.0 0.0 0.0
3701 1 2 0.0 0.0 0.0 0.0
3702 1 2 0.0 0.0 0.0 0.0
3703 1 2 0.0 0.0 0.0 0.0
3704 1 2 0.0 0.0 0.0 0.0
3705 1 2 0.0 0.0 0.0 0.0
3706 1 2 0.0 0.0 0.0 0.0
3707 1 2 0.0 0.0 0.0 0.0
3708 1 2 0.0 0.0 0.0 0.0
3709 1 2 0.0 0.0 0.0 0.0
3710 1 2 0.0 0.0 0.0 0.0
3711 1 2 0.0 0.0 0.0 0.0
3712 1 2 0.0 0.0 0.0 0.0
3713 1 2 0.0 0.0 0.0 0.0
3714 1 2 0.0 0.0 0.0 0.0
3715 1 2 0.0 0.0 0.0 0.0
3716 1 2 0.0 0.0 0.0 0.0
3717 1 2 0.0 0.0 0.0 0.0
3718 1 2 0.0 0.0 0.0 0.0
3719 1 2 0.0 0.0 0.0 0.0
3720 1 2 0.0 0.0 0.0 0.0
3721 1 2 0.0 0.0 0.0 0.0
3722 1 2 0.0 0.0 0.0 0.0
3723 1 2 0.0 0.0 0.0 0.0
3724 1 2 0.0 0.0 0.0 0.0
3725 1 2 0.0 0.0 0.0 0.0
3726 1 2 0.0 0.0 0.0 0.0
3727 1 2 0.0 0.0 0.0 0.0
3728 1 2 0.0 0.0 0.0 0.0
3729 1 2 0.0 0.0 0.0 0.0
3730 1 2 0.0 0.0 0.0 0.0
3731 1 2 0.0 0.0 0.0 0.0
3732 1 2 0.0 0.0 0.0 0.0
3733 1 2 0.0 0.0 0.0 0.0
3734 1 2 0.0 0.0 0.0 0.0
3735 1 2 0.0 0.0 0.0 0.0
3736 1 2 0.0 0.0 0.0 0.0
3737 1 2 0.0 0.0 0.0 0.0
3738 1 2 0.0 0.0 0.0 0.0
3739 1 2 0.0 0.0 0.0 0.0
3740 1 2 0.0 0.0 0.0 0.0
3741 1 2 0.0 0.0 0.0 0.0
3742 1 2 0.0 0.0 0.0 0.0
3743 1 2 0.0 0.0 0.0 0.0
3744 1 2 0.0 0.0 0.0 0.0
3745 1 2 0.0 0.0 0.0 0.0
3746 1 2 0.0 0.0 0.0 0.0
3747 1 2 0.0 0.0 0.0 0.0
3748 1 2 0.0 0.0 0.0 0.0
3749 1 2 0.0 0.0 0.0 0.0
3750 1 2 0.0 0.0 0.0 0.0
3751 1 2 0.0 0.0 0.0 0.0
3752 1 3 0.0 0.0 0.0 0.0
3753 1 3 0.0 0.0 0.0 0.0
3754 1 3 0.0 0.0 0.0 0.0
3755 1 3 0.0 0.0 0.0 0.0
3756 1 3 0.0 0.0 0.0 0.0
3757 1 2 0.0 0.0 0.0 0.0
3758 1 2 0.0 0.0 0.0 0.0
3759 1 2 0.0 0.0 0.0 0.0
3760 1 2 0.0 0.0 0.0 0.0
3761 1 2 0.0 0.0 0.0 0.0
3762 1 2 0.0 0.0 0.0 0.0
3763 1 2 0.0 0.0 0.0 0.0
3764 1 2 0.0 0.0 0.0 0.0
3765 1 2 0.0 0.0 0.0 0.0
3766 1 2 0.0 0.0 0.0 0.0
3767 1 2 0.0 0.0 0.0 0.0
3768 1 2 0.0 0.0 0.0 0.0
3769 1 2 0.0 0.0 0.0 0.0
3770 1 2 0.0 0.0 0.0 0.0
3771 1 2 0.0 0.0 0.0 0.0
3772 1 2 0.0 0.0 0.0 0.0
3773 1 2 0.0 0.0 0.0 0.0
3774 1 2 0.0 0.0 0.0 0.0
3775 1 2 0.0 0.0 0.0 0.0
3776 1 2 0.0 0.0 0.0 0.0
3777 1 3 0.0 0.0 0.0 0.0
3778 1 3 0.0 0.0 0.0 0.0
3779 1 3 0.0 0.0 0.0 0.0
3780 1 3 0.0 0.0 0.0 0.0
3781 1 3 0.0 0.0 0.0 0.0
3782 1 2 0.0 0.0 0.0 0.0
3783 1 2 0.0 0.0 0.0 0.0
3784 1 2 0.0 0.0 0.0 0.0
3785 1 2 0.0 0.0 0.0 0.0
3786 1 2 0.0 0.0 0.0 0.0
3787 1 2 0.0 0.0 0.0 0.0
3788 1 2 0.0 0.0 0.0 0.0
3789 1 2 0.0 0.0 0.0 0.0
3790 1 2 0.0 0.0 0.0 0.0
3791 1 2 0.0 0.0 0.0 0.0
3792 1 2 0.0 0.0 0.0 0.0
3793 1 2 0.0 0.0 0.0 0.0
3794 1 2 0.0 0.0 0.0 0.0
3795 1 2 0.0 0.0 0.0 0.0
3796 1 2 0.0 0.0 0.0 0.0
3797 1 2 0.0 0.0 0.0 0.0
3798 1 2 0.0 0.0 0.0 0.0
3799 1 2 0.0 0.0 0.0 0.0
3800 1 2 0.0 0.0 0.0 0.0
3801 1 2 0.0 0.0 0.0 0.0
3802 1 3 0.0 0.0 0.0 0.0
3803 1 3 0.0 0.0 0.0 0.0
3804 1 3 0.0 0.0 0.0 0.0
3805 1 3 0.0 0.0 0.0 0.0
3806 1 3 0.0 0.0 0.0 0.0
3807 1 3 0.0 0.0 0.0 0.0
3808 1 3 0.0 0.0 0.0 0.0
3809 1 3 0.0 0.0 0.0 0.0
3810 1 3 0.0 0.0 0.0 0.0
3811 1 3 0.0 0.0 0.0 0.0
3812 1 2 0.0 0.0 0.0 0.0
3813 1 2 0.0 0.0 0.0 0.0
3814 1 2 0.0 0.0 0.0 0.0
3815 1 2 0.0 0.0 0.0 0.0
3816 1 2 0.0 0.0 0.0 0.0
3817 1 2 0.0 0.0 0.0 0.0
3818 1 2 0.0 0.0 0.0 0.0
3819 1 2 0.0 0.0 0.0 0.0
3820 1 2 0.0 0.0 0.0 0.0
3821 1 2 0.0 0.0 0.0 0.0
3822 1 2 0.0 0.0 0.0 0.0
3823 1 2 0.0 0.0 0.0 0.0
3824 1 2 0.0 0.0 0.0 0.0
3825 1 2 0.0 0.0 0.0 0.0
3826 1 2 0.0 0.0 0.0 0.0
3827 1 2 0.0 0.0 0.0 0.0
3828 1 2 0.0 0.0 0.0 0.0
3829 1 2 0.0 0.0 0.0 0.0
3830 1 2 0.0 0.0 0.0 0.0
3831 1 2 0.0 0.0 0.0 0.0
3832 1 3 0.0 0.0 0.0 0.0
3833 1 3 0.0 0.0 0.0 0.0
3834 1 3 0.0 0.0 0.0 0.0
3835 1 3 0.0 0.0 0.0 0.0
3836 1 3 0.0 0.0 0.0 0.0
3837 1 2 0.0 0.0 0.0 0.0
3838 1 2 0.0 0.0 0.0 0.0
3839 1 2 0.0 0.0 0.0 0.0
3840 1 2 0.0 0.0 0.0 0.0
3841 1 2 0.0 0.0 0.0 0.0
3842 1 2 0.0 0.0 0.0 0.0
3843 1 2 0.0 0.0 0.0 0.0
3844 1 2 0.0 0.0 0.0 0.0
3845 1 2 0.0 0.0 0.0 0.0
3846 1 2 0.0 0.0 0.0 0.0
3847 1 2 0.0 0.0 0.0 0.0
3848 1 2 0.0 0.0 0.0 0.0
3849 1 2 0.0 0.0 0.0 0.0
3850 1 2 0.0 0.0 0.0 0.0
3851 1 2 0.0 0.0 0.0 0.0
3852 1 2 0.0 0.0 0.0 0.0
3853 1 2 0.0 0.0 0.0 0.0
3854 1 2 0.0 0.0 0.0 0.0
3855 1 2 0.0 0.0 0.0 0.0
3856 1 2 0.0 0.0 0.0 0.0
3857 1 3 0.0 0.0 0.0 0.0
3858 1 3 0.0 0.0 0.0 0.0
3859 1 3 0.0 0.0 0.0 0.0
3860 1 3 0.0 0.0 0.0 0.0
3861 1 3 0.0 0.0 0.0 0.0
3862 1 3 0.0 0.0 0.0 0.0
3863 1 3 0.0 0.0 0.0 0.0
3864 1 3 0.0 0.0 0.0 0.0
3865 1 3 0.0 0.0 0.0 0.0
3866 1 3 0.0 0.0 0.0 0.0
3867 1 2 0.0 0.0 0.0 0.0
3868 1 2 0.0 0.0 0.0 0.0
3869 1 2 0.0 0.0 0.0 0.0
3870 1 2 0.0 0.0 0.0 0.0
3871 1 2 0.0 0.0 0.0 0.0
3872 1 2 0.0 0.0 0.0 0.0
3873 1 2 0.0 0.0 0.0 0.0
3874 1 2 0.0 0.0 0.0 0.0
3875 1 2 0.0 0.0 0.0 0.0
3876 1 2 0.0 0.0 0.0 0.0
3877 1 2 0.0 0.0 0.0 0.0
3878 1 2 0.0 0.0 0.0 0.0
3879 1 2 0.0 0.0 0.0 0.0
3880 1 2 0.0 0.0 0.0 0.0
3881 1 2 0.0 0.0 0.0 0.0
3882 1 2 0.0 0.0 0.0 0.0
3883 1 2 0.0 0.0 0.0 0.0
3884 1 2 0.0 0.0 0.0 0.0
3885 1 2 0.0 0.0 0.0 0.0
3886 1 2 0.0 0.0 0.0 0.0
3887 1 2 0.0 0.0 0.0 0.0
3888 1 2 0.0 0.0 0.0 0.0
3889 1 2 0.0 0.0 0.0 0.0
3890 1 2 0.0 0.0 0.0 0.0
3891 1 2 0.0 0.0 0.0 0.0
3892 1 2 0.0 0.0 0.0 0.0
3893 1 2 0.0 0.0 0.0 0.0
3894 1 2 0.0 0.0 0.0 0.0
3895 1 2 0.0 0.0 0.0 0.0
3896 1 2 0.0 0.0 0.0 0.0
3897 1 2 0.0 0.0 0.0 0.0
3898 1 2 0.0 0.0 0.0 0.0
3899 1 2 0.0 0.0 0.0 0.0
3900 1 2 0.0 0.0 0.0 0.0
3901 1 2 0.0 0.0 0.0 0.0
3902 1 2 0.0 0.0 0.0 0.0
3903 1 2 0.0 0.0 0.0 0.0
3904 1 2 0.0 0.0 0.0 0.0
3905 1 2 0.0 0.0 0.0 0.0
3906 1 2 0.0 0.0 0.0 0.0
3907 1 3 0.0 0.0 0.0 0.0
3908 1 3 0.0 0.0 0.0 0.0
3909 1 3 0.0 0.0 0.0 0.0
3910 1 3 0.0 0.0 0.0 0.0
3911 1 3 0.0 0.0 0.0 0.0
3912 1 3 0.0 0.0 0.0 0.0
3913 1 3 0.0 0.0 0.0 0.0
3914 1 3 0.0 0.0 0.0 0.0
3915 1 3 0.0 0.0 0.0 0.0
3916 1 3 0.0 0.0 0.0 0.0
3917 1 2 0.0 0.0 0.0 0.0
3918 1 2 0.0 0.0 0.0 0.0
3919 1 2 0.0 0.0 0.0 0.0
3920 1 2 0.0 0.0 0.0 0.0
3921 1 2 0.0 0.0 0.0 0.0
3922 1 2 0.0 0.0 0.0 0.0
3923 1 2 0.0 0.0 0.0 0.0
3924 1 2 0.0 0.0 0.0 0.0
3925 1 2 0.0 0.0 0.0 0.0
3926 1 2 0.0 0.0 0.0 0.0
3927 1 2 0.0 0.0 0.0 0.0
3928 1 2 0.0 0.0 0.0 0.0
3929 1 2 0.0 0.0 0.0 0.0
3930 1 2 0.0 0.0 0.0 0.0
3931 1 2 0.0 0.0 0.0 0.0
3932 1 2 0.0 0.0 0.0 0.0
3933 1 2 0.0 0.0 0.0 0.0
3934 1 2 0.0 0.0 0.0 0.0
3935 1 2 0.0 0.0 0.0 0.0
3936 1 2 0.0 0.0 0.0 0.0
3937 1 3 0.0 0.0 0.0 0.0
3938 1 3 0.0 0.0 0.0 0.0
3939 1 3 0.0 0.0 0.0 0.0
3940 1 3 0.0 0.0 0.0 0.0
3941 1 3 0.0 0.0 0.0 0.0
3942 1 2 0.0 0.0 0.0 0.0
3943 1 2 0.0 0.0 0.0 0.0
3944 1 2 0.0 0.0 0.0 0.0
3945 1 2 0.0 0.0 0.0 0.0
3946 1 2 0.0 0.0 0.0 0.0
3947 1 2 0.0 0.0 0.0 0.0
3948 1 2 0.0 0.0 0.0 0.0
3949 1 2 0.0 0.0 0.0 0.0
3950 1 2 0.0 0.0 0.0 0.0
3951 1 2 0.0 0.0 0.0 0.0
3952 1 2 0.0 0.0 0.0 0.0
3953 1 2 0.0 0.0 0.0 0.0
3954 1 2 0.0 0.0 0.0 0.0
3955 1 2 0.0 0.0 0.0 0.0
3956 1 2 0.0 0.0 0.0 0.0
3957 1 2 0.0 0.0 0.0 0.0
3958 1 2 0.0 0.0 0.0 0.0
3959 1 2 0.0 0.0 0.0 0.0
3960 1 2 0.0 0.0 0.0 0.0
3961 1 2 0.0 0.0 0.0 0.0
3962 1 3 0.0 0.0 0.0 0.0
3963 1 3 0.0 0.0 0.0 0.0
3964 1 3 0.0 0.0 0.0 0.0
3965 1 3 0.0 0.0 0.0 0.0
3966 1 3 0.0 0.0 0.0 0.0
3967 1 2 0.0 0.0 0.0 0.0
3968 1 2 0.0 0.0 0.0 0.0
3969 1 2 0.0 0.0 0.0 0.0
3970 1 2 0.0 0.0 0.0 0.0
3971 1 2 0.0 0.0 0.0 0.0
3972 1 2 0.0 0.0 0.0 0.0
3973 1 2 0.0 0.0 0.0 0.0
3974 1 2 0.0 0.0 0.0 0.0
3975 1 2 0.0 0.0 0.0 0.0
3976 1 2 0.0 0.0 0.0 0.0
3977 1 2 0.0 0.0 0.0 0.0
3978 1 2 0.0 0.0 0.0 0.0
3979 1 2 0.0 0.0 0.0 0.0
3980 1 2 0.0 0.0 0.0 0.0
3981 1 2 0.0 0.0 0.0 0.0
3982 1 2 0.0 0.0 0.0 0.0
3983 1 2 0.0 0.0 0.0 0.0
3984 1 2 0.0 0.0 0.0 0.0
3985 1 2 0.0 0.0 0.0 0.0
3986 1 2 0.0 0.0 0.0 0.0
3987 1 3 0.0 0.0 0.0 0.0
3988 1 3 0.0 0.0 0.0 0.0
3989 1 3 0.0 0.0 0.0 0.0
3990 1 3 0.0 0.0 0.0 0.0
3991 1 3 0.0 0.0 0.0 0.0
3992 1 2 0.0 0.0 0.0 0.0
3993 1 2 0.0 0.0 0.0 0.0
3994 1 2 0.0 0.0 0.0 0.0
3995 1 2 0.0 0.0 0.0 0.0
3996 1 2 0.0 0.0 0.0 0.0
3997 1 2 0.0 0.0 0.0 0.0
3998 1 2 0.0 0.0 0.0 0.0
3999 1 2 0.0 0.0 0.0 0.0
4000 1 2 0.0 0.0 0.0 0.0
4001 1 2 0.0 0.0 0.0 0.0
4002 1 2 0.0 0.0 0.0 0.0
4003 1 2 0.0 0.0 0.0 0.0
4004 1 2 0.0 0.0 0.0 0.0
4005 1 2 0.0 0.0 0.0 0.0
4006 1 2 0.0 0.0 0.0 0.0
4007 1 2 0.0 0.0 0.0 0.0
4008 1 2 0.0 0.0 0.0 0.0
4009 1 2 0.0 0.0 0.0 0.0
4010 1 2 0.0 0.0 0.0 0.0
4011 1 2 0.0 0.0 0.0 0.0
4012 1 2 0.0 0.0 0.0 0.0
4013 1 2 0.0 0.0 0.0 0.0
4014 1 2 0.0 0.0 0.0 0.0
4015 1 2 0.0 0.0 0.0 0.0
4016 1 2 0.0 0.0 0.0 0.0
4017 1 2 0.0 0.0 0.0 0.0
4018 1 2 0.0 0.0 0.0 0.0
4019 1 2 0.0 0.0 0.0 0.0
4020 1 2 0.0 0.0 0.0 0.0
4021 1 2 0.0 0.0 0.0 0.0
4022 1 2 0.0 0.0 0.0 0.0
4023 1 2 0.0 0.0 0.0 0.0
4024 1 2 0.0 0.0 0.0 0.0
4025 1 2 0.0 0.0 0.0 0.0
4026 1 2 0.0 0.0 0.0 0.0
4027 1 2 0.0 0.0 0.0 0.0
4028 1 2 0.0 0.0 0.0 0.0
4029 1 2 0.0 0.0 0.0 0.0
4030 1 2 0.0 0.0 0.0 0.0
4031 1 2 0.0 0.0 0.0 0.0
4032 1 3 0.0 0.0 0.0 0.0
4033 1 3 0.0 0.0 0.0 0.0
4034 1 3 0.0 0.0 0.0 0.0
4035 1 3 0.0 0.0 0.0 0.0
4036 1 3 0.0 0.0 0.0 0.0
4037 1 3 0.0 0.0 0.0 0.0
4038 1 3 0.0 0.0 0.0 0.0
4039 1 3 0.0 0.0 0.0 0.0
4040 1 3 0.0 0.0 0.0 0.0
4041 1 3 0.0 0.0 0.0 0.0
4042 1 2 0.0 0.0 0.0 0.0
4043 1 2 0.0 0.0 0.0 0.0
4044 1 2 0.0 0.0 0.0 0.0
4045 1 2 0.0 0.0 0.0 0.0
4046 1 2 0.0 0.0 0.0 0.0
4047 1 2 0.0 0.0 0.0 0.0
4048 1 2 0.0 0.0 0.0 0.0
4049 1 2 0.0 0.0 0.0 0.0
4050 1 2 0.0 0.0 0.0 0.0
4051 1 2 0.0 0.0 0.0 0.0
4052 1 2 0.0 0.0 0.0 0.0
4053 1 2 0.0 0.0 0.0 0.0
4054 1 2 0.0 0.0 0.0 0.0
4055 1 2 0.0 0.0 0.0 0.0
4056 1 2 0.0 0.0 0.0 0.0
4057 1 2 0.0 0.0 0.0 0.0
4058 1 2 0.0 0.0 0.0 0.0
4059 1 2 0.0 0.0 0.0 0.0
4060 1 2 0.0 0.0 0.0 0.0
4061 1 2 0.0 0.0 0.0 0.0
4062 1 2 0.0 0.0 0.0 0.0
4063 1 2 0.0 0.0 0.0 0.0
4064 1 2 0.0 0.0 0.0 0.0
4065 1 2 0.0 0.0 0.0 0.0
4066 1 2 0.0 0.0 0.0 0.0
4067 1 2 0.0 0.0 0.0 0.0
4068 1 2 0.0 0.0 0.0 0.0
4069 1 2 0.0 0.0 0.0 0.0
4070 1 2 0.0 0.0 0.0 0.0
4071 1 2 0.0 0.0 0.0 0.0
4072 1 2 0.0 0.0 0.0 0.0
4073 1 2 0.0 0.0 0.0 0.0
4074 1 2 0.0 0.0 0.0 0.0
4075 1 2 0.0 0.0 0.0 0.0
4076 1 2 0.0 0.0 0.0 0.0
4077 1 2 0.0 0.0 0.0 0.0
4078 1 2 0.0 0.0 0.0 0.0
4079 1 2 0.0 0.0 0.0 0.0
4080 1 2 0.0 0.0 0.0 0.0
4081 1 2 0.0 0.0 0.0 0.0
4082 1 3 0.0 0.0 0.0 0.0
4083 1 3 0.0 0.0 0.0 0.0
4084 1 3 0.0 0.0 0.0 0.0
4085 1 3 0.0 0.0 0.0 0.0
4086 1 3 0.0 0.0 0.0 0.0
4087 1 3 0.0 0.0 0.0 0.0
4088 1 3 0.0 0.0 0.0 0.0
4089 1 3 0.0 0.0 0.0 0.0
4090 1 3 0.0 0.0 0.0 0.0
4091 1 3 0.0 0.0 0.0 0.0
4092 1 3 0.0 0.0 0.0 0.0
4093 1 3 0.0 0.0 0.0 0.0
4094 1 3 0.0 0.0 0.0 0.0
4095 1 3 0.0 0.0 0.0 0.0
4096 1 3 0.0 0.0 0.0 0.0
4097 1 3 0.0 0.0 0.0 0.0
4098 1 3 0.0 0.0 0.0 0.0
4099 1 3 0.0 0.0 0.0 0.0
4100 1 3 0.0 0.0 0.0 0.0
4101 1 3 0.0 0.0 0.0 0.0
4102 1 2 0.0 0.0 0.0 0.0
4103 1 2 0.0 0.0 0.0 0.0
4104 1 2 0.0 0.0 0.0 0.0
4105 1 2 0.0 0.0 0.0 0.0
4106 1 2 0.0 0.0 0.0 0.0
4107 1 2 0.0 0.0 0.0 0.0
4108 1 2 0.0 0.0 0.0 0.0
4109 1 2 0.0 0.0 0.0 0.0
4110 1 2 0.0 0.0 0.0 0.0
4111 1 2 0.0 0.0 0.0 0.0
4112 1 2 0.0 0.0 0.0 0.0
4113 1 2 0.0 0.0 0.0 0.0
4114 1 2 0.0 0.0 0.0 0.0
4115 1 2 0.0 0.0 0.0 0.0
4116 1 2 0.0 0.0 0.0 0.0
4117 1 2 0.0 0.0 0.0 0.0
4118 1 2 0.0 0.0 0.0 0.0
4119 1 2 0.0 0.0 0.0 0.0
4120 1 2 0.0 0.0 0.0 0.0
4121 1 2 0.0 0.0 0.0 0.0
4122 1 3 0.0 0.0 0.0 0.0
4123 1 3 0.0 0.0 0.0 0.0
4124 1 3 0.0 0.0 0.0 0.0
4125 1 3 0.0 0.0 0.0 0.0
4126 1 3 0.0 0.0 0.0 0.0
4127 1 2 0.0 0.0 0.0 0.0
4128 1 2 0.0 0.0 0.0 0.0
4129 1 2 0.0 0.0 0.0 0.0
4130 1 2 0.0 0.0 0.0 0.0
4131 1 2 0.0 0.0 0.0 0.0
4132 1 2 0.0 0.0 0.0 0.0
4133 1 2 0.0 0.0 0.0 0.0
4134 1 2 0.0 0.0 0.0 0.0
4135 1 2 0.0 0.0 0.0 0.0
4136 1 2 0.0 0.0 0.0 0.0
4137 1 2 0.0 0.0 0.0 0.0
4138 1 2 0.0 0.0 0.0 0.0
4139 1 2 0.0 0.0 0.0 0.0
4140 1 2 0.0 0.0 0.0 0.0
4141 1 2 0.0 0.0 0.0 0.0
4142 1 2 0.0 0.0 0.0 0.0
4143 1 2 0.0 0.0 0.0 0.0
4144 1 2 0.0 0.0 0.0 0.0
4145 1 2 0.0 0.0 0.0 0.0
4146 1 2 0.0 0.0 0.0 0.0
4147 1 2 0.0 0.0 0.0 0.0
4148 1 2 0.0 0.0 0.0 0.0
4149 1 2 0.0 0.0 0.0 0.0
4150 1 2 0.0 0.0 0.0 0.0
4151 1 2 0.0 0.0 0.0 0.0
4152 1 2 0.0 0.0 0.0 0.0
4153 1 2 0.0 0.0 0.0 0.0
4154 1 2 0.0 0.0 0.0 0.0
4155 1 2 0.0 0.0 0.0 0.0
4156 1 2 0.0 0.0 0.0 0.0
4157 1 2 0.0 0.0 0.0 0.0
4158 1 2 0.0 0.0 0.0 0.0
4159 1 2 0.0 0.0 0.0 0.0
4160 1 2 0.0 0.0 0.0 0.0
4161 1 2 0.0 0.0 0.0 0.0
4162 1 2 0.0 0.0 0.0 0.0
4163 1 2 0.0 0.0 0.0 0.0
4164 1 2 0.0 0.0 0.0 0.0
4165 1 2 0.0 0.0 0.0 0.0
4166 1 2 0.0 0.0 0.0 0.0
4167 1 3 0.0 0.0 0.0 0.0
4168 1 3 0.0 0.0 0.0 0.0
4169 1 3 0.0 0.0 0.0 0.0
4170 1 3 0.0 0.0 0.0 0.0
4171 1 3 0.0 0.0 0.0 0.0
4172 1 2 0.0 0.0 0.0 0.0
4173 1 2 0.0 0.0 0.0 0.0
4174 1 2 0.0 0.0 0.0 0.0
4175 1 2 0.0 0.0 0.0 0.0
4176 1 2 0.0 0.0 0.0 0.0
4177 1 2 0.0 0.0 0.0 0.0
4178 1 2 0.0 0.0 0.0 0.0
4179 1 2 0.0 0.0 0.0 0.0
4180 1 2 0.0 0.0 0.0 0.0
4181 1 2 0.0 0.0 0.0 0.0
4182 1 2 0.0 0.0 0.0 0.0
4183 1 2 0.0 0.0 0.0 0.0
4184 1 2 0.0 0.0 0.0 0.0
4185 1 2 0.0 0.0 0.0 0.0
4186 1 2 0.0 0.0 0.0 0.0
4187 1 2 0.0 0.0 0.0 0.0
4188 1 2 0.0 0.0 0.0 0.0
4189 1 2 0.0 0.0 0.0 0.0
4190 1 2 0.0 0.0 0.0 0.0
4191 1 2 0.0 0.0 0.0 0.0
4192 1 3 0.0 0.0 0.0 0.0
4193 1 3 0.0 0.0 0.0 0.0
4194 1 3 0.0 0.0 0.0 0.0
4195 1 3 0.0 0.0 0.0 0.0
4196 1 3 0.0 0.0 0.0 0.0
4197 1 2 0.0 0.0 0.0 0.0
4198 1 2 0.0 0.0 0.0 0.0
4199 1 2 0.0 0.0 0.0 0.0
4200 1 2 0.0 0.0 0.0 0.0
4201 1 2 0.0 0.0 0.0 0.0
4202 1 2 0.0 0.0 0.0 0.0
4203 1 2 0.0 0.0 0.0 0.0
4204 1 2 0.0 0.0 0.0 0.0
4205 1 2 0.0 0.0 0.0 0.0
4206 1 2 0.0 0.0 0.0 0.0
4207 1 2 0.0 0.0 0.0 0.0
4208 1 2 0.0 0.0 0.0 0.0
4209 1 2 0.0 0.0 0.0 0.0
4210 1 2 0.0 0.0 0.0 0.0
4211 1 2 0.0 0.0 0.0 0.0
4212 1 2 0.0 0.0 0.0 0.0
4213 1 2 0.0 0.0 0.0 0.0
4214 1 2 0.0 0.0 0.0 0.0
4215 1 2 0.0 0.0 0.0 0.0
4216 1 2 0.0 0.0 0.0 0.0
4217 1 3 0.0 0.0 0.0 0.0
4218 1 3 0.0 0.0 0.0 0.0
4219 1 3 0.0 0.0 0.0 0.0
4220 1 3 0.0 0.0 0.0 0.0
4221 1 3 0.0 0.0 0.0 0.0
4222 1 2 0.0 0.0 0.0 0.0
4223 1 2 0.0 0.0 0.0 0.0
4224 1 2 0.0 0.0 0.0 0.0
4225 1 2 0.0 0.0 0.0 0.0
4226 1 2 0.0 0.0 0.0 0.0
4227 1 2 0.0 0.0 0.0 0.0
4228 1 2 0.0 0.0 0.0 0.0
4229 1 2 0.0 0.0 0.0 0.0
4230 1 2 0.0 0.0 0.0 0.0
4231 1 2 0.0 0.0 0.0 0.0
4232 1 2 0.0 0.0 0.0 0.0
4233 1 2 0.0 0.0 0.0 0.0
4234 1 2 0.0 0.0 0.0 0.0
4235 1 2 0.0 0.0 0.0 0.0
4236 1 2 0.0 0.0 0.0 0.0
4237 1 2 0.0 0.0 0.0 0.0
4238 1 2 0.0 0.0 0.0 0.0
4239 1 2 0.0 0.0 0.0 0.0
4240 1 2 0.0 0.0 0.0 0.0
4241 1 2 0.0 0.0 0.0 0.0
4242 1 3 0.0 0.0 0.0 0.0
4243 1 3 0.0 0.0 0.0 0.0
4244 1 3 0.0 0.0 0.0 0.0
4245 1 3 0.0 0.0 0.0 0.0
4246 1 3 0.0 0.0 0.0 0.0
4247 1 3 0.0 0.0 0.0 0.0
4248 1 3 0.0 0.0 0.0 0.0
4249 1 3 0.0 0.0 0.0 0.0
4250 1 3 0.0 0.0 0.0 0.0
4251 1 3 0.0 0.0 0.0 0.0
4252 1 2 0.0 0.0 0.0 0.0
4253 1 2 0.0 0.0 0.0 0.0
4254 1 2 0.0 0.0 0.0 0.0
4255 1 2 0.0 0.0 0.0 0.0
4256 1 2 0.0 0.0 0.0 0.0
4257 1 2 0.0 0.0 0.0 0.0
4258 1 2 0.0 0.0 0.0 0.0
4259 1 2 0.0 0.0 0.0 0.0
4260 1 2 0.0 0.0 0.0 0.0
4261 1 2 0.0 0.0 0.0 0.0
4262 1 2 0.0 0.0 0.0 0.0
4263 1 2 0.0 0.0 0.0 0.0
4264 1 2 0.0 0.0 0.0 0.0
4265 1 2 0.0 0.0 0.0 0.0
4266 1 2 0.0 0.0 0.0 0.0
4267 1 2 0.0 0.0 0.0 0.0
4268 1 2 0.0 0.0 0.0 0.0
4269 1 2 0.0 0.0 0.0 0.0
4270 1 2 0.0 0.0 0.0 0.0
4271 1 2 0.0 0.0 0.0 0.0
4272 1 3 0.0 0.0 0.0 0.0
4273 1 3 0.0 0.0 0.0 0.0
4274 1 3 0.0 0.0 0.0 0.0
4275 1 3 0.0 0.0 0.0 0.0
4276 1 3 0.0 0.0 0.0 0.0
4277 1 3 0.0 0.0 0.0 0.0
4278 1 3 0.0 0.0 0.0 0.0
4279 1 3 0.0 0.0 0.0 0.0
4280 1 3 0.0 0.0 0.0 0.0
4281 1 3 0.0 0.0 0.0 0.0
4282 1 2 0.0 0.0 0.0 0.0
4283 1 2 0.0 0.0 0.0 0.0
4284 1 2 0.0 0.0 0.0 0.0
4285 1 2 0.0 0.0 0.0 0.0
4286 1 2 0.0 0.0 0.0 0.0
4287 1 2 0.0 0.0 0.0 0.0
4288 1 2 0.0 0.0 0.0 0.0
4289 1 2 0.0 0.0 0.0 0.0
4290 1 2 0.0 0.0 0.0 0.0
4291 1 2 0.0 0.0 0.0 0.0
4292 1 2 0.0 0.0 0.0 0.0
4293 1 2 0.0 0.0 0.0 0.0
4294 1 2 0.0 0.0 0.0 0.0
4295 1 2 0.0 0.0 0.0 0.0
4296 1 2 0.0 0.0 0.0 0.0
4297 1 2 0.0 0.0 0.0 0.0
4298 1 2 0.0 0.0 0.0 0.0
4299 1 2 0.0 0.0 0.0 0.0
4300 1 2 0.0 0.0 0.0 0.0
4301 1 2 0.0 0.0 0.0 0.0
4302 1 2 0.0 0.0 0.0 0.0
4303 1 2 0.0 0.0 0.0 0.0
4304 1 2 0.0 0.0 0.0 0.0
4305 1 2 0.0 0.0 0.0 0.0
4306 1 2 0.0 0.0 0.0 0.0
4307 1 2 0.0 0.0 0.0 0.0
4308 1 2 0.0 0.0 0.0 0.0
4309 1 2 0.0 0.0 0.0 0.0
4310 1 2 0.0 0.0 0.0 0.0
4311 1 2 0.0 0.0 0.0 0.0
4312 1 2 0.0 0.0 0.0 0.0
4313 1 2 0.0 0.0 0.0 0.0
4314 1 2 0.0 0.0 0.0 0.0
4315 1 2 0.0 0.0 0.0 0.0
4316 1 2 0.0 0.0 0.0 0.0
4317 1 2 0.0 0.0 0.0 0.0
4318 1 2 0.0 0.0 0.0 0.0
4319 1 2 0.0 0.0 0.0 0.0
4320 1 2 0.0 0.0 0.0 0.0
4321 1 2 0.0 0.0 0.0 0.0
4322 1 2 0.0 0.0 0.0 0.0
4323 1 2 0.0 0.0 0.0 0.0
4324 1 2 0.0 0.0 0.0 0.0
4325 1 2 0.0 0.0 0.0 0.0
4326 1 2 0.0 0.0 0.0 0.0
4327 1 2 0.0 0.0 0.0 0.0
4328 1 2 0.0 0.0 0.0 0.0
4329 1 2 0.0 0.0 0.0 0.0
4330 1 2 0.0 0.0 0.0 0.0
4331 1 2 0.0 0.0 0.0 0.0
4332 1 2 0.0 0.0 0.0 0.0
4333 1 2 0.0 0.0 0.0 0.0
4334 1 2 0.0 0.0 0.0 0.0
4335 1 2 0.0 0.0 0.0 0.0
4336 1 2 0.0 0.0 0.0 0.0
4337 1 2 0.0 0.0 0.0 0.0
4338 1 2 0.0 0.0 0.0 0.0
4339 1 2 0.0 0.0 0.0 0.0
4340 1 2 0.0 0.0 0.0 0.0
4341 1 2 0.0 0.0 0.0 0.0
4342 1 2 0.0 0.0 0.0 0.0
4343 1 2 0.0 0.0 0.0 0.0
4344 1 2 0.0 0.0 0.0 0.0
4345 1 2 0.0 0.0 0.0 0.0
4346 1 2 0.0 0.0 0.0 0.0
4347 1 2 0.0 0.0 0.0 0.0
4348 1 2 0.0 0.0 0.0 0.0
4349 1 2 0.0 0.0 0.0 0.0
4350 1 2 0.0 0.0 0.0 0.0
4351 1 2 0.0 0.0 0.0 0.0
4352 1 2 0.0 0.0 0.0 0.0
4353 1 2 0.0 0.0 0.0 0.0
4354 1 2 0.0 0.0 0.0 0.0
4355 1 2 0.0 0.0 0.0 0.0
4356 1 2 0.0 0.0 0.0 0.0
4357 1 2 0.0 0.0 0.0 0.0
4358 1 2 0.0 0.0 0.0 0.0
4359 1 2 0.0 0.0 0.0 0.0
4360 1 2 0.0 0.0 0.0 0.0
4361 1 2 0.0 0.0 0.0 0.0
4362 1 3 0.0 0.0 0.0 0.0
4363 1 3 0.0 0.0 0.0 0.0
4364 1 3 0.0 0.0 0.0 0.0
4365 1 3 0.0 0.0 0.0 0.0
4366 1 3 0.0 0.0 0.0 0.0
4367 1 3 0.0 0.0 0.0 0.0
4368 1 3 0.0 0.0 0.0 0.0
4369 1 3 0.0 0.0 0.0 0.0
4370 1 3 0.0 0.0 0.0 0.0
4371 1 3 0.0 0.0 0.0 0.0
4372 1 2 0.0 0.0 0.0 0.0
4373 1 2 0.0 0.0 0.0 0.0
4374 1 2 0.0 0.0 0.0 0.0
4375 1 2 0.0 0.0 0.0 0.0
4376 1 2 0.0 0.0 0.0 0.0
4377 1 2 0.0 0.0 0.0 0.0
4378 1 2 0.0 0.0 0.0 0.0
4379 1 2 0.0 0.0 0.0 0.0
4380 1 2 0.0 0.0 0.0 0.0
4381 1 2 0.0 0.0 0.0 0.0
4382 1 2 0.0 0.0 0.0 0.0
4383 1 2 0.0 0.0 0.0 0.0
4384 1 2 0.0 0.0 0.0 0.0
4385 1 2 0.0 0.0 0.0 0.0
4386 1 2 0.0 0.0 0.0 0.0
4387 1 2 0.0 0.0 0.0 0.0
4388 1 2 0.0 0.0 0.0 0.0
4389 1 2 0.0 0.0 0.0 0.0
4390 1 2 0.0 0.0 0.0 0.0
4391 1 2 0.0 0.0 0.0 0.0
4392 1 3 0.0 0.0 0.0 0.0
4393 1 3 0.0 0.0 0.0 0.0
4394 1 3 0.0 0.0 0.0 0.0
4395 1 3 0.0 0.0 0.0 0.0
4396 1 3 0.0 0.0 0.0 0.0
4397 1 3 0.0 0.0 0.0 0.0
4398 1 3 0.0 0.0 0.0 0.0
4399 1 3 0.0 0.0 0.0 0.0
4400 1 3 0.0 0.0 0.0 0.0
4401 1 3 0.0 0.0 0.0 0.0
4402 1 3 0.0 0.0 0.0 0.0
4403 1 3 0.0 0.0 0.0 0.0
4404 1 3 0.0 0.0 0.0 0.0
4405 1 3 0.0 0.0 0.0 0.0
4406 1 3 0.0 0.0 0.0 0.0
4407 1 2 0.0 0.0 0.0 0.0
4408 1 2 0.0 0.0 0.0 0.0
4409 1 2 0.0 0.0 0.0 0.0
4410 1 2 0.0 0.0 0.0 0.0
4411 1 2 0.0 0.0 0.0 0.0
4412 1 2 0.0 0.0 0.0 0.0
4413 1 2 0.0 0.0 0.0 0.0
4414 1 2 0.0 0.0 0.0 0.0
4415 1 2 0.0 0.0 0.0 0.0
4416 1 2 0.0 0.0 0.0 0.0
4417 1 2 0.0 0.0 0.0 0.0
4418 1 2 0.0 0.0 0.0 0.0
4419 1 2 0.0 0.0 0.0 0.0
4420 1 2 0.0 0.0 0.0 0.0
4421 1 2 0.0 0.0 0.0 0.0
4422 1 2 0.0 0.0 0.0 0.0
4423 1 2 0.0 0.0 0.0 0.0
4424 1 2 0.0 0.0 0.0 0.0
4425 1 2 0.0 0.0 0.0 0.0
4426 1 2 0.0 0.0 0.0 0.0
4427 1 2 0.0 0.0 0.0 0.0
4428 1 2 0.0 0.0 0.0 0.0
4429 1 2 0.0 0.0 0.0 0.0
4430 1 2 0.0 0.0 0.0 0.0
4431 1 2 0.0 0.0 0.0 0.0
4432 1 2 0.0 0.0 0.0 0.0
4433 1 2 0.0 0.0 0.0 0.0
4434 1 2 0.0 0.0 0.0 0.0
4435 1 2 0.0 0.0 0.0 0.0
4436 1 2 0.0 0.0 0.0 0.0
4437 1 2 0.0 0.0 0.0 0.0
4438 1 2 0.0 0.0 0.0 0.0
4439 1 2 0.0 0.0 0.0 0.0
4440 1 2 0.0 0.0 0.0 0.0
4441 1 2 0.0 0.0 0.0 0.0
4442 1 2 0.0 0.0 0.0 0.0
4443 1 2 0.0 0.0 0.0 0.0
4444 1 2 0.0 0.0 0.0 0.0
4445 1 2 0.0 0.0 0.0 0.0
4446 1 2 0.0 0.0 0.0 0.0
4447 1 3 0.0 0.0 0.0 0.0
4448 1 3 0.0 0.0 0.0 0.0
4449 1 3 0.0 0.0 0.0 0.0
4450 1 3 0.0 0.0 0.0 0.0
4451 1 3 0.0 0.0 0.0 0.0
4452 1 3 0.0 0.0 0.0 0.0
4453 1 3 0.0 0.0 0.0 0.0
4454 1 3 0.0 0.0 0.0 0.0
4455 1 3 0.0 0.0 0.0 0.0
4456 1 3 0.0 0.0 0.0 0.0
4457 1 3 0.0 0.0 0.0 0.0
4458 1 3 0.0 0.0 0.0 0.0
4459 1 3 0.0 0.0 0.0 0.0
4460 1 3 0.0 0.0 0.0 0.0
4461 1 3 0.0 0.0 0.0 0.0
4462 1 2 0.0 0.0 0.0 0.0
4463 1 2 0.0 0.0 0.0 0.0
4464 1 2 0.0 0.0 0.0 0.0
4465 1 2 0.0 0.0 0.0 0.0
4466 1 2 0.0 0.0 0.0 0.0
4467 1 2 0.0 0.0 0.0 0.0
4468 1 2 0.0 0.0 0.0 0.0
4469 1 2 0.0 0.0 0.0 0.0
4470 1 2 0.0 0.0 0.0 0.0
4471 1 2 0.0 0.0 0.0 0.0
4472 1 2 0.0 0.0 0.0 0.0
4473 1 2 0.0 0.0 0.0 0.0
4474 1 2 0.0 0.0 0.0 0.0
4475 1 2 0.0 0.0 0.0 0.0
4476 1 2 0.0 0.0 0.0 0.0
4477 1 2 0.0 0.0 0.0 0.0
4478 1 2 0.0 0.0 0.0 0.0
4479 1 2 0.0 0.0 0.0 0.0
4480 1 2 0.0 0.0 0.0 0.0
4481 1 2 0.0 0.0 0.0 0.0
4482 1 3 0.0 0.0 0.0 0.0
4483 1 3 0.0 0.0 0.0 0.0
4484 1 3 0.0 0.0 0.0 0.0
4485 1 3 0.0 0.0 0.0 0.0
4486 1 3 0.0 0.0 0.0 0.0
4487 1 3 0.0 0.0 0.0 0.0
4488 1 3 0.0 0.0 0.0 0.0
4489 1 3 0.0 0.0 0.0 0.0
4490 1 3 0.0 0.0 0.0 0.0
4491 1 3 0.0 0.0 0.0 0.0
4492 1 3 0.0 0.0 0.0 0.0
4493 1 3 0.0 0.0 0.0 0.0
4494 1 3 0.0 0.0 0.0 0.0
4495 1 3 0.0 0.0 0.0 0.0
4496 1 3 0.0 0.0 0.0 0.0
4497 1 3 0.0 0.0 0.0 0.0
4498 1 3 0.0 0.0 0.0 0.0
4499 1 3 0.0 0.0 0.0 0.0
4500 1 3 0.0 0.0 0.0 0.0
4501 1 3 0.0 0.0 0.0 0.0
4502 1 2 0.0 0.0 0.0 0.0
4503 1 2 0.0 0.0 0.0 0.0
4504 1 2 0.0 0.0 0.0 0.0
4505 1 2 0.0 0.0 0.0 0.0
4506 1 2 0.0 0.0 0.0 0.0
4507 1 2 0.0 0.0 0.0 0.0
4508 1 2 0.0 0.0 0.0 0.0
4509 1 2 0.0 0.0 0.0 0.0
4510 1 2 0.0 0.0 0.0 0.0
4511 1 2 0.0 0.0 0.0 0.0
4512 1 2 0.0 0.0 0.0 0.0
4513 1 2 0.0 0.0 0.0 0.0
4514 1 2 0.0 0.0 0.0 0.0
4515 1 2 0.0 0.0 0.0 0.0
4516 1 2 0.0 0.0 0.0 0.0
4517 1 2 0.0 0.0 0.0 0.0
4518 1 2 0.0 0.0 0.0 0.0
4519 1 2 0.0 0.0 0.0 0.0
4520 1 2 0.0 0.0 0.0 0.0
4521 1 2 0.0 0.0 0.0 0.0
4522 1 2 0.0 0.0 0.0 0.0
4523 1 2 0.0 0.0 0.0 0.0
4524 1 2 0.0 0.0 0.0 0.0
4525 1 2 0.0 0.0 0.0 0.0
4526 1 2 0.0 0.0 0.0 0.0
4527 1 2 0.0 0.0 0.0 0.0
4528 1 2 0.0 0.0 0.0 0.0
4529 1 2 0.0 0.0 0.0 0.0
4530 1 2 0.0 0.0 0.0 0.0
4531 1 2 0.0 0.0 0.0 0.0
4532 1 2 0.0 0.0 0.0 0.0
4533 1 2 0.0 0.0 0.0 0.0
4534 1 2 0.0 0.0 0.0 0.0
4535 1 2 0.0 0.0 0.0 0.0
4536 1 2 0.0 0.0 0.0 0.0
4537 1 2 0.0 0.0 0.0 0.0
4538 1 2 0.0 0.0 0.0 0.0
4539 1 2 0.0 0.0 0.0 0.0
4540 1 2 0.0 0.0 0.0 0.0
4541 1 2 0.0 0.0 0.0 0.0
4542 1 3 0.0 0.0 0.0 0.0
4543 1 3 0.0 0.0 0.0 0.0
4544 1 3 0.0 0.0 0.0 0.0
4545 1 3 0.0 0.0 0.0 0.0
4546 1 3 0.0 0.0 0.0 0.0
4547 1 3 0.0 0.0 0.0 0.0
4548 1 3 0.0 0.0 0.0 0.0
4549 1 3 0.0 0.0 0.0 0.0
4550 1 3 0.0 0.0 0.0 0.0
4551 1 3 0.0 0.0 0.0 0.0
4552 1 2 0.0 0.0 0.0 0.0
4553 1 2 0.0 0.0 0.0 0.0
4554 1 2 0.0 0.0 0.0 0.0
4555 1 2 0.0 0.0 0.0 0.0
4556 1 2 0.0 0.0 0.0 0.0
4557 1 2 0.0 0.0 0.0 0.0
4558 1 2 0.0 0.0 0.0 0.0
4559 1 2 0.0 0.0 0.0 0.0
4560 1 2 0.0 0.0 0.0 0.0
4561 1 2 0.0 0.0 0.0 0.0
4562 1 2 0.0 0.0 0.0 0.0
4563 1 2 0.0 0.0 0.0 0.0
4564 1 2 0.0 0.0 0.0 0.0
4565 1 2 0.0 0.0 0.0 0.0
4566 1 2 0.0 0.0 0.0 0.0
4567 1 2 0.0 0.0 0.0 0.0
4568 1 2 0.0 0.0 0.0 0.0
4569 1 2 0.0 0.0 0.0 0.0
4570 1 2 0.0 0.0 0.0 0.0
4571 1 2 0.0 0.0 0.0 0.0
4572 1 3 0.0 0.0 0.0 0.0
4573 1 3 0.0 0.0 0.0 0.0
4574 1 3 0.0 0.0 0.0 0.0
4575 1 3 0.0 0.0 0.0 0.0
4576 1 3 0.0 0.0 0.0 0.0
4577 1 3 0.0 0.0 0.0 0.0
4578 1 3 0.0 0.0 0.0 0.0
4579 1 3 0.0 0.0 0.0 0.0
4580 1 3 0.0 0.0 0.0 0.0
4581 1 3 0.0 0.0 0.0 0.0
4582 1 2 0.0 0.0 0.0 0.0
4583 1 2 0.0 0.0 0.0 0.0
4584 1 2 0.0 0.0 0.0 0.0
4585 1 2 0.0 0.0 0.0 0.0
4586 1 2 0.0 0.0 0.0 0.0
4587 1 2 0.0 0.0 0.0 0.0
4588 1 2 0.0 0.0 0.0 0.0
4589 1 2 0.0 0.0 0.0 0.0
4590 1 2 0.0 0.0 0.0 0.0
4591 1 2 0.0 0.0 0.0 0.0
4592 1 2 0.0 0.0 0.0 0.0
4593 1 2 0.0 0.0 0.0 0.0
4594 1 2 0.0 0.0 0.0 0.0
4595 1 2 0.0 0.0 0.0 0.0
4596 1 2 0.0 0.0 0.0 0.0
4597 1 2 0.0 0.0 0.0 0.0
4598 1 2 0.0 0.0 0.0 0.0
4599 1 2 0.0 0.0 0.0 0.0
4600 1 2 0.0 0.0 0.0 0.0
4601 1 2 0.0 0.0 0.0 0.0
4602 1 3 0.0 0.0 0.0 0.0
4603 1 3 0.0 0.0 0.0 0.0
4604 1 3 0.0 0.0 0.0 0.0
4605 1 3 0.0 0.0 0.0 0.0
4606 1 3 0.0 0.0 0.0 0.0
4607 1 3 0.0 0.0 0.0 0.0
4608 1 3 0.0 0.0 0.0 0.0
4609 1 3 0.0 0.0 0.0 0.0
4610 1 3 0.0 0.0 0.0 0.0
4611 1 3 0.0 0.0 0.0 0.0
4612 1 2 0.0 0.0 0.0 0.0
4613 1 2 0.0 0.0 0.0 0.0
4614 1 2 0.0 0.0 0.0 0.0
4615 1 2 0.0 0.0 0.0 0.0
4616 1 2 0.0 0.0 0.0 0.0
4617 1 2 0.0 0.0 0.0 0.0
4618 1 2 0.0 0.0 0.0 0.0
4619 1 2 0.0 0.0 0.0 0.0
4620 1 2 0.0 0.0 0.0 0.0
4621 1 2 0.0 0.0 0.0 0.0
4622 1 2 0.0 0.0 0.0 0.0
4623 1 2 0.0 0.0 0.0 0.0
4624 1 2 0.0 0.0 0.0 0.0
4625 1 2 0.0 0.0 0.0 0.0
4626 1 2 0.0 0.0 0.0 0.0
4627 1 2 0.0 0.0 0.0 0.0
4628 1 2 0.0 0.0 0.0 0.0
4629 1 2 0.0 0.0 0.0 0.0
4630 1 2 0.0 0.0 0.0 0.0
4631 1 2 0.0 0.0 0.0 0.0
4632 1 3 0.0 0.0 0.0 0.0
4633 1 3 0.0 0.0 0.0 0.0
4634 1 3 0.0 0.0 0.0 0.0
4635 1 3 0.0 0.0 0.0 0.0
4636 1 3 0.0 0.0 0.0 0.0
4637 1 2 0.0 0.0 0.0 0.0
4638 1 2 0.0 0.0 0.0 0.0
4639 1 2 0.0 0.0 0.0 0.0
4640 1 2 0.0 0.0 0.0 0.0
4641 1 2 0.0 0.0 0.0 0.0
4642 1 2 0.0 0.0 0.0 0.0
4643 1 2 0.0 0.0 0.0 0.0
4644 1 2 0.0 0.0 0.0 0.0
4645 1 2 0.0 0.0 0.0 0.0
4646 1 2 0.0 0.0 0.0 0.0
4647 1 2 0.0 0.0 0.0 0.0
4648 1 2 0.0 0.0 0.0 0.0
4649 1 2 0.0 0.0 0.0 0.0
4650 1 2 0.0 0.0 0.0 0.0
4651 1 2 0.0 0.0 0.0 0.0
4652 1 2 0.0 0.0 0.0 0.0
4653 1 2 0.0 0.0 0.0 0.0
4654 1 2 0.0 0.0 0.0 0.0
4655 1 2 0.0 0.0 0.0 0.0
4656 1 2 0.0 0.0 0.0 0.0
4657 1 3 0.0 0.0 0.0 0.0
4658 1 3 0.0 0.0 0.0 0.0
4659 1 3 0.0 0.0 0.0 0.0
4660 1 3 0.0 0.0 0.0 0.0
4661 1 3 0.0 0.0 0.0 0.0
4662 1 2 0.0 0.0 0.0 0.0
4663 1 2 0.0 0.0 0.0 0.0
4664 1 2 0.0 0.0 0.0 0.0
4665 1 2 0.0 0.0 0.0 0.0
4666 1 2 0.0 0.0 0.0 0.0
4667 1 2 0.0 0.0 0.0 0.0
4668 1 2 0.0 0.0 0.0 0.0
4669 1 2 0.0 0.0 0.0 0.0
4670 1 2 0.0 0.0 0.0 0.0
4671 1 2 0.0 0.0 0.0 0.0
4672 1 2 0.0 0.0 0.0 0.0
4673 1 2 0.0 0.0 0.0 0.0
4674 1 2 0.0 0.0 0.0 0.0
4675 1 2 0.0 0.0 0.0 0.0
4676 1 2 0.0 0.0 0.0 0.0
4677 1 2 0.0 0.0 0.0 0.0
4678 1 2 0.0 0.0 0.0 0.0
4679 1 2 0.0 0.0 0.0 0.0
4680 1 2 0.0 0.0 0.0 0.0
4681 1 2 0.0 0.0 0.0 0.0
4682 1 3 0.0 0.0 0.0 0.0
4683 1 3 0.0 0.0 0.0 0.0
4684 1 3 0.0 0.0 0.0 0.0
4685 1 3 0.0 0.0 0.0 0.0
4686 1 3 0.0 0.0 0.0 0.0
4687 1 2 0.0 0.0 0.0 0.0
4688 1 2 0.0 0.0 0.0 0.0
4689 1 2 0.0 0.0 0.0 0.0
4690 1 2 0.0 0.0 0.0 0.0
4691 1 2 0.0 0.0 0.0 0.0
4692 1 2 0.0 0.0 0.0 0.0
4693 1 2 0.0 0.0 0.0 0.0
4694 1 2 0.0 0.0 0.0 0.0
4695 1 2 0.0 0.0 0.0 0.0
4696 1 2 0.0 0.0 0.0 0.0
4697 1 2 0.0 0.0 0.0 0.0
4698 1 2 0.0 0.0 0.0 0.0
4699 1 2 0.0 0.0 0.0 0.0
4700 1 2 0.0 0.0 0.0 0.0
4701 1 2 0.0 0.0 0.0 0.0
4702 1 2 0.0 0.0 0.0 0.0
4703 1 2 0.0 0.0 0.0 0.0
4704 1 2 0.0 0.0 0.0 0.0
4705 1 2 0.0 0.0 0.0 0.0
4706 1 2 0.0 0.0 0.0 0.0
4707 1 3 0.0 0.0 0.0 0.0
4708 1 3 0.0 0.0 0.0 0.0
4709 1 3 0.0 0.0 0.0 0.0
4710 1 3 0.0 0.0 0.0 0.0
4711 1 3 0.0 0.0 0.0 0.0
4712 1 2 0.0 0.0 0.0 0.0
4713 1 2 0.0 0.0 0.0 0.0
4714 1 2 0.0 0.0 0.0 0.0
4715 1 2 0.0 0.0 0.0 0.0
4716 1 2 0.0 0.0 0.0 0.0
4717 1 2 0.0 0.0 0.0 0.0
4718 1 2 0.0 0.0 0.0 0.0
4719 1 2 0.0 0.0 0.0 0.0
4720 1 2 0.0 0.0 0.0 0.0
4721 1 2 0.0 0.0 0.0 0.0
4722 1 2 0.0 0.0 0.0 0.0
4723 1 2 0.0 0.0 0.0 0.0
4724 1 2 0.0 0.0 0.0 0.0
4725 1 2 0.0 0.0 0.0 0.0
4726 1 2 0.0 0.0 0.0 0.0
4727 1 2 0.0 0.0 0.0 0.0
4728 1 2 0.0 0.0 0.0 0.0
4729 1 2 0.0 0.0 0.0 0.0
4730 1 2 0.0 0.0 0.0 0.0
4731 1 2 0.0 0.0 0.0 0.0
4732 1 3 0.0 0.0 0.0 0.0
4733 1 3 0.0 0.0 0.0 0.0
4734 1 3 0.0 0.0 0.0 0.0
4735 1 3 0.0 0.0 0.0 0.0
4736 1 3 0.0 0.0 0.0 0.0
4737 1 3 0.0 0.0 0.0 0.0
4738 1 3 0.0 0.0 0.0 0.0
4739 1 3 0.0 0.0 0.0 0.0
4740 1 3 0.0 0.0 0.0 0.0
4741 1 3 0.0 0.0 0.0 0.0
4742 1 2 0.0 0.0 0.0 0.0
4743 1 2 0.0 0.0 0.0 0.0
4744 1 2 0.0 0.0 0.0 0.0
4745 1 2 0.0 0.0 0.0 0.0
4746 1 2 0.0 0.0 0.0 0.0
4747 1 2 0.0 0.0 0.0 0.0
4748 1 2 0.0 0.0 0.0 0.0
4749 1 2 0.0 0.0 0.0 0.0
4750 1 2 0.0 0.0 0.0 0.0
4751 1 2 0.0 0.0 0.0 0.0
4752 1 2 0.0 0.0 0.0 0.0
4753 1 2 0.0 0.0 0.0 0.0
4754 1 2 0.0 0.0 0.0 0.0
4755 1 2 0.0 0.0 0.0 0.0
4756 1 2 0.0 0.0 0.0 0.0
4757 1 2 0.0 0.0 0.0 0.0
4758 1 2 0.0 0.0 0.0 0.0
4759 1 2 0.0 0.0 0.0 0.0
4760 1 2 0.0 0.0 0.0 0.0
4761 1 2 0.0 0.0 0.0 0.0
4762 1 2 0.0 0.0 0.0 0.0
4763 1 2 0.0 0.0 0.0 0.0
4764 1 2 0.0 0.0 0.0 0.0
4765 1 2 0.0 0.0 0.0 0.0
4766 1 2 0.0 0.0 0.0 0.0
4767 1 2 0.0 0.0 0.0 0.0
4768 1 2 0.0 0.0 0.0 0.0
4769 1 2 0.0 0.0 0.0 0.0
4770 1 2 0.0 0.0 0.0 0.0
4771 1 2 0.0 0.0 0.0 0.0
4772 1 2 0.0 0.0 0.0 0.0
4773 1 2 0.0 0.0 0.0 0.0
4774 1 2 0.0 0.0 0.0 0.0
4775 1 2 0.0 0.0 0.0 0.0
4776 1 2 0.0 0.0 0.0 0.0
4777 1 2 0.0 0.0 0.0 0.0
4778 1 2 0.0 0.0 0.0 0.0
4779 1 2 0.0 0.0 0.0 0.0
4780 1 2 0.0 0.0 0.0 0.0
4781 1 2 0.0 0.0 0.0 0.0
4782 1 3 0.0 0.0 0.0 0.0
4783 1 3 0.0 0.0 0.0 0.0
4784 1 3 0.0 0.0 0.0 0.0
4785 1 3 0.0 0.0 0.0 0.0
4786 1 3 0.0 0.0 0.0 0.0
4787 1 3 0.0 0.0 0.0 0.0
4788 1 3 0.0 0.0 0.0 0.0
4789 1 3 0.0 0.0 0.0 0.0
4790 1 3 0.0 0.0 0.0 0.0
4791 1 3 0.0 0.0 0.0 0.0
4792 1 2 0.0 0.0 0.0 0.0
4793 1 2 0.0 0.0 0.0 0.0
4794 1 2 0.0 0.0 0.0 0.0
4795 1 2 0.0 0.0 0.0 0.0
4796 1 2 0.0 0.0 0.0 0.0
4797 1 2 0.0 0.0 0.0 0.0
4798 1 2 0.0 0.0 0.0 0.0
4799 1 2 0.0 0.0 0.0 0.0
4800 1 2 0.0 0.0 0.0 0.0
4801 1 2 0.0 0.0 0.0 0.0
4802 1 2 0.0 0.0 0.0 0.0
4803 1 2 0.0 0.0 0.0 0.0
4804 1 2 0.0 0.0 0.0 0.0
4805 1 2 0.0 0.0 0.0 0.0
4806 1 2 0.0 0.0 0.0 0.0
4807 1 2 0.0 0.0 0.0 0.0
4808 1 2 0.0 0.0 0.0 0.0
4809 1 2 0.0 0.0 0.0 0.0
4810 1 2 0.0 0.0 0.0 0.0
4811 1 2 0.0 0.0 0.0 0.0
4812 1 3 0.0 0.0 0.0 0.0
4813 1 3 0.0 0.0 0.0 0.0
4814 1 3 0.0 0.0 0.0 0.0
4815 1 3 0.0 0.0 0.0 0.0
4816 1 3 0.0 0.0 0.0 0.0
4817 1 3 0.0 0.0 0.0 0.0
4818 1 3 0.0 0.0 0.0 0.0
4819 1 3 0.0 0.0 0.0 0.0
4820 1 3 0.0 0.0 0.0 0.0
4821 1 3 0.0 0.0 0.0 0.0
4822 1 2 0.0 0.0 0.0 0.0
4823 1 2 0.0 0.0 0.0 0.0
4824 1 2 0.0 0.0 0.0 0.0
4825 1 2 0.0 0.0 0.0 0.0
4826 1 2 0.0 0.0 0.0 0.0
4827 1 2 0.0 0.0 0.0 0.0
4828 1 2 0.0 0.0 0.0 0.0
4829 1 2 0.0 0.0 0.0 0.0
4830 1 2 0.0 0.0 0.0 0.0
4831 1 2 0.0 0.0 0.0 0.0
4832 1 2 0.0 0.0 0.0 0.0
4833 1 2 0.0 0.0 0.0 0.0
4834 1 2 0.0 0.0 0.0 0.0
4835 1 2 0.0 0.0 0.0 0.0
4836 1 2 0.0 0.0 0.0 0.0
4837 1 2 0.0 0.0 0.0 0.0
4838 1 2 0.0 0.0 0.0 0.0
4839 1 2 0.0 0.0 0.0 0.0
4840 1 2 0.0 0.0 0.0 0.0
4841 1 2 0.0 0.0 0.0 0.0
4842 1 2 0.0 0.0 0.0 0.0
4843 1 2 0.0 0.0 0.0 0.0
4844 1 2 0.0 0.0 0.0 0.0
4845 1 2 0.0 0.0 0.0 0.0
4846 1 2 0.0 0.0 0.0 0.0
4847 1 2 0.0 0.0 0.0 0.0
4848 1 2 0.0 0.0 0.0 0.0
4849 1 2 0.0 0.0 0.0 0.0
4850 1 2 0.0 0.0 0.0 0.0
4851 1 2 0.0 0.0 0.0 0.0
4852 1 2 0.0 0.0 0.0 0.0
4853 1 2 0.0 0.0 0.0 0.0
4854 1 2 0.0 0.0 0.0 0.0
4855 1 2 0.0 0.0 0.0 0.0
4856 1 2 0.0 0.0 0.0 0.0
4857 1 2 0.0 0.0 0.0 0.0
4858 1 2 0.0 0.0 0.0 0.0
4859 1 2 0.0 0.0 0.0 0.0
4860 1 2 0.0 0.0 0.0 0.0
4861 1 2 0.0 0.0 0.0 0.0
4862 1 3 0.0 0.0 0.0 0.0
4863 1 3 0.0 0.0 0.0 0.0
4864 1 3 0.0 0.0 0.0 0.0
4865 1 3 0.0 0.0 0.0 0.0
4866 1 3 0.0 0.0 0.0 0.0
4867 1 3 0.0 0.0 0.0 0.0
4868 1 3 0.0 0.0 0.0 0.0
4869 1 3 0.0 0.0 0.0 0.0
4870 1 3 0.0 0.0 0.0 0.0
4871 1 3 0.0 0.0 0.0 0.0
4872 1 2 0.0 0.0 0.0 0.0
4873 1 2 0.0 0.0 0.0 0.0
4874 1 2 0.0 0.0 0.0 0.0
4875 1 2 0.0 0.0 0.0 0.0
4876 1 2 0.0 0.0 0.0 0.0
4877 1 2 0.0 0.0 0.0 0.0
4878 1 2 0.0 0.0 0.0 0.0
4879 1 2 0.0 0.0 0.0 0.0
4880 1 2 0.0 0.0 0.0 0.0
4881 1 2 0.0 0.0 0.0 0.0
4882 1 2 0.0 0.0 0.0 0.0
4883 1 2 0.0 0.0 0.0 0.0
4884 1 2 0.0 0.0 0.0 0.0
4885 1 2 0.0 0.0 0.0 0.0
4886 1 2 0.0 0.0 0.0 0.0
4887 1 2 0.0 0.0 0.0 0.0
4888 1 2 0.0 0.0 0.0 0.0
4889 1 2 0.0 0.0 0.0 0.0
4890 1 2 0.0 0.0 0.0 0.0
4891 1 2 0.0 0.0 0.0 0.0
4892 1 3 0.0 0.0 0.0 0.0
4893 1 3 0.0 0.0 0.0 0.0
4894 1 3 0.0 0.0 0.0 0.0
4895 1 3 0.0 0.0 0.0 0.0
4896 1 3 0.0 0.0 0.0 0.0
4897 1 3 0.0 0.0 0.0 0.0
4898 1 3 0.0 0.0 0.0 0.0
4899 1 3 0.0 0.0 0.0 0.0
4900 1 3 0.0 0.0 0.0 0.0
4901 1 3 0.0 0.0 0.0 0.0
4902 1 3 0.0 0.0 0.0 0.0
4903 1 3 0.0 0.0 0.0 0.0
4904 1 3 0.0 0.0 0.0 0.0
4905 1 3 0.0 0.0 0.0 0.0
4906 1 3 0.0 0.0 0.0 0.0
4907 1 2 0.0 0.0 0.0 0.0
4908 1 2 0.0 0.0 0.0 0.0
4909 1 2 0.0 0.0 0.0 0.0
4910 1 2 0.0 0.0 0.0 0.0
4911 1 2 0.0 0.0 0.0 0.0
4912 1 2 0.0 0.0 0.0 0.0
4913 1 2 0.0 0.0 0.0 0.0
4914 1 2 0.0 0.0 0.0 0.0
4915 1 2 0.0 0.0 0.0 0.0
4916 1 2 0.0 0.0 0.0 0.0
4917 1 2 0.0 0.0 0.0 0.0
4918 1 2 0.0 0.0 0.0 0.0
4919 1 2 0.0 0.0 0.0 0.0
4920 1 2 0.0 0.0 0.0 0.0
4921 1 2 0.0 0.0 0.0 0.0
4922 1 2 0.0 0.0 0.0 0.0
4923 1 2 0.0 0.0 0.0 0.0
4924 1 2 0.0 0.0 0.0 0.0
4925 1 2 0.0 0.0 0.0 0.0
4926 1 2 0.0 0.0 0.0 0.0
4927 1 2 0.0 0.0 0.0 0.0
4928 1 2 0.0 0.0 0.0 0.0
4929 1 2 0.0 0.0 0.0 0.0
4930 1 2 0.0 0.0 0.0 0.0
4931 1 2 0.0 0.0 0.0 0.0
4932 1 2 0.0 0.0 0.0 0.0
4933 1 2 0.0 0.0 0.0 0.0
4934 1 2 0.0 0.0 0.0 0.0
4935 1 2 0.0 0.0 0.0 0.0
4936 1 2 0.0 0.0 0.0 0.0
4937 1 2 0.0 0.0 0.0 0.0
4938 1 2 0.0 0.0 0.0 0.0
4939 1 2 0.0 0.0 0.0 0.0
4940 1 2 0.0 0.0 0.0 0.0
4941 1 2 0.0 0.0 0.0 0.0
4942 1 2 0.0 0.0 0.0 0.0
4943 1 2 0.0 0.0 0.0 0.0
4944 1 2 0.0 0.0 0.0 0.0
4945 1 2 0.0 0.0 0.0 0.0
4946 1 2 0.0 0.0 0.0 0.0
4947 1 2 0.0 0.0 0.0 0.0
4948 1 2 0.0 0.0 0.0 0.0
4949 1 2 0.0 0.0 0.0 0.0
4950 1 2 0.0 0.0 0.0 0.0
4951 1 2 0.0 0.0 0.0 0.0
4952 1 2 0.0 0.0 0.0 0.0
4953 1 2 0.0 0.0 0.0 0.0
4954 1 2 0.0 0.0 0.0 0.0
4955 1 2 0.0 0.0 0.0 0.0
4956 1 2 0.0 0.0 0.0 0.0
4957 1 2 0.0 0.0 0.0 0.0
4958 1 2 0.0 0.0 0.0 0.0
4959 1 2 0.0 0.0 0.0 0.0
4960 1 2 0.0 0.0 0.0 0.0
4961 1 2 0.0 0.0 0.0 0.0
4962 1 2 0.0 0.0 0.0 0.0
4963 1 2 0.0 0.0 0.0 0.0
4964 1 2 0.0 0.0 0.0 0.0
4965 1 2 0.0 0.0 0.0 0.0
4966 1 2 0.0 0.0 0.0 0.0
4967 1 3 0.0 0.0 0.0 0.0
4968 1 3 0.0 0.0 0.0 0.0
4969 1 3 0.0 0.0 0.0 0.0
4970 1 3 0.0 0.0 0.0 0.0
4971 1 3 0.0 0.0 0.0 0.0
4972 1 2 0.0 0.0 0.0 0.0
4973 1 2 0.0 0.0 0.0 0.0
4974 1 2 0.0 0.0 0.0 0.0
4975 1 2 0.0 0.0 0.0 0.0
4976 1 2 0.0 0.0 0.0 0.0
4977 1 2 0.0 0.0 0.0 0.0
4978 1 2 0.0 0.0 0.0 0.0
4979 1 2 0.0 0.0 0.0 0.0
4980 1 2 0.0 0.0 0.0 0.0
4981 1 2 0.0 0.0 0.0 0.0
4982 1 2 0.0 0.0 0.0 0.0
4983 1 2 0.0 0.0 0.0 0.0
4984 1 2 0.0 0.0 0.0 0.0
4985 1 2 0.0 0.0 0.0 0.0
4986 1 2 0.0 0.0 0.0 0.0
4987 1 2 0.0 0.0 0.0 0.0
4988 1 2 0.0 0.0 0.0 0.0
4989 1 2 0.0 0.0 0.0 0.0
4990 1 2 0.0 0.0 0.0 0.0
4991 1 2 0.0 0.0 0.0 0.0
4992 1 2 0.0 0.0 0.0 0.0
4993 1 2 0.0 0.0 0.0 0.0
4994 1 2 0.0 0.0 0.0 0.0
4995 1 2 0.0 0.0 0.0 0.0
4996 1 2 0.0 0.0 0.0 0.0
4997 1 2 0.0 0.0 0.0 0.0
4998 1 2 0.0 0.0 0.0 0.0
4999 1 2 0.0 0.0 0.0 0.0
5000 1 2 0.0 0.0 0.0 0.0
5001 1 2 0.0 0.0 0.0 0.0
5002 1 2 0.0 0.0 0.0 0.0
5003 1 2 0.0 0.0 0.0 0.0
5004 1 2 0.0 0.0 0.0 0.0
5005 1 2 0.0 0.0 0.0 0.0
5006 1 2 0.0 0.0 0.0 0.0
5007 1 2 0.0 0.0 0.0 0.0
5008 1 2 0.0 0.0 0.0 0.0
5009 1 2 0.0 0.0 0.0 0.0
5010 1 2 0.0 0.0 0.0 0.0
5011 1 2 0.0 0.0 0.0 0.0
5012 1 2 0.0 0.0 0.0 0.0
5013 1 2 0.0 0.0 0.0 0.0
5014 1 2 0.0 0.0 0.0 0.0
5015 1 2 0.0 0.0 0.0 0.0
5016 1 2 0.0 0.0 0.0 0.0
5017 1 2 0.0 0.0 0.0 0.0
5018 1 2 0.0 0.0 0.0 0.0
5019 1 2 0.0 0.0 0.0 0.0
5020 1 2 0.0 0.0 0.0 0.0
5021 1 2 0.0 0.0 0.0 0.0
5022 1 2 0.0 0.0 0.0 0.0
5023 1 2 0.0 0.0 0.0 0.0
5024 1 2 0.0 0.0 0.0 0.0
5025 1 2 0.0 0.0 0.0 0.0
5026 1 2 0.0 0.0 0.0 0.0
5027 1 2 0.0 0.0 0.0 0.0
5028 1 2 0.0 0.0 0.0 0.0
5029 1 2 0.0 0.0 0.0 0.0
5030 1 2 0.0 0.0 0.0 0.0
5031 1 2 0.0 0.0 0.0 0.0
5032 1 2 0.0 0.0 0.0 0.0
5033 1 2 0.0 0.0 0.0 0.0
5034 1 2 0.0 0.0 0.0 0.0
5035 1 2 0.0 0.0 0.0 0.0
5036 1 2 0.0 0.0 0.0 0.0
5037 1 2 0.0 0.0 0.0 0.0
5038 1 2 0.0 0.0 0.0 0.0
5039 1 2 0.0 0.0 0.0 0.0
5040 1 2 0.0 0.0 0.0 0.0
5041 1 2 0.0 0.0 0.0 0.0
5042 1 2 0.0 0.0 0.0 0.0
5043 1 2 0.0 0.0 0.0 0.0
5044 1 2 0.0 0.0 0.0 0.0
5045 1 2 0.0 0.0 0.0 0.0
5046 1 2 0.0 0.0 0.0 0.0
5047 1 2 0.0 0.0 0.0 0.0
5048 1 2 0.0 0.0 0.0 0.0
5049 1 2 0.0 0.0 0.0 0.0
5050 1 2 0.0 0.0 0.0 0.0
5051 1 2 0.0 0.0 0.0 0.0
5052 1 3 0.0 0.0 0.0 0.0
5053 1 3 0.0 0.0 0.0 0.0
5054 1 3 0.0 0.0 0.0 0.0
5055 1 3 0.0 0.0 0.0 0.0
5056 1 3 0.0 0.0 0.0 0.0
5057 1 3 0.0 0.0 0.0 0.0
5058 1 3 0.0 0.0 0.0 0.0
5059 1 3 0.0 0.0 0.0 0.0
5060 1 3 0.0 0.0 0.0 0.0
5061 1 3 0.0 0.0 0.0 0.0
5062 1 2 0.0 0.0 0.0 0.0
5063 1 2 0.0 0.0 0.0 0.0
5064 1 2 0.0 0.0 0.0 0.0
5065 1 2 0.0 0.0 0.0 0.0
5066 1 2 0.0 0.0 0.0 0.0
5067 1 2 0.0 0.0 0.0 0.0
5068 1 2 0.0 0.0 0.0 0.0
5069 1 2 0.0 0.0 0.0 0.0
5070 1 2 0.0 0.0 0.0 0.0
5071 1 2 0.0 0.0 0.0 0.0
5072 1 2 0.0 0.0 0.0 0.0
5073 1 2 0.0 0.0 0.0 0.0
5074 1 2 0.0 0.0 0.0 0.0
5075 1 2 0.0 0.0 0.0 0.0
5076 1 2 0.0 0.0 0.0 0.0
5077 1 2 0.0 0.0 0.0 0.0
5078 1 2 0.0 0.0 0.0 0.0
5079 1 2 0.0 0.0 0.0 0.0
5080 1 2 0.0 0.0 0.0 0.0
5081 1 2 0.0 0.0 0.0 0.0
5082 1 3 0.0 0.0 0.0 0.0
5083 1 3 0.0 0.0 0.0 0.0
5084 1 3 0.0 0.0 0.0 0.0
5085 1 3 0.0 0.0 0.0 0.0
5086 1 3 0.0 0.0 0.0 0.0
5087 1 3 0.0 0.0 0.0 0.0
5088 1 3 0.0 0.0 0.0 0.0
5089 1 3 0.0 0.0 0.0 0.0
5090 1 3 0.0 0.0 0.0 0.0
5091 1 3 0.0 0.0 0.0 0.0
5092 1 3 0.0 0.0 0.0 0.0
5093 1 3 0.0 0.0 0.0 0.0
5094 1 3 0.0 0.0 0.0 0.0
5095 1 3 0.0 0.0 0.0 0.0
5096 1 3 0.0 0.0 0.0 0.0
5097 1 2 0.0 0.0 0.0 0.0
5098 1 2 0.0 0.0 0.0 0.0
5099 1 2 0.0 0.0 0.0 0.0
5100 1 2 0.0 0.0 0.0 0.0
5101 1 2 0.0 0.0 0.0 0.0
5102 1 2 0.0 0.0 0.0 0.0
5103 1 2 0.0 0.0 0.0 0.0
5104 1 2 0.0 0.0 0.0 0.0
5105 1 2 0.0 0.0 0.0 0.0
5106 1 2 0.0 0.0 0.0 0.0
5107 1 2 0.0 0.0 0.0 0.0
5108 1 2 0.0 0.0 0.0 0.0
5109 1 2 0.0 0.0 0.0 0.0
5110 1 2 0.0 0.0 0.0 0.0
5111 1 2 0.0 0.0 0.0 0.0
5112 1 2 0.0 0.0 0.0 0.0
5113 1 2 0.0 0.0 0.0 0.0
5114 1 2 0.0 0.0 0.0 0.0
5115 1 2 0.0 0.0 0.0 0.0
5116 1 2 0.0 0.0 0.0 0.0
5117 1 3 0.0 0.0 0.0 0.0
5118 1 3 0.0 0.0 0.0 0.0
5119 1 3 0.0 0.0 0.0 0.0
5120 1 3 0.0 0.0 0.0 0.0
5121 1 3 0.0 0.0 0.0 0.0
5122 1 2 0.0 0.0 0.0 0.0
5123 1 2 0.0 0.0 0.0 0.0
5124 1 2 0.0 0.0 0.0 0.0
5125 1 2 0.0 0.0 0.0 0.0
5126 1 2 0.0 0.0 0.0 0.0
5127 1 2 0.0 0.0 0.0 0.0
5128 1 2 0.0 0.0 0.0 0.0
5129 1 2 0.0 0.0 0.0 0.0
5130 1 2 0.0 0.0 0.0 0.0
5131 1 2 0.0 0.0 0.0 0.0
5132 1 2 0.0 0.0 0.0 0.0
5133 1 2 0.0 0.0 0.0 0.0
5134 1 2 0.0 0.0 0.0 0.0
5135 1 2 0.0 0.0 0.0 0.0
5136 1 2 0.0 0.0 0.0 0.0
5137 1 2 0.0 0.0 0.0 0.0
5138 1 2 0.0 0.0 0.0 0.0
5139 1 2 0.0 0.0 0.0 0.0
5140 1 2 0.0 0.0 0.0 0.0
5141 1 2 0.0 0.0 0.0 0.0
5142 1 3 0.0 0.0 0.0 0.0
5143 1 3 0.0 0.0 0.0 0.0
5144 1 3 0.0 0.0 0.0 0.0
5145 1 3 0.0 0.0 0.0 0.0
5146 1 3 0.0 0.0 0.0 0.0
5147 1 2 0.0 0.0 0.0 0.0
5148 1 2 0.0 0.0 0.0 0.0
5149 1 2 0.0 0.0 0.0 0.0
5150 1 2 0.0 0.0 0.0 0.0
5151 1 2 0.0 0.0 0.0 0.0
5152 1 2 0.0 0.0 0.0 0.0
5153 1 2 0.0 0.0 0.0 0.0
5154 1 2 0.0 0.0 0.0 0.0
5155 1 2 0.0 0.0 0.0 0.0
5156 1 2 0.0 0.0 0.0 0.0
5157 1 2 0.0 0.0 0.0 0.0
5158 1 2 0.0 0.0 0.0 0.0
5159 1 2 0.0 0.0 0.0 0.0
5160 1 2 0.0 0.0 0.0 0.0
5161 1 2 0.0 0.0 0.0 0.0
5162 1 2 0.0 0.0 0.0 0.0
5163 1 2 0.0 0.0 0.0 0.0
5164 1 2 0.0 0.0 0.0 0.0
5165 1 2 0.0 0.0 0.0 0.0
5166 1 2 0.0 0.0 0.0 0.0
5167 1 3 0.0 0.0 0.0 0.0
5168 1 3 0.0 0.0 0.0 0.0
5169 1 3 0.0 0.0 0.0 0.0
5170 1 3 0.0 0.0 0.0 0.0
5171 1 3 0.0 0.0 0.0 0.0
5172 1 3 0.0 0.0 0.0 0.0
5173 1 3 0.0 0.0 0.0 0.0
5174 1 3 0.0 0.0 0.0 0.0
5175 1 3 0.0 0.0 0.0 0.0
5176 1 3 0.0 0.0 0.0 0.0
5177 1 2 0.0 0.0 0.0 0.0
5178 1 2 0.0 0.0 0.0 0.0
5179 1 2 0.0 0.0 0.0 0.0
5180 1 2 0.0 0.0 0.0 0.0
5181 1 2 0.0 0.0 0.0 0.0
5182 1 2 0.0 0.0 0.0 0.0
5183 1 2 0.0 0.0 0.0 0.0
5184 1 2 0.0 0.0 0.0 0.0
5185 1 2 0.0 0.0 0.0 0.0
5186 1 2 0.0 0.0 0.0 0.0
5187 1 2 0.0 0.0 0.0 0.0
5188 1 2 0.0 0.0 0.0 0.0
5189 1 2 0.0 0.0 0.0 0.0
5190 1 2 0.0 0.0 0.0 0.0
5191 1 2 0.0 0.0 0.0 0.0
5192 1 2 0.0 0.0 0.0 0.0
5193 1 2 0.0 0.0 0.0 0.0
5194 1 2 0.0 0.0 0.0 0.0
5195 1 2 0.0 0.0 0.0 0.0
5196 1 2 0.0 0.0 0.0 0.0
5197 1 2 0.0 0.0 0.0 0.0
5198 1 2 0.0 0.0 0.0 0.0
5199 1 2 0.0 0.0 0.0 0.0
5200 1 2 0.0 0.0 0.0 0.0
5201 1 2 0.0 0.0 0.0 0.0
5202 1 2 0.0 0.0 0.0 0.0
5203 1 2 0.0 0.0 0.0 0.0
5204 1 2 0.0 0.0 0.0 0.0
5205 1 2 0.0 0.0 0.0 0.0
5206 1 2 0.0 0.0 0.0 0.0
5207 1 2 0.0 0.0 0.0 0.0
5208 1 2 0.0 0.0 0.0 0.0
5209 1 2 0.0 0.0 0.0 0.0
5210 1 2 0.0 0.0 0.0 0.0
5211 1 2 0.0 0.0 0.0 0.0
5212 1 2 0.0 0.0 0.0 0.0
5213 1 2 0.0 0.0 0.0 0.0
5214 1 2 0.0 0.0 0.0 0.0
5215 1 2 0.0 0.0 0.0 0.0
5216 1 2 0.0 0.0 0.0 0.0
5217 1 3 0.0 0.0 0.0 0.0
5218 1 3 0.0 0.0 0.0 0.0
5219 1 3 0.0 0.0 0.0 0.0
5220 1 3 0.0 0.0 0.0 0.0
5221 1 3 0.0 0.0 0.0 0.0
5222 1 3 0.0 0.0 0.0 0.0
5223 1 3 0.0 0.0 0.0 0.0
5224 1 3 0.0 0.0 0.0 0.0
5225 1 3 0.0 0.0 0.0 0.0
5226 1 3 0.0 0.0 0.0 0.0
5227 1 2 0.0 0.0 0.0 0.0
5228 1 2 0.0 0.0 0.0 0.0
5229 1 2 0.0 0.0 0.0 0.0
5230 1 2 0.0 0.0 0.0 0.0
5231 1 2 0.0 0.0 0.0 0.0
5232 1 2 0.0 0.0 0.0 0.0
5233 1 2 0.0 0.0 0.0 0.0
5234 1 2 0.0 0.0 0.0 0.0
5235 1 2 0.0 0.0 0.0 0.0
5236 1 2 0.0 0.0 0.0 0.0
5237 1 2 0.0 0.0 0.0 0.0
5238 1 2 0.0 0.0 0.0 0.0
5239 1 2 0.0 0.0 0.0 0.0
5240 1 2 0.0 0.0 0.0 0.0
5241 1 2 0.0 0.0 0.0 0.0
5242 1 2 0.0 0.0 0.0 0.0
5243 1 2 0.0 0.0 0.0 0.0
5244 1 2 0.0 0.0 0.0 0.0
5245 1 2 0.0 0.0 0.0 0.0
5246 1 2 0.0 0.0 0.0 0.0
5247 1 3 0.0 0.0 0.0 0.0
5248 1 3 0.0 0.0 0.0 0.0
5249 1 3 0.0 0.0 0.0 0.0
5250 1 3 0.0 0.0 0.0 0.0
5251 1 3 0.0 0.0 0.0 0.0
5252 1 2 0.0 0.0 0.0 0.0
5253 1 2 0.0 0.0 0.0 0.0
5254 1 2 0.0 0.0 0.0 0.0
5255 1 2 0.0 0.0 0.0 0.0
5256 1 2 0.0 0.0 0.0 0.0
5257 1 2 0.0 0.0 0.0 0.0
5258 1 2 0.0 0.0 0.0 0.0
5259 1 2 0.0 0.0 0.0 0.0
5260 1 2 0.0 0.0 0.0 0.0
5261 1 2 0.0 0.0 0.0 0.0
5262 1 2 0.0 0.0 0.0 0.0
5263 1 2 0.0 0.0 0.0 0.0
5264 1 2 0.0 0.0 0.0 0.0
5265 1 2 0.0 0.0 0.0 0.0
5266 1 2 0.0 0.0 0.0 0.0
5267 1 2 0.0 0.0 0.0 0.0
5268 1 2 0.0 0.0 0.0 0.0
5269 1 2 0.0 0.0 0.0 0.0
5270 1 2 0.0 0.0 0.0 0.0
5271 1 2 0.0 0.0 0.0 0.0
5272 1 2 0.0 0.0 0.0 0.0
5273 1 2 0.0 0.0 0.0 0.0
5274 1 2 0.0 0.0 0.0 0.0
5275 1 2 0.0 0.0 0.0 0.0
5276 1 2 0.0 0.0 0.0 0.0
5277 1 2 0.0 0.0 0.0 0.0
5278 1 2 0.0 0.0 0.0 0.0
5279 1 2 0.0 0.0 0.0 0.0
5280 1 2 0.0 0.0 0.0 0.0
5281 1 2 0.0 0.0 0.0 0.0
5282 1 2 0.0 0.0 0.0 0.0
5283 1 2 0.0 0.0 0.0 0.0
5284 1 2 0.0 0.0 0.0 0.0
5285 1 2 0.0 0.0 0.0 0.0
5286 1 2 0.0 0.0 0.0 0.0
5287 1 2 0.0 0.0 0.0 0.0
5288 1 2 0.0 0.0 0.0 0.0
5289 1 2 0.0 0.0 0.0 0.0
5290 1 2 0.0 0.0 0.0 0.0
5291 1 2 0.0 0.0 0.0 0.0
5292 1 3 0.0 0.0 0.0 0.0
5293 1 3 0.0 0.0 0.0 0.0
5294 1 3 0.0 0.0 0.0 0.0
5295 1 3 0.0 0.0 0.0 0.0
5296 1 3 0.0 0.0 0.0 0.0
5297 1 2 0.0 0.0 0.0 0.0
5298 1 2 0.0 0.0 0.0 0.0
5299 1 2 0.0 0.0 0.0 0.0
5300 1 2 0.0 0.0 0.0 0.0
5301 1 2 0.0 0.0 0.0 0.0
5302 1 2 0.0 0.0 0.0 0.0
5303 1 2 0.0 0.0 0.0 0.0
5304 1 2 0.0 0.0 0.0 0.0
5305 1 2 0.0 0.0 0.0 0.0
5306 1 2 0.0 0.0 0.0 0.0
5307 1 2 0.0 0.0 0.0 0.0
5308 1 2 0.0 0.0 0.0 0.0
5309 1 2 0.0 0.0 0.0 0.0
5310 1 2 0.0 0.0 0.0 0.0
5311 1 2 0.0 0.0 0.0 0.0
5312 1 2 0.0 0.0 0.0 0.0
5313 1 2 0.0 0.0 0.0 0.0
5314 1 2 0.0 0.0 0.0 0.0
5315 1 2 0.0 0.0 0.0 0.0
5316 1 2 0.0 0.0 0.0 0.0
5317 1 2 0.0 0.0 0.0 0.0
5318 1 2 0.0 0.0 0.0 0.0
5319 1 2 0.0 0.0 0.0 0.0
5320 1 2 0.0 0.0 0.0 0.0
5321 1 2 0.0 0.0 0.0 0.0
5322 1 2 0.0 0.0 0.0 0.0
5323 1 2 0.0 0.0 0.0 0.0
5324 1 2 0.0 0.0 0.0 0.0
5325 1 2 0.0 0.0 0.0 0.0
5326 1 2 0.0 0.0 0.0 0.0
5327 1 2 0.0 0.0 0.0 0.0
5328 1 2 0.0 0.0 0.0 0.0
5329 1 2 0.0 0.0 0.0 0.0
5330 1 2 0.0 0.0 0.0 0.0
5331 1 2 0.0 0.0 0.0 0.0
5332 1 2 0.0 0.0 0.0 0.0
5333 1 2 0.0 0.0 0.0 0.0
5334 1 2 0.0 0.0 0.0 0.0
5335 1 2 0.0 0.0 0.0 0.0
5336 1 2 0.0 0.0 0.0 0.0
5337 1 2 0.0 0.0 0.0 0.0
5338 1 2 0.0 0.0 0.0 0.0
5339 1 2 0.0 0.0 0.0 0.0
5340 1 2 0.0 0.0 0.0 0.0
5341 1 2 0.0 0.0 0.0 0.0
5342 1 2 0.0 0.0 0.0 0.0
5343 1 2 0.0 0.0 0.0 0.0
5344 1 2 0.0 0.0 0.0 0.0
5345 1 2 0.0 0.0 0.0 0.0
5346 1 2 0.0 0.0 0.0 0.0
5347 1 2 0.0 0.0 0.0 0.0
5348 1 2 0.0 0.0 0.0 0.0
5349 1 2 0.0 0.0 0.0 0.0
5350 1 2 0.0 0.0 0.0 0.0
5351 1 2 0.0 0.0 0.0 0.0
5352 1 2 0.0 0.0 0.0 0.0
5353 1 2 0.0 0.0 0.0 0.0
5354 1 2 0.0 0.0 0.0 0.0
5355 1 2 0.0 0.0 0.0 0.0
5356 1 2 0.0 0.0 0.0 0.0
5357 1 3 0.0 0.0 0.0 0.0
5358 1 3 0.0 0.0 0.0 0.0
5359 1 3 0.0 0.0 0.0 0.0
5360 1 3 0.0 0.0 0.0 0.0
5361 1 3 0.0 0.0 0.0 0.0
5362 1 2 0.0 0.0 0.0 0.0
5363 1 2 0.0 0.0 0.0 0.0
5364 1 2 0.0 0.0 0.0 0.0
5365 1 2 0.0 0.0 0.0 0.0
5366 1 2 0.0 0.0 0.0 0.0
5367 1 2 0.0 0.0 0.0 0.0
5368 1 2 0.0 0.0 0.0 0.0
5369 1 2 0.0 0.0 0.0 0.0
5370 1 2 0.0 0.0 0.0 0.0
5371 1 2 0.0 0.0 0.0 0.0
5372 1 2 0.0 0.0 0.0 0.0
5373 1 2 0.0 0.0 0.0 0.0
5374 1 2 0.0 0.0 0.0 0.0
5375 1 2 0.0 0.0 0.0 0.0
5376 1 2 0.0 0.0 0.0 0.0
5377 1 2 0.0 0.0 0.0 0.0
5378 1 2 0.0 0.0 0.0 0.0
5379 1 2 0.0 0.0 0.0 0.0
5380 1 2 0.0 0.0 0.0 0.0
5381 1 2 0.0 0.0 0.0 0.0
5382 1 3 0.0 0.0 0.0 0.0
5383 1 3 0.0 0.0 0.0 0.0
5384 1 3 0.0 0.0 0.0 0.0
5385 1 3 0.0 0.0 0.0 0.0
5386 1 3 0.0 0.0 0.0 0.0
5387 1 3 0.0 0.0 0.0 0.0
5388 1 3 0.0 0.0 0.0 0.0
5389 1 3 0.0 0.0 0.0 0.0
5390 1 3 0.0 0.0 0.0 0.0
5391 1 3 0.0 0.0 0.0 0.0
5392 1 2 0.0 0.0 0.0 0.0
5393 1 2 0.0 0.0 0.0 0.0
5394 1 2 0.0 0.0 0.0 0.0
5395 1 2 0.0 0.0 0.0 0.0
5396 1 2 0.0 0.0 0.0 0.0
5397 1 2 0.0 0.0 0.0 0.0
5398 1 2 0.0 0.0 0.0 0.0
5399 1 2 0.0 0.0 0.0 0.0
5400 1 2 0.0 0.0 0.0 0.0
5401 1 2 0.0 0.0 0.0 0.0
5402 1 2 0.0 0.0 0.0 0.0
5403 1 2 0.0 0.0 0.0 0.0
5404 1 2 0.0 0.0 0.0 0.0
5405 1 2 0.0 0.0 0.0 0.0
5406 1 2 0.0 0.0 0.0 0.0
5407 1 2 0.0 0.0 0.0 0.0
5408 1 2 0.0 0.0 0.0 0.0
5409 1 2 0.0 0.0 0.0 0.0
5410 1 2 0.0 0.0 0.0 0.0
5411 1 2 0.0 0.0 0.0 0.0
5412 1 3 0.0 0.0 0.0 0.0
5413 1 3 0.0 0.0 0.0 0.0
5414 1 3 0.0 0.0 0.0 0.0
5415 1 3 0.0 0.0 0.0 0.0
5416 1 3 0.0 0.0 0.0 0.0
5417 1 2 0.0 0.0 0.0 0.0
5418 1 2 0.0 0.0 0.0 0.0
5419 1 2 0.0 0.0 0.0 0.0
5420 1 2 0.0 0.0 0.0 0.0
5421 1 2 0.0 0.0 0.0 0.0
5422 1 2 0.0 0.0 0.0 0.0
5423 1 2 0.0 0.0 0.0 0.0
5424 1 2 0.0 0.0 0.0 0.0
5425 1 2 0.0 0.0 0.0 0.0
5426 1 2 0.0 0.0 0.0 0.0
5427 1 2 0.0 0.0 0.0 0.0
5428 1 2 0.0 0.0 0.0 0.0
5429 1 2 0.0 0.0 0.0 0.0
5430 1 2 0.0 0.0 0.0 0.0
5431 1 2 0.0 0.0 0.0 0.0
5432 1 2 0.0 0.0 0.0 0.0
5433 1 2 0.0 0.0 0.0 0.0
5434 1 2 0.0 0.0 0.0 0.0
5435 1 2 0.0 0.0 0.0 0.0
5436 1 2 0.0 0.0 0.0 0.0
5437 1 3 0.0 0.0 0.0 0.0
5438 1 3 0.0 0.0 0.0 0.0
5439 1 3 0.0 0.0 0.0 0.0
5440 1 3 0.0 0.0 0.0 0.0
5441 1 3 0.0 0.0 0.0 0.0
5442 1 3 0.0 0.0 0.0 0.0
5443 1 3 0.0 0.0 0.0 0.0
5444 1 3 0.0 0.0 0.0 0.0
5445 1 3 0.0 0.0 0.0 0.0
5446 1 3 0.0 0.0 0.0 0.0

Bonds

1 1 122 123
2 1 123 124
3 1 124 125
4 1 125 126
5 1 126 127
6 1 127 128
7 1 128 129
8 1 129 130
9 1 130 131
10 1 131 132
11 1 132 133
12 1 133 134
13 1 134 135
14 1 135 136
15 1 136 137
16 1 137 138
17 1 138 139
18 1 139 140
19 1 140 141
20 1 1 122
21 1 141 6
22 1 122 142
23 1 142 143
24 1 143 144
25 1 144 145
26 1 145 146
27 1 123 147
28 1 147 148
29 1 148 149
30 1 149 150
31 1 150 151
32 1 137 152
33 1 152 153
34 1 153 154
35 1 154 155
36 1 155 156
37 1 157 158
38 1 158 159
39 1 159 160
40 1 160 161
41 1 161 162
42 1 162 163
43 1 163 164
44 1 164 165
45 1 165 166
46 1 166 167
47 1 167 168
48 1 168 169
49 1 169 170
50 1 170 171
51 1 171 172
52 1 172 173
53 1 173 174
54 1 174 175
55 1 175 176
56 1 1 157
57 1 176 5
58 1 177 178
59 1 178 179
60 1 179 180
61 1 180 181
62 1 181 182
63 1 182 183
64 1 183 184
65 1 184 185
66 1 185 186
67 1 186 187
68 1 187 188
69 1 188 189
70 1 189 190
71 1 190 191
72 1 191 192
73 1 192 193
74 1 193 194
75 1 194 195
76 1 195 196
77 1 1 177
78 1 196 20
79 1 197 198
80 1 198 199
81 1 199 200
82 1 200 201
83 1 201 202
84 1 202 203
85 1 203 204
86 1 204 205
87 1 205 206
88 1 206 207
89 1 207 208
90 1 208 209
91 1 209 210
92 1 210 211
93 1 211 212
94 1 212 213
95 1 213 214
96 1 214 215
97 1 215 216
98 1 2 197
99 1 216 3
100 1 199 217
101 1 217 218
102 1 218 219
103 1 219 220
104 1 220 221
105 1 222 223
106 1 223 224
107 1 224 225
108 1 225 226
109 1 226 227
110 1 227 228
111 1 228 229
112 1 229 230
113 1 230 231
114 1 231 232
115 1 232 233
116 1 233 234
117 1 234 235
118 1 235 236
119 1 236 237
120 1 237 238
121 1 238 239
122 1 239 240
123 1 240 241
124 1 2 222
125 1 241 26
126 1 242 243
127 1 243 244
128 1 244 245
129 1 245 246
130 1 246 247
131 1 247 248
132 1 248 249
133 1 249 250
134 1 250 251
135 1 251 252
136 1 252 253
137 1 253 254
138 1 254 255
139 1 255 256
140 1 256 257
141 1 257 258
142 1 258 259
143 1 259 260
144 1 260 261
145 1 2 242
146 1 261 21
147 1 262 263
148 1 263 264
149 1 264 265
150 1 265 266
151 1 266 267
152 1 267 268
153 1 268 269
154 1 269 270
155 1 270 271
156 1 271 272
157 1 272 273
158 1 273 274
159 1 274 275
160 1 275 276
161 1 276 277
162 1 277 278
163 1 278 279
164 1 279 280
165 1 280 281
166 1 3 262
167 1 281 4
168 1 274 282
169 1 282 283
170 1 283 284
171 1 284 285
172 1 285 286
173 1 287 288
174 1 288 289
175 1 289 290
176 1 290 291
177 1 291 292
178 1 292 293
179 1 293 294
180 1 294 295
181 1 295 296
182 1 296 297
183 1 297 298
184 1 298 299
185 1 299 300
186 1 300 301
187 1 301 302
188 1 302 303
189 1 303 304
190 1 304 305
191 1 305 306
192 1 3 287
193 1 306 27
194 1 307 308
195 1 308 309
196 1 309 310
197 1 310 311
198 1 311 312
199 1 312 313
200 1 313 314
201 1 314 315
202 1 315 316
203 1 316 317
204 1 317 318
205 1 318 319
206 1 319 320
207 1 320 321
208 1 321 322
209 1 322 323
210 1 323 324
211 1 324 325
212 1 325 326
213 1 3 307
214 1 326 22
215 1 327 328
216 1 328 329
217 1 329 330
218 1 330 331
219 1 331 332
220 1 332 333
221 1 333 334
222 1 334 335
223 1 335 336
224 1 336 337
225 1 337 338
226 1 338 339
227 1 339 340
228 1 340 341
229 1 341 342
230 1 342 343
231 1 343 344
232 1 344 345
233 1 345 346
234 1 4 327
235 1 346 5
236 1 329 347
237 1 347 348
238 1 348 349
239 1 349 350
240 1 350 351
241 1 352 353
242 1 353 354
243 1 354 355
244 1 355 356
245 1 356 357
246 1 357 358
247 1 358 359
248 1 359 360
249 1 360 361
250 1 361 362
251 1 362 363
252 1 363 364
253 1 364 365
254 1 365 366
255 1 366 367
256 1 367 368
257 1 368 369
258 1 369 370
259 1 370 371
260 1 4 352
261 1 371 8
262 1 372 373
263 1 373 374
264 1 374 375
265 1 375 376
266 1 376 377
267 1 377 378
268 1 378 379
269 1 379 380
270 1 380 381
271 1 381 382
272 1 382 383
273 1 383 384
274 1 384 385
275 1 385 386
276 1 386 387
277 1 387 388
278 1 388 389
279 1 389 390
280 1 390 391
281 1 4 372
282 1 391 28
283 1 392 393
284 1 393 394
285 1 394 395
286 1 395 396
287 1 396 397
288 1 397 398
289 1 398 399
290 1 399 400
291 1 400 401
292 1 401 402
293 1 402 403
294 1 403 404
295 1 404 405
296 1 405 406
297 1 406 407
298 1 407 408
299 1 408 409
300 1 409 410
301 1 410 411
302 1 5 392
303 1 411 9
304 1 395 412
305 1 412 413
306 1 413 414
307 1 414 415
308 1 415 416
309 1 406 417
310 1 417 418
311 1 418 419
312 1 419 420
313 1 420 421
314 1 422 423
315 1 423 424
316 1 424 425
317 1 425 426
318 1 426 427
319 1 427 428
320 1 428 429
321 1 429 430
322 1 430 431
323 1 431 432
324 1 432 433
325 1 433 434
326 1 434 435
327 1 435 436
328 1 436 437
329 1 437 438
330 1 438 439
331 1 439 440
332 1 440 441
333 1 5 422
334 1 441 29
335 1 429 442
336 1 442 443
337 1 443 444
338 1 444 445
339 1 445 446
340 1 435 447
341 1 447 448
342 1 448 449
343 1 449 450
344 1 450 451
345 1 436 452
346 1 452 453
347 1 453 454
348 1 454 455
349 1 455 456
350 1 457 458
351 1 458 459
352 1 459 460
353 1 460 461
354 1 461 462
355 1 462 463
356 1 463 464
357 1 464 465
358 1 465 466
359 1 466 467
360 1 467 468
361 1 468 469
362 1 469 470
363 1 470 471
364 1 471 472
365 1 472 473
366 1 473 474
367 1 474 475
368 1 475 476
369 1 6 457
370 1 476 30
371 1 477 478
372 1 478 479
373 1 479 480
374 1 480 481
375 1 481 482
376 1 482 483
377 1 483 484
378 1 484 485
379 1 485 486
380 1 486 487
381 1 487 488
382 1 488 489
383 1 489 490
384 1 490 491
385 1 491 492
386 1 492 493
387 1 493 494
388 1 494 495
389 1 495 496
390 1 6 477
391 1 496 9
392 1 497 498
393 1 498 499
394 1 499 500
395 1 500 501
396 1 501 502
397 1 502 503
398 1 503 504
399 1 504 505
400 1 505 506
401 1 506 507
402 1 507 508
403 1 508 509
404 1 509 510
405 1 510 511
406 1 511 512
407 1 512 513
408 1 513 514
409 1 514 515
410 1 515 516
411 1 6 497
412 1 516 102
413 1 502 517
414 1 517 518
415 1 518 519
416 1 519 520
417 1 520 521
418 1 510 522
419 1 522 523
420 1 523 524
421 1 524 525
422 1 525 526
423 1 527 528
424 1 528 529
425 1 529 530
426 1 530 531
427 1 531 532
428 1 532 533
429 1 533 534
430 1 534 535
431 1 535 536
432 1 536 537
433 1 537 538
434 1 538 539
435 1 539 540
436 1 540 541
437 1 541 542
438 1 542 543
439 1 543 544
440 1 544 545
441 1 545 546
442 1 7 527
443 1 546 8
444 1 547 548
445 1 548 549
446 1 549 550
447 1 550 551
448 1 551 552
449 1 552 553
450 1 553 554
451 1 554 555
452 1 555 556
453 1 556 557
454 1 557 558
455 1 558 559
456 1 559 560
457 1 560 561
458 1 561 562
459 1 562 563
460 1 563 564
461 1 564 565
462 1 565 566
463 1 7 547
464 1 566 12
465 1 567 568
466 1 568 569
467 1 569 570
468 1 570 571
469 1 571 572
470 1 572 573
471 1 573 574
472 1 574 575
473 1 575 576
474 1 576 577
475 1 577 578
476 1 578 579
477 1 579 580
478 1 580 581
479 1 581 582
480 1 582 583
481 1 583 584
482 1 584 585
483 1 585 586
484 1 7 567
485 1 586 32
486 1 587 588
487 1 588 589
488 1 589 590
489 1 590 591
490 1 591 592
491 1 592 593
492 1 593 594
493 1 594 595
494 1 595 596
495 1 596 597
496 1 597 598
497 1 598 599
498 1 599 600
499 1 600 601
500 1 601 602
501 1 602 603
502 1 603 604
503 1 604 605
504 1 605 606
505 1 7 587
506 1 606 104
507 1 607 608
508 1 608 609
509 1 609 610
510 1 610 611
511 1 611 612
512 1 612 613
513 1 613 614
514 1 614 615
515 1 615 616
516 1 616 617
517 1 617 618
518 1 618 619
519 1 619 620
520 1 620 621
521 1 621 622
522 1 622 623
523 1 623 624
524 1 624 625
525 1 625 626
526 1 8 607
527 1 626 9
528 1 625 627
529 1 627 628
530 1 628 629
531 1 629 630
532 1 630 631
533 1 632 633
534 1 633 634
535 1 634 635
536 1 635 636
537 1 636 637
538 1 637 638
539 1 638 639
540 1 639 640
541 1 640 641
542 1 641 642
543 1 642 643
544 1 643 644
545 1 644 645
546 1 645 646
547 1 646 647
548 1 647 648
549 1 648 649
550 1 649 650
551 1 650 651
552 1 8 632
553 1 651 105
554 1 632 652
555 1 652 653
556 1 653 654
557 1 654 655
558 1 655 656
559 1 635 657
560 1 657 658
561 1 658 659
562 1 659 660
563 1 660 661
564 1 639 662
565 1 662 663
566 1 663 664
567 1 664 665
568 1 665 666
569 1 649 667
570 1 667 668
571 1 668 669
572 1 669 670
573 1 670 671
574 1 672 673
575 1 673 674
576 1 674 675
577 1 675 676
578 1 676 677
579 1 677 678
580 1 678 679
581 1 679 680
582 1 680 681
583 1 681 682
584 1 682 683
585 1 683 684
586 1 684 685
587 1 685 686
588 1 686 687
589 1 687 688
590 1 688 689
591 1 689 690
592 1 690 691
593 1 9 672
594 1 691 34
595 1 677 692
596 1 692 693
597 1 693 694
598 1 694 695
599 1 695 696
600 1 697 698
601 1 698 699
602 1 699 700
603 1 700 701
604 1 701 702
605 1 702 703
606 1 703 704
607 1 704 705
608 1 705 706
609 1 706 707
610 1 707 708
611 1 708 709
612 1 709 710
613 1 710 711
614 1 711 712
615 1 712 713
616 1 713 714
617 1 714 715
618 1 715 716
619 1 10 697
620 1 716 15
621 1 702 717
622 1 717 718
623 1 718 719
624 1 719 720
625 1 720 721
626 1 716 722
627 1 722 723
628 1 723 724
629 1 724 725
630 1 725 726
631 1 727 728
632 1 728 729
633 1 729 730
634 1 730 731
635 1 731 732
636 1 732 733
637 1 733 734
638 1 734 735
639 1 735 736
640 1 736 737
641 1 737 738
642 1 738 739
643 1 739 740
644 1 740 741
645 1 741 742
646 1 742 743
647 1 743 744
648 1 744 745
649 1 745 746
650 1 10 727
651 1 746 35
652 1 738 747
653 1 747 748
654 1 748 749
655 1 749 750
656 1 750 751
657 1 752 753
658 1 753 754
659 1 754 755
660 1 755 756
661 1 756 757
662 1 757 758
663 1 758 759
664 1 759 760
665 1 760 761
666 1 761 762
667 1 762 763
668 1 763 764
669 1 764 765
670 1 765 766
671 1 766 767
672 1 767 768
673 1 768 769
674 1 769 770
675 1 770 771
676 1 10 752
677 1 771 14
678 1 772 773
679 1 773 774
680 1 774 775
681 1 775 776
682 1 776 777
683 1 777 778
684 1 778 779
685 1 779 780
686 1 780 781
687 1 781 782
688 1 782 783
689 1 783 784
690 1 784 785
691 1 785 786
692 1 786 787
693 1 787 788
694 1 788 789
695 1 789 790
696 1 790 791
697 1 11 772
698 1 791 12
699 1 775 792
700 1 792 793
701 1 793 794
702 1 794 795
703 1 795 796
704 1 797 798
705 1 798 799
706 1 799 800
707 1 800 801
708 1 801 802
709 1 802 803
710 1 803 804
711 1 804 805
712 1 805 806
713 1 806 807
714 1 807 808
715 1 808 809
716 1 809 810
717 1 810 811
718 1 811 812
719 1 812 813
720 1 813 814
721 1 814 815
722 1 815 816
723 1 11 797
724 1 816 16
725 1 817 818
726 1 818 819
727 1 819 820
728 1 820 821
729 1 821 822
730 1 822 823
731 1 823 824
732 1 824 825
733 1 825 826
734 1 826 827
735 1 827 828
736 1 828 829
737 1 829 830
738 1 830 831
739 1 831 832
740 1 832 833
741 1 833 834
742 1 834 835
743 1 835 836
744 1 11 817
745 1 836 36
746 1 818 837
747 1 837 838
748 1 838 839
749 1 839 840
750 1 840 841
751 1 828 842
752 1 842 843
753 1 843 844
754 1 844 845
755 1 845 846
756 1 847 848
757 1 848 849
758 1 849 850
759 1 850 851
760 1 851 852
761 1 852 853
762 1 853 854
763 1 854 855
764 1 855 856
765 1 856 857
766 1 857 858
767 1 858 859
768 1 859 860
769 1 860 861
770 1 861 862
771 1 862 863
772 1 863 864
773 1 864 865
774 1 865 866
775 1 12 847
776 1 866 37
777 1 858 867
778 1 867 868
779 1 868 869
780 1 869 870
781 1 870 871
782 1 872 873
783 1 873 874
784 1 874 875
785 1 875 876
786 1 876 877
787 1 877 878
788 1 878 879
789 1 879 880
790 1 880 881
791 1 881 882
792 1 882 883
793 1 883 884
794 1 884 885
795 1 885 886
796 1 886 887
797 1 887 888
798 1 888 889
799 1 889 890
800 1 890 891
801 1 12 872
802 1 891 109
803 1 877 892
804 1 892 893
805 1 893 894
806 1 894 895
807 1 895 896
808 1 897 898
809 1 898 899
810 1 899 900
811 1 900 901
812 1 901 902
813 1 902 903
814 1 903 904
815 1 904 905
816 1 905 906
817 1 906 907
818 1 907 908
819 1 908 909
820 1 909 910
821 1 910 911
822 1 911 912
823 1 912 913
824 1 913 914
825 1 914 915
826 1 915 916
827 1 13 897
828 1 916 14
829 1 902 917
830 1 917 918
831 1 918 919
832 1 919 920
833 1 920 921
834 1 922 923
835 1 923 924
836 1 924 925
837 1 925 926
838 1 926 927
839 1 927 928
840 1 928 929
841 1 929 930
842 1 930 931
843 1 931 932
844 1 932 933
845 1 933 934
846 1 934 935
847 1 935 936
848 1 936 937
849 1 937 938
850 1 938 939
851 1 939 940
852 1 940 941
853 1 13 922
854 1 941 18
855 1 933 942
856 1 942 943
857 1 943 944
858 1 944 945
859 1 945 946
860 1 947 948
861 1 948 949
862 1 949 950
863 1 950 951
864 1 951 952
865 1 952 953
866 1 953 954
867 1 954 955
868 1 955 956
869 1 956 957
870 1 957 958
871 1 958 959
872 1 959 960
873 1 960 961
874 1 961 962
875 1 962 963
876 1 963 964
877 1 964 965
878 1 965 966
879 1 13 947
880 1 966 110
881 1 967 968
882 1 968 969
883 1 969 970
884 1 970 971
885 1 971 972
886 1 972 973
887 1 973 974
888 1 974 975
889 1 975 976
890 1 976 977
891 1 977 978
892 1 978 979
893 1 979 980
894 1 980 981
895 1 981 982
896 1 982 983
897 1 983 984
898 1 984 985
899 1 985 986
900 1 14 967
901 1 986 19
902 1 987 988
903 1 988 989
904 1 989 990
905 1 990 991
906 1 991 992
907 1 992 993
908 1 993 994
909 1 994 995
910 1 995 996
911 1 996 997
912 1 997 998
913 1 998 999
914 1 999 1000
915 1 1000 1001
916 1 1001 1002
917 1 1002 1003
918 1 1003 1004
919 1 1004 1005
920 1 1005 1006
921 1 15 987
922 1 1006 20
923 1 1000 1007
924 1 1007 1008
925 1 1008 1009
926 1 1009 1010
927 1 1010 1011
928 1 1001 1012
929 1 1012 1013
930 1 1013 1014
931 1 1014 1015
932 1 1015 1016
933 1 1017 1018
934 1 1018 1019
935 1 1019 1020
936 1 1020 1021
937 1 1021 1022
938 1 1022 1023
939 1 1023 1024
940 1 1024 1025
941 1 1025 1026
942 1 1026 1027
943 1 1027 1028
944 1 1028 1029
945 1 1029 1030
946 1 1030 1031
947 1 1031 1032
948 1 1032 1033
949 1 1033 1034
950 1 1034 1035
951 1 1035 1036
952 1 15 1017
953 1 1036 40
954 1 1017 1037
955 1 1037 1038
956 1 1038 1039
957 1 1039 1040
958 1 1040 1041
959 1 1029 1042
960 1 1042 1043
961 1 1043 1044
962 1 1044 1045
963 1 1045 1046
964 1 1047 1048
965 1 1048 1049
966 1 1049 1050
967 1 1050 1051
968 1 1051 1052
969 1 1052 1053
970 1 1053 1054
971 1 1054 1055
972 1 1055 1056
973 1 1056 1057
974 1 1057 1058
975 1 1058 1059
976 1 1059 1060
977 1 1060 1061
978 1 1061 1062
979 1 1062 1063
980 1 1063 1064
981 1 1064 1065
982 1 1065 1066
983 1 15 1047
984 1 1066 19
985 1 1067 1068
986 1 1068 1069
987 1 1069 1070
988 1 1070 1071
989 1 1071 1072
990 1 1072 1073
991 1 1073 1074
992 1 1074 1075
993 1 1075 1076
994 1 1076 1077
995 1 1077 1078
996 1 1078 1079
997 1 1079 1080
998 1 1080 1081
999 1 1081 1082
1000 1 1082 1083
1001 1 1083 1084
1002 1 1084 1085
1003 1 1085 1086
1004 1 16 1067
1005 1 1086 21
1006 1 1078 1087
1007 1 1087 1088
1008 1 1088 1089
1009 1 1089 1090
1010 1 1090 1091
1011 1 1092 1093
1012 1 1093 1094
1013 1 1094 1095
1014 1 1095 1096
1015 1 1096 1097
1016 1 1097 1098
1017 1 1098 1099
1018 1 1099 1100
1019 1 1100 1101
1020 1 1101 1102
1021 1 1102 1103
1022 1 1103 1104
1023 1 1104 1105
1024 1 1105 1106
1025 1 1106 1107
1026 1 1107 1108
1027 1 1108 1109
1028 1 1109 1110
1029 1 1110 1111
1030 1 16 1092
1031 1 1111 113
1032 1 1112 1113
1033 1 1113 1114
1034 1 1114 1115
1035 1 1115 1116
1036 1 1116 1117
1037 1 1117 1118
1038 1 1118 1119
1039 1 1119 1120
1040 1 1120 1121
1041 1 1121 1122
1042 1 1122 1123
1043 1 1123 1124
1044 1 1124 1125
1045 1 1125 1126
1046 1 1126 1127
1047 1 1127 1128
1048 1 1128 1129
1049 1 1129 1130
1050 1 1130 1131
1051 1 17 1112
1052 1 1131 41
1053 1 1115 1132
1054 1 1132 1133
1055 1 1133 1134
1056 1 1134 1135
1057 1 1135 1136
1058 1 1130 1137
1059 1 1137 1138
1060 1 1138 1139
1061 1 1139 1140
1062 1 1140 1141
1063 1 1142 1143
1064 1 1143 1144
1065 1 1144 1145
1066 1 1145 1146
1067 1 1146 1147
1068 1 1147 1148
1069 1 1148 1149
1070 1 1149 1150
1071 1 1150 1151
1072 1 1151 1152
1073 1 1152 1153
1074 1 1153 1154
1075 1 1154 1155
1076 1 1155 1156
1077 1 1156 1157
1078 1 1157 1158
1079 1 1158 1159
1080 1 1159 1160
1081 1 1160 1161
1082 1 18 1142
1083 1 1161 23
1084 1 1155 1162
1085 1 1162 1163
1086 1 1163 1164
1087 1 1164 1165
1088 1 1165 1166
1089 1 1167 1168
1090 1 1168 1169
1091 1 1169 1170
1092 1 1170 1171
1093 1 1171 1172
1094 1 1172 1173
1095 1 1173 1174
1096 1 1174 1175
1097 1 1175 1176
1098 1 1176 1177
1099 1 1177 1178
1100 1 1178 1179
1101 1 1179 1180
1102 1 1180 1181
1103 1 1181 1182
1104 1 1182 1183
1105 1 1183 1184
1106 1 1184 1185
1107 1 1185 1186
1108 1 18 1167
1109 1 1186 115
1110 1 1168 1187
1111 1 1187 1188
1112 1 1188 1189
1113 1 1189 1190
1114 1 1190 1191
1115 1 1171 1192
1116 1 1192 1193
1117 1 1193 1194
1118 1 1194 1195
1119 1 1195 1196
1120 1 1179 1197
1121 1 1197 1198
1122 1 1198 1199
1123 1 1199 1200
1124 1 1200 1201
1125 1 1202 1203
1126 1 1203 1204
1127 1 1204 1205
1128 1 1205 1206
1129 1 1206 1207
1130 1 1207 1208
1131 1 1208 1209
1132 1 1209 1210
1133 1 1210 1211
1134 1 1211 1212
1135 1 1212 1213
1136 1 1213 1214
1137 1 1214 1215
1138 1 1215 1216
1139 1 1216 1217
1140 1 1217 1218
1141 1 1218 1219
1142 1 1219 1220
1143 1 1220 1221
1144 1 19 1202
1145 1 1221 24
1146 1 1210 1222
1147 1 1222 1223
1148 1 1223 1224
1149 1 1224 1225
1150 1 1225 1226
1151 1 1214 1227
1152 1 1227 1228
1153 1 1228 1229
1154 1 1229 1230
1155 1 1230 1231
1156 1 1232 1233
1157 1 1233 1234
1158 1 1234 1235
1159 1 1235 1236
1160 1 1236 1237
1161 1 1237 1238
1162 1 1238 1239
1163 1 1239 1240
1164 1 1240 1241
1165 1 1241 1242
1166 1 1242 1243
1167 1 1243 1244
1168 1 1244 1245
1169 1 1245 1246
1170 1 1246 1247
1171 1 1247 1248
1172 1 1248 1249
1173 1 1249 1250
1174 1 1250 1251
1175 1 19 1232
1176 1 1251 116
1177 1 1239 1252
1178 1 1252 1253
1179 1 1253 1254
1180 1 1254 1255
1181 1 1255 1256
1182 1 1244 1257
1183 1 1257 1258
1184 1 1258 1259
1185 1 1259 1260
1186 1 1260 1261
1187 1 1262 1263
1188 1 1263 1264
1189 1 1264 1265
1190 1 1265 1266
1191 1 1266 1267
1192 1 1267 1268
1193 1 1268 1269
1194 1 1269 1270
1195 1 1270 1271
1196 1 1271 1272
1197 1 1272 1273
1198 1 1273 1274
1199 1 1274 1275
1200 1 1275 1276
1201 1 1276 1277
1202 1 1277 1278
1203 1 1278 1279
1204 1 1279 1280
1205 1 1280 1281
1206 1 20 1262
1207 1 1281 21
1208 1 1263 1282
1209 1 1282 1283
1210 1 1283 1284
1211 1 1284 1285
1212 1 1285 1286
1213 1 1287 1288
1214 1 1288 1289
1215 1 1289 1290
1216 1 1290 1291
1217 1 1291 1292
1218 1 1292 1293
1219 1 1293 1294
1220 1 1294 1295
1221 1 1295 1296
1222 1 1296 1297
1223 1 1297 1298
1224 1 1298 1299
1225 1 1299 1300
1226 1 1300 1301
1227 1 1301 1302
1228 1 1302 1303
1229 1 1303 1304
1230 1 1304 1305
1231 1 1305 1306
1232 1 20 1287
1233 1 1306 24
1234 1 1294 1307
1235 1 1307 1308
1236 1 1308 1309
1237 1 1309 1310
1238 1 1310 1311
1239 1 1300 1312
1240 1 1312 1313
1241 1 1313 1314
1242 1 1314 1315
1243 1 1315 1316
1244 1 1317 1318
1245 1 1318 1319
1246 1 1319 1320
1247 1 1320 1321
1248 1 1321 1322
1249 1 1322 1323
1250 1 1323 1324
1251 1 1324 1325
1252 1 1325 1326
1253 1 1326 1327
1254 1 1327 1328
1255 1 1328 1329
1256 1 1329 1330
1257 1 1330 1331
1258 1 1331 1332
1259 1 1332 1333
1260 1 1333 1334
1261 1 1334 1335
1262 1 1335 1336
1263 1 21 1317
1264 1 1336 45
1265 1 1337 1338
1266 1 1338 1339
1267 1 1339 1340
1268 1 1340 1341
1269 1 1341 1342
1270 1 1342 1343
1271 1 1343 1344
1272 1 1344 1345
1273 1 1345 1346
1274 1 1346 1347
1275 1 1347 1348
1276 1 1348 1349
1277 1 1349 1350
1278 1 1350 1351
1279 1 1351 1352
1280 1 1352 1353
1281 1 1353 1354
1282 1 1354 1355
1283 1 1355 1356
1284 1 22 1337
1285 1 1356 23
1286 1 1339 1357
1287 1 1357 1358
1288 1 1358 1359
1289 1 1359 1360
1290 1 1360 1361
1291 1 1340 1362
1292 1 1362 1363
1293 1 1363 1364
1294 1 1364 1365
1295 1 1365 1366
1296 1 1367 1368
1297 1 1368 1369
1298 1 1369 1370
1299 1 1370 1371
1300 1 1371 1372
1301 1 1372 1373
1302 1 1373 1374
1303 1 1374 1375
1304 1 1375 1376
1305 1 1376 1377
1306 1 1377 1378
1307 1 1378 1379
1308 1 1379 1380
1309 1 1380 1381
1310 1 1381 1382
1311 1 1382 1383
1312 1 1383 1384
1313 1 1384 1385
1314 1 1385 1386
1315 1 22 1367
1316 1 1386 46
1317 1 1378 1387
1318 1 1387 1388
1319 1 1388 1389
1320 1 1389 1390
1321 1 1390 1391
1322 1 1384 1392
1323 1 1392 1393
1324 1 1393 1394
1325 1 1394 1395
1326 1 1395 1396
1327 1 1397 1398
1328 1 1398 1399
1329 1 1399 1400
1330 1 1400 1401
1331 1 1401 1402
1332 1 1402 1403
1333 1 1403 1404
1334 1 1404 1405
1335 1 1405 1406
1336 1 1406 1407
1337 1 1407 1408
1338 1 1408 1409
1339 1 1409 1410
1340 1 1410 1411
1341 1 1411 1412
1342 1 1412 1413
1343 1 1413 1414
1344 1 1414 1415
1345 1 1415 1416
1346 1 23 1397
1347 1 1416 24
1348 1 1417 1418
1349 1 1418 1419
1350 1 1419 1420
1351 1 1420 1421
1352 1 1421 1422
1353 1 1422 1423
1354 1 1423 1424
1355 1 1424 1425
1356 1 1425 1426
1357 1 1426 1427
1358 1 1427 1428
1359 1 1428 1429
1360 1 1429 1430
1361 1 1430 1431
1362 1 1431 1432
1363 1 1432 1433
1364 1 1433 1434
1365 1 1434 1435
1366 1 1435 1436
1367 1 23 1417
1368 1 1436 47
1369 1 1437 1438
1370 1 1438 1439
1371 1 1439 1440
1372 1 1440 1441
1373 1 1441 1442
1374 1 1442 1443
1375 1 1443 1444
1376 1 1444 1445
1377 1 1445 1446
1378 1 1446 1447
1379 1 1447 1448
1380 1 1448 1449
1381 1 1449 1450
1382 1 1450 1451
1383 1 1451 1452
1384 1 1452 1453
1385 1 1453 1454
1386 1 1454 1455
1387 1 1455 1456
1388 1 24 1437
1389 1 1456 121
1390 1 1457 1458
1391 1 1458 1459
1392 1 1459 1460
1393 1 1460 1461
1394 1 1461 1462
1395 1 1462 1463
1396 1 1463 1464
1397 1 1464 1465
1398 1 1465 1466
1399 1 1466 1467
1400 1 1467 1468
1401 1 1468 1469
1402 1 1469 1470
1403 1 1470 1471
1404 1 1471 1472
1405 1 1472 1473
1406 1 1473 1474
1407 1 1474 1475
1408 1 1475 1476
1409 1 25 1457
1410 1 1476 49
1411 1 1469 1477
1412 1 1477 1478
1413 1 1478 1479
1414 1 1479 1480
1415 1 1480 1481
1416 1 1482 1483
1417 1 1483 1484
1418 1 1484 1485
1419 1 1485 1486
1420 1 1486 1487
1421 1 1487 1488
1422 1 1488 1489
1423 1 1489 1490
1424 1 1490 1491
1425 1 1491 1492
1426 1 1492 1493
1427 1 1493 1494
1428 1 1494 1495
1429 1 1495 1496
1430 1 1496 1497
1431 1 1497 1498
1432 1 1498 1499
1433 1 1499 1500
1434 1 1500 1501
1435 1 25 1482
1436 1 1501 29
1437 1 1491 1502
1438 1 1502 1503
1439 1 1503 1504
1440 1 1504 1505
1441 1 1505 1506
1442 1 1507 1508
1443 1 1508 1509
1444 1 1509 1510
1445 1 1510 1511
1446 1 1511 1512
1447 1 1512 1513
1448 1 1513 1514
1449 1 1514 1515
1450 1 1515 1516
1451 1 1516 1517
1452 1 1517 1518
1453 1 1518 1519
1454 1 1519 1520
1455 1 1520 1521
1456 1 1521 1522
1457 1 1522 1523
1458 1 1523 1524
1459 1 1524 1525
1460 1 1525 1526
1461 1 25 1507
1462 1 1526 44
1463 1 1527 1528
1464 1 1528 1529
1465 1 1529 1530
1466 1 1530 1531
1467 1 1531 1532
1468 1 1532 1533
1469 1 1533 1534
1470 1 1534 1535
1471 1 1535 1536
1472 1 1536 1537
1473 1 1537 1538
1474 1 1538 1539
1475 1 1539 1540
1476 1 1540 1541
1477 1 1541 1542
1478 1 1542 1543
1479 1 1543 1544
1480 1 1544 1545
1481 1 1545 1546
1482 1 26 1527
1483 1 1546 27
1484 1 1529 1547
1485 1 1547 1548
1486 1 1548 1549
1487 1 1549 1550
1488 1 1550 1551
1489 1 1539 1552
1490 1 1552 1553
1491 1 1553 1554
1492 1 1554 1555
1493 1 1555 1556
1494 1 1557 1558
1495 1 1558 1559
1496 1 1559 1560
1497 1 1560 1561
1498 1 1561 1562
1499 1 1562 1563
1500 1 1563 1564
1501 1 1564 1565
1502 1 1565 1566
1503 1 1566 1567
1504 1 1567 1568
1505 1 1568 1569
1506 1 1569 1570
1507 1 1570 1571
1508 1 1571 1572
1509 1 1572 1573
1510 1 1573 1574
1511 1 1574 1575
1512 1 1575 1576
1513 1 26 1557
1514 1 1576 31
1515 1 1559 1577
1516 1 1577 1578
1517 1 1578 1579
1518 1 1579 1580
1519 1 1580 1581
1520 1 1582 1583
1521 1 1583 1584
1522 1 1584 1585
1523 1 1585 1586
1524 1 1586 1587
1525 1 1587 1588
1526 1 1588 1589
1527 1 1589 1590
1528 1 1590 1591
1529 1 1591 1592
1530 1 1592 1593
1531 1 1593 1594
1532 1 1594 1595
1533 1 1595 1596
1534 1 1596 1597
1535 1 1597 1598
1536 1 1598 1599
1537 1 1599 1600
1538 1 1600 1601
1539 1 26 1582
1540 1 1601 45
1541 1 1593 1602
1542 1 1602 1603
1543 1 1603 1604
1544 1 1604 1605
1545 1 1605 1606
1546 1 1607 1608
1547 1 1608 1609
1548 1 1609 1610
1549 1 1610 1611
1550 1 1611 1612
1551 1 1612 1613
1552 1 1613 1614
1553 1 1614 1615
1554 1 1615 1616
1555 1 1616 1617
1556 1 1617 1618
1557 1 1618 1619
1558 1 1619 1620
1559 1 1620 1621
1560 1 1621 1622
1561 1 1622 1623
1562 1 1623 1624
1563 1 1624 1625
1564 1 1625 1626
1565 1 27 1607
1566 1 1626 32
1567 1 1627 1628
1568 1 1628 1629
1569 1 1629 1630
1570 1 1630 1631
1571 1 1631 1632
1572 1 1632 1633
1573 1 1633 1634
1574 1 1634 1635
1575 1 1635 1636
1576 1 1636 1637
1577 1 1637 1638
1578 1 1638 1639
1579 1 1639 1640
1580 1 1640 1641
1581 1 1641 1642
1582 1 1642 1643
1583 1 1643 1644
1584 1 1644 1645
1585 1 1645 1646
1586 1 27 1627
1587 1 1646 50
1588 1 1642 1647
1589 1 1647 1648
1590 1 1648 1649
1591 1 1649 1650
1592 1 1650 1651
1593 1 1652 1653
1594 1 1653 1654
1595 1 1654 1655
1596 1 1655 1656
1597 1 1656 1657
1598 1 1657 1658
1599 1 1658 1659
1600 1 1659 1660
1601 1 1660 1661
1602 1 1661 1662
1603 1 1662 1663
1604 1 1663 1664
1605 1 1664 1665
1606 1 1665 1666
1607 1 1666 1667
1608 1 1667 1668
1609 1 1668 1669
1610 1 1669 1670
1611 1 1670 1671
1612 1 28 1652
1613 1 1671 29
1614 1 1672 1673
1615 1 1673 1674
1616 1 1674 1675
1617 1 1675 1676
1618 1 1676 1677
1619 1 1677 1678
1620 1 1678 1679
1621 1 1679 1680
1622 1 1680 1681
1623 1 1681 1682
1624 1 1682 1683
1625 1 1683 1684
1626 1 1684 1685
1627 1 1685 1686
1628 1 1686 1687
1629 1 1687 1688
1630 1 1688 1689
1631 1 1689 1690
1632 1 1690 1691
1633 1 28 1672
1634 1 1691 33
1635 1 1683 1692
1636 1 1692 1693
1637 1 1693 1694
1638 1 1694 1695
1639 1 1695 1696
1640 1 1697 1698
1641 1 1698 1699
1642 1 1699 1700
1643 1 1700 1701
1644 1 1701 1702
1645 1 1702 1703
1646 1 1703 1704
1647 1 1704 1705
1648 1 1705 1706
1649 1 1706 1707
1650 1 1707 1708
1651 1 1708 1709
1652 1 1709 1710
1653 1 1710 1711
1654 1 1711 1712
1655 1 1712 1713
1656 1 1713 1714
1657 1 1714 1715
1658 1 1715 1716
1659 1 28 1697
1660 1 1716 47
1661 1 1717 1718
1662 1 1718 1719
1663 1 1719 1720
1664 1 1720 1721
1665 1 1721 1722
1666 1 1722 1723
1667 1 1723 1724
1668 1 1724 1725
1669 1 1725 1726
1670 1 1726 1727
1671 1 1727 1728
1672 1 1728 1729
1673 1 1729 1730
1674 1 1730 1731
1675 1 1731 1732
1676 1 1732 1733
1677 1 1733 1734
1678 1 1734 1735
1679 1 1735 1736
1680 1 29 1717
1681 1 1736 52
1682 1 1737 1738
1683 1 1738 1739
1684 1 1739 1740
1685 1 1740 1741
1686 1 1741 1742
1687 1 1742 1743
1688 1 1743 1744
1689 1 1744 1745
1690 1 1745 1746
1691 1 1746 1747
1692 1 1747 1748
1693 1 1748 1749
1694 1 1749 1750
1695 1 1750 1751
1696 1 1751 1752
1697 1 1752 1753
1698 1 1753 1754
1699 1 1754 1755
1700 1 1755 1756
1701 1 30 1737
1702 1 1756 31
1703 1 1757 1758
1704 1 1758 1759
1705 1 1759 1760
1706 1 1760 1761
1707 1 1761 1762
1708 1 1762 1763
1709 1 1763 1764
1710 1 1764 1765
1711 1 1765 1766
1712 1 1766 1767
1713 1 1767 1768
1714 1 1768 1769
1715 1 1769 1770
1716 1 1770 1771
1717 1 1771 1772
1718 1 1772 1773
1719 1 1773 1774
1720 1 1774 1775
1721 1 1775 1776
1722 1 30 1757
1723 1 1776 35
1724 1 1777 1778
1725 1 1778 1779
1726 1 1779 1780
1727 1 1780 1781
1728 1 1781 1782
1729 1 1782 1783
1730 1 1783 1784
1731 1 1784 1785
1732 1 1785 1786
1733 1 1786 1787
1734 1 1787 1788
1735 1 1788 1789
1736 1 1789 1790
1737 1 1790 1791
1738 1 1791 1792
1739 1 1792 1793
1740 1 1793 1794
1741 1 1794 1795
1742 1 1795 1796
1743 1 31 1777
1744 1 1796 36
1745 1 1777 1797
1746 1 1797 1798
1747 1 1798 1799
1748 1 1799 1800
1749 1 1800 1801
1750 1 1793 1802
1751 1 1802 1803
1752 1 1803 1804
1753 1 1804 1805
1754 1 1805 1806
1755 1 1807 1808
1756 1 1808 1809
1757 1 1809 1810
1758 1 1810 1811
1759 1 1811 1812
1760 1 1812 1813
1761 1 1813 1814
1762 1 1814 1815
1763 1 1815 1816
1764 1 1816 1817
1765 1 1817 1818
1766 1 1818 1819
1767 1 1819 1820
1768 1 1820 1821
1769 1 1821 1822
1770 1 1822 1823
1771 1 1823 1824
1772 1 1824 1825
1773 1 1825 1826
1774 1 31 1807
1775 1 1826 54
1776 1 1812 1827
1777 1 1827 1828
1778 1 1828 1829
1779 1 1829 1830
1780 1 1830 1831
1781 1 1832 1833
1782 1 1833 1834
1783 1 1834 1835
1784 1 1835 1836
1785 1 1836 1837
1786 1 1837 1838
1787 1 1838 1839
1788 1 1839 1840
1789 1 1840 1841
1790 1 1841 1842
1791 1 1842 1843
1792 1 1843 1844
1793 1 1844 1845
1794 1 1845 1846
1795 1 1846 1847
1796 1 1847 1848
1797 1 1848 1849
1798 1 1849 1850
1799 1 1850 1851
1800 1 32 1832
1801 1 1851 37
1802 1 1852 1853
1803 1 1853 1854
1804 1 1854 1855
1805 1 1855 1856
1806 1 1856 1857
1807 1 1857 1858
1808 1 1858 1859
1809 1 1859 1860
1810 1 1860 1861
1811 1 1861 1862
1812 1 1862 1863
1813 1 1863 1864
1814 1 1864 1865
1815 1 1865 1866
1816 1 1866 1867
1817 1 1867 1868
1818 1 1868 1869
1819 1 1869 1870
1820 1 1870 1871
1821 1 32 1852
1822 1 1871 55
1823 1 1862 1872
1824 1 1872 1873
1825 1 1873 1874
1826 1 1874 1875
1827 1 1875 1876
1828 1 1877 1878
1829 1 1878 1879
1830 1 1879 1880
1831 1 1880 1881
1832 1 1881 1882
1833 1 1882 1883
1834 1 1883 1884
1835 1 1884 1885
1836 1 1885 1886
1837 1 1886 1887
1838 1 1887 1888
1839 1 1888 1889
1840 1 1889 1890
1841 1 1890 1891
1842 1 1891 1892
1843 1 1892 1893
1844 1 1893 1894
1845 1 1894 1895
1846 1 1895 1896
1847 1 33 1877
1848 1 1896 34
1849 1 1897 1898
1850 1 1898 1899
1851 1 1899 1900
1852 1 1900 1901
1853 1 1901 1902
1854 1 1902 1903
1855 1 1903 1904
1856 1 1904 1905
1857 1 1905 1906
1858 1 1906 1907
1859 1 1907 1908
1860 1 1908 1909
1861 1 1909 1910
1862 1 1910 1911
1863 1 1911 1912
1864 1 1912 1913
1865 1 1913 1914
1866 1 1914 1915
1867 1 1915 1916
1868 1 33 1897
1869 1 1916 56
1870 1 1903 1917
1871 1 1917 1918
1872 1 1918 1919
1873 1 1919 1920
1874 1 1920 1921
1875 1 1915 1922
1876 1 1922 1923
1877 1 1923 1924
1878 1 1924 1925
1879 1 1925 1926
1880 1 1927 1928
1881 1 1928 1929
1882 1 1929 1930
1883 1 1930 1931
1884 1 1931 1932
1885 1 1932 1933
1886 1 1933 1934
1887 1 1934 1935
1888 1 1935 1936
1889 1 1936 1937
1890 1 1937 1938
1891 1 1938 1939
1892 1 1939 1940
1893 1 1940 1941
1894 1 1941 1942
1895 1 1942 1943
1896 1 1943 1944
1897 1 1944 1945
1898 1 1945 1946
1899 1 34 1927
1900 1 1946 39
1901 1 1934 1947
1902 1 1947 1948
1903 1 1948 1949
1904 1 1949 1950
1905 1 1950 1951
1906 1 1943 1952
1907 1 1952 1953
1908 1 1953 1954
1909 1 1954 1955
1910 1 1955 1956
1911 1 1946 1957
1912 1 1957 1958
1913 1 1958 1959
1914 1 1959 1960
1915 1 1960 1961
1916 1 1962 1963
1917 1 1963 1964
1918 1 1964 1965
1919 1 1965 1966
1920 1 1966 1967
1921 1 1967 1968
1922 1 1968 1969
1923 1 1969 1970
1924 1 1970 1971
1925 1 1971 1972
1926 1 1972 1973
1927 1 1973 1974
1928 1 1974 1975
1929 1 1975 1976
1930 1 1976 1977
1931 1 1977 1978
1932 1 1978 1979
1933 1 1979 1980
1934 1 1980 1981
1935 1 35 1962
1936 1 1981 40
1937 1 1963 1982
1938 1 1982 1983
1939 1 1983 1984
1940 1 1984 1985
1941 1 1985 1986
1942 1 1987 1988
1943 1 1988 1989
1944 1 1989 1990
1945 1 1990 1991
1946 1 1991 1992
1947 1 1992 1993
1948 1 1993 1994
1949 1 1994 1995
1950 1 1995 1996
1951 1 1996 1997
1952 1 1997 1998
1953 1 1998 1999
1954 1 1999 2000
1955 1 2000 2001
1956 1 2001 2002
1957 1 2002 2003
1958 1 2003 2004
1959 1 2004 2005
1960 1 2005 2006
1961 1 36 1987
1962 1 2006 59
1963 1 2007 2008
1964 1 2008 2009
1965 1 2009 2010
1966 1 2010 2011
1967 1 2011 2012
1968 1 2012 2013
1969 1 2013 2014
1970 1 2014 2015
1971 1 2015 2016
1972 1 2016 2017
1973 1 2017 2018
1974 1 2018 2019
1975 1 2019 2020
1976 1 2020 2021
1977 1 2021 2022
1978 1 2022 2023
1979 1 2023 2024
1980 1 2024 2025
1981 1 2025 2026
1982 1 37 2007
1983 1 2026 38
1984 1 2007 2027
1985 1 2027 2028
1986 1 2028 2029
1987 1 2029 2030
1988 1 2030 2031
1989 1 2009 2032
1990 1 2032 2033
1991 1 2033 2034
1992 1 2034 2035
1993 1 2035 2036
1994 1 2037 2038
1995 1 2038 2039
1996 1 2039 2040
1997 1 2040 2041
1998 1 2041 2042
1999 1 2042 2043
2000 1 2043 2044
2001 1 2044 2045
2002 1 2045 2046
2003 1 2046 2047
2004 1 2047 2048
2005 1 2048 2049
2006 1 2049 2050
2007 1 2050 2051
2008 1 2051 2052
2009 1 2052 2053
2010 1 2053 2054
2011 1 2054 2055
2012 1 2055 2056
2013 1 37 2037
2014 1 2056 60
2015 1 2044 2057
2016 1 2057 2058
2017 1 2058 2059
2018 1 2059 2060
2019 1 2060 2061
2020 1 2062 2063
2021 1 2063 2064
2022 1 2064 2065
2023 1 2065 2066
2024 1 2066 2067
2025 1 2067 2068
2026 1 2068 2069
2027 1 2069 2070
2028 1 2070 2071
2029 1 2071 2072
2030 1 2072 2073
2031 1 2073 2074
2032 1 2074 2075
2033 1 2075 2076
2034 1 2076 2077
2035 1 2077 2078
2036 1 2078 2079
2037 1 2079 2080
2038 1 2080 2081
2039 1 38 2062
2040 1 2081 39
2041 1 2077 2082
2042 1 2082 2083
2043 1 2083 2084
2044 1 2084 2085
2045 1 2085 2086
2046 1 2087 2088
2047 1 2088 2089
2048 1 2089 2090
2049 1 2090 2091
2050 1 2091 2092
2051 1 2092 2093
2052 1 2093 2094
2053 1 2094 2095
2054 1 2095 2096
2055 1 2096 2097
2056 1 2097 2098
2057 1 2098 2099
2058 1 2099 2100
2059 1 2100 2101
2060 1 2101 2102
2061 1 2102 2103
2062 1 2103 2104
2063 1 2104 2105
2064 1 2105 2106
2065 1 38 2087
2066 1 2106 42
2067 1 2089 2107
2068 1 2107 2108
2069 1 2108 2109
2070 1 2109 2110
2071 1 2110 2111
2072 1 2112 2113
2073 1 2113 2114
2074 1 2114 2115
2075 1 2115 2116
2076 1 2116 2117
2077 1 2117 2118
2078 1 2118 2119
2079 1 2119 2120
2080 1 2120 2121
2081 1 2121 2122
2082 1 2122 2123
2083 1 2123 2124
2084 1 2124 2125
2085 1 2125 2126
2086 1 2126 2127
2087 1 2127 2128
2088 1 2128 2129
2089 1 2129 2130
2090 1 2130 2131
2091 1 38 2112
2092 1 2131 61
2093 1 2132 2133
2094 1 2133 2134
2095 1 2134 2135
2096 1 2135 2136
2097 1 2136 2137
2098 1 2137 2138
2099 1 2138 2139
2100 1 2139 2140
2101 1 2140 2141
2102 1 2141 2142
2103 1 2142 2143
2104 1 2143 2144
2105 1 2144 2145
2106 1 2145 2146
2107 1 2146 2147
2108 1 2147 2148
2109 1 2148 2149
2110 1 2149 2150
2111 1 2150 2151
2112 1 39 2132
2113 1 2151 43
2114 1 2152 2153
2115 1 2153 2154
2116 1 2154 2155
2117 1 2155 2156
2118 1 2156 2157
2119 1 2157 2158
2120 1 2158 2159
2121 1 2159 2160
2122 1 2160 2161
2123 1 2161 2162
2124 1 2162 2163
2125 1 2163 2164
2126 1 2164 2165
2127 1 2165 2166
2128 1 2166 2167
2129 1 2167 2168
2130 1 2168 2169
2131 1 2169 2170
2132 1 2170 2171
2133 1 39 2152
2134 1 2171 62
2135 1 2155 2172
2136 1 2172 2173
2137 1 2173 2174
2138 1 2174 2175
2139 1 2175 2176
2140 1 2177 2178
2141 1 2178 2179
2142 1 2179 2180
2143 1 2180 2181
2144 1 2181 2182
2145 1 2182 2183
2146 1 2183 2184
2147 1 2184 2185
2148 1 2185 2186
2149 1 2186 2187
2150 1 2187 2188
2151 1 2188 2189
2152 1 2189 2190
2153 1 2190 2191
2154 1 2191 2192
2155 1 2192 2193
2156 1 2193 2194
2157 1 2194 2195
2158 1 2195 2196
2159 1 40 2177
2160 1 2196 44
2161 1 2197 2198
2162 1 2198 2199
2163 1 2199 2200
2164 1 2200 2201
2165 1 2201 2202
2166 1 2202 2203
2167 1 2203 2204
2168 1 2204 2205
2169 1 2205 2206
2170 1 2206 2207
2171 1 2207 2208
2172 1 2208 2209
2173 1 2209 2210
2174 1 2210 2211
2175 1 2211 2212
2176 1 2212 2213
2177 1 2213 2214
2178 1 2214 2215
2179 1 2215 2216
2180 1 40 2197
2181 1 2216 43
2182 1 2202 2217
2183 1 2217 2218
2184 1 2218 2219
2185 1 2219 2220
2186 1 2220 2221
2187 1 2204 2222
2188 1 2222 2223
2189 1 2223 2224
2190 1 2224 2225
2191 1 2225 2226
2192 1 2207 2227
2193 1 2227 2228
2194 1 2228 2229
2195 1 2229 2230
2196 1 2230 2231
2197 1 2208 2232
2198 1 2232 2233
2199 1 2233 2234
2200 1 2234 2235
2201 1 2235 2236
2202 1 2209 2237
2203 1 2237 2238
2204 1 2238 2239
2205 1 2239 2240
2206 1 2240 2241
2207 1 2242 2243
2208 1 2243 2244
2209 1 2244 2245
2210 1 2245 2246
2211 1 2246 2247
2212 1 2247 2248
2213 1 2248 2249
2214 1 2249 2250
2215 1 2250 2251
2216 1 2251 2252
2217 1 2252 2253
2218 1 2253 2254
2219 1 2254 2255
2220 1 2255 2256
2221 1 2256 2257
2222 1 2257 2258
2223 1 2258 2259
2224 1 2259 2260
2225 1 2260 2261
2226 1 41 2242
2227 1 2261 42
2228 1 2249 2262
2229 1 2262 2263
2230 1 2263 2264
2231 1 2264 2265
2232 1 2265 2266
2233 1 2267 2268
2234 1 2268 2269
2235 1 2269 2270
2236 1 2270 2271
2237 1 2271 2272
2238 1 2272 2273
2239 1 2273 2274
2240 1 2274 2275
2241 1 2275 2276
2242 1 2276 2277
2243 1 2277 2278
2244 1 2278 2279
2245 1 2279 2280
2246 1 2280 2281
2247 1 2281 2282
2248 1 2282 2283
2249 1 2283 2284
2250 1 2284 2285
2251 1 2285 2286
2252 1 41 2267
2253 1 2286 64
2254 1 2270 2287
2255 1 2287 2288
2256 1 2288 2289
2257 1 2289 2290
2258 1 2290 2291
2259 1 2276 2292
2260 1 2292 2293
2261 1 2293 2294
2262 1 2294 2295
2263 1 2295 2296
2264 1 2286 2297
2265 1 2297 2298
2266 1 2298 2299
2267 1 2299 2300
2268 1 2300 2301
2269 1 2302 2303
2270 1 2303 2304
2271 1 2304 2305
2272 1 2305 2306
2273 1 2306 2307
2274 1 2307 2308
2275 1 2308 2309
2276 1 2309 2310
2277 1 2310 2311
2278 1 2311 2312
2279 1 2312 2313
2280 1 2313 2314
2281 1 2314 2315
2282 1 2315 2316
2283 1 2316 2317
2284 1 2317 2318
2285 1 2318 2319
2286 1 2319 2320
2287 1 2320 2321
2288 1 42 2302
2289 1 2321 47
2290 1 2304 2322
2291 1 2322 2323
2292 1 2323 2324
2293 1 2324 2325
2294 1 2325 2326
2295 1 2327 2328
2296 1 2328 2329
2297 1 2329 2330
2298 1 2330 2331
2299 1 2331 2332
2300 1 2332 2333
2301 1 2333 2334
2302 1 2334 2335
2303 1 2335 2336
2304 1 2336 2337
2305 1 2337 2338
2306 1 2338 2339
2307 1 2339 2340
2308 1 2340 2341
2309 1 2341 2342
2310 1 2342 2343
2311 1 2343 2344
2312 1 2344 2345
2313 1 2345 2346
2314 1 43 2327
2315 1 2346 48
2316 1 2347 2348
2317 1 2348 2349
2318 1 2349 2350
2319 1 2350 2351
2320 1 2351 2352
2321 1 2352 2353
2322 1 2353 2354
2323 1 2354 2355
2324 1 2355 2356
2325 1 2356 2357
2326 1 2357 2358
2327 1 2358 2359
2328 1 2359 2360
2329 1 2360 2361
2330 1 2361 2362
2331 1 2362 2363
2332 1 2363 2364
2333 1 2364 2365
2334 1 2365 2366
2335 1 44 2347
2336 1 2366 67
2337 1 2367 2368
2338 1 2368 2369
2339 1 2369 2370
2340 1 2370 2371
2341 1 2371 2372
2342 1 2372 2373
2343 1 2373 2374
2344 1 2374 2375
2345 1 2375 2376
2346 1 2376 2377
2347 1 2377 2378
2348 1 2378 2379
2349 1 2379 2380
2350 1 2380 2381
2351 1 2381 2382
2352 1 2382 2383
2353 1 2383 2384
2354 1 2384 2385
2355 1 2385 2386
2356 1 45 2367
2357 1 2386 68
2358 1 2371 2387
2359 1 2387 2388
2360 1 2388 2389
2361 1 2389 2390
2362 1 2390 2391
2363 1 2392 2393
2364 1 2393 2394
2365 1 2394 2395
2366 1 2395 2396
2367 1 2396 2397
2368 1 2397 2398
2369 1 2398 2399
2370 1 2399 2400
2371 1 2400 2401
2372 1 2401 2402
2373 1 2402 2403
2374 1 2403 2404
2375 1 2404 2405
2376 1 2405 2406
2377 1 2406 2407
2378 1 2407 2408
2379 1 2408 2409
2380 1 2409 2410
2381 1 2410 2411
2382 1 47 2392
2383 1 2411 48
2384 1 2398 2412
2385 1 2412 2413
2386 1 2413 2414
2387 1 2414 2415
2388 1 2415 2416
2389 1 2399 2417
2390 1 2417 2418
2391 1 2418 2419
2392 1 2419 2420
2393 1 2420 2421
2394 1 2408 2422
2395 1 2422 2423
2396 1 2423 2424
2397 1 2424 2425
2398 1 2425 2426
2399 1 2410 2427
2400 1 2427 2428
2401 1 2428 2429
2402 1 2429 2430
2403 1 2430 2431
2404 1 2432 2433
2405 1 2433 2434
2406 1 2434 2435
2407 1 2435 2436
2408 1 2436 2437
2409 1 2437 2438
2410 1 2438 2439
2411 1 2439 2440
2412 1 2440 2441
2413 1 2441 2442
2414 1 2442 2443
2415 1 2443 2444
2416 1 2444 2445
2417 1 2445 2446
2418 1 2446 2447
2419 1 2447 2448
2420 1 2448 2449
2421 1 2449 2450
2422 1 2450 2451
2423 1 48 2432
2424 1 2451 71
2425 1 2452 2453
2426 1 2453 2454
2427 1 2454 2455
2428 1 2455 2456
2429 1 2456 2457
2430 1 2457 2458
2431 1 2458 2459
2432 1 2459 2460
2433 1 2460 2461
2434 1 2461 2462
2435 1 2462 2463
2436 1 2463 2464
2437 1 2464 2465
2438 1 2465 2466
2439 1 2466 2467
2440 1 2467 2468
2441 1 2468 2469
2442 1 2469 2470
2443 1 2470 2471
2444 1 50 2452
2445 1 2471 51
2446 1 2472 2473
2447 1 2473 2474
2448 1 2474 2475
2449 1 2475 2476
2450 1 2476 2477
2451 1 2477 2478
2452 1 2478 2479
2453 1 2479 2480
2454 1 2480 2481
2455 1 2481 2482
2456 1 2482 2483
2457 1 2483 2484
2458 1 2484 2485
2459 1 2485 2486
2460 1 2486 2487
2461 1 2487 2488
2462 1 2488 2489
2463 1 2489 2490
2464 1 2490 2491
2465 1 50 2472
2466 1 2491 55
2467 1 2492 2493
2468 1 2493 2494
2469 1 2494 2495
2470 1 2495 2496
2471 1 2496 2497
2472 1 2497 2498
2473 1 2498 2499
2474 1 2499 2500
2475 1 2500 2501
2476 1 2501 2502
2477 1 2502 2503
2478 1 2503 2504
2479 1 2504 2505
2480 1 2505 2506
2481 1 2506 2507
2482 1 2507 2508
2483 1 2508 2509
2484 1 2509 2510
2485 1 2510 2511
2486 1 50 2492
2487 1 2511 74
2488 1 2512 2513
2489 1 2513 2514
2490 1 2514 2515
2491 1 2515 2516
2492 1 2516 2517
2493 1 2517 2518
2494 1 2518 2519
2495 1 2519 2520
2496 1 2520 2521
2497 1 2521 2522
2498 1 2522 2523
2499 1 2523 2524
2500 1 2524 2525
2501 1 2525 2526
2502 1 2526 2527
2503 1 2527 2528
2504 1 2528 2529
2505 1 2529 2530
2506 1 2530 2531
2507 1 51 2512
2508 1 2531 56
2509 1 2512 2532
2510 1 2532 2533
2511 1 2533 2534
2512 1 2534 2535
2513 1 2535 2536
2514 1 2537 2538
2515 1 2538 2539
2516 1 2539 2540
2517 1 2540 2541
2518 1 2541 2542
2519 1 2542 2543
2520 1 2543 2544
2521 1 2544 2545
2522 1 2545 2546
2523 1 2546 2547
2524 1 2547 2548
2525 1 2548 2549
2526 1 2549 2550
2527 1 2550 2551
2528 1 2551 2552
2529 1 2552 2553
2530 1 2553 2554
2531 1 2554 2555
2532 1 2555 2556
2533 1 51 2537
2534 1 2556 75
2535 1 2556 2557
2536 1 2557 2558
2537 1 2558 2559
2538 1 2559 2560
2539 1 2560 2561
2540 1 2562 2563
2541 1 2563 2564
2542 1 2564 2565
2543 1 2565 2566
2544 1 2566 2567
2545 1 2567 2568
2546 1 2568 2569
2547 1 2569 2570
2548 1 2570 2571
2549 1 2571 2572
2550 1 2572 2573
2551 1 2573 2574
2552 1 2574 2575
2553 1 2575 2576
2554 1 2576 2577
2555 1 2577 2578
2556 1 2578 2579
2557 1 2579 2580
2558 1 2580 2581
2559 1 51 2562
2560 1 2581 70
2561 1 2563 2582
2562 1 2582 2583
2563 1 2583 2584
2564 1 2584 2585
2565 1 2585 2586
2566 1 2578 2587
2567 1 2587 2588
2568 1 2588 2589
2569 1 2589 2590
2570 1 2590 2591
2571 1 2592 2593
2572 1 2593 2594
2573 1 2594 2595
2574 1 2595 2596
2575 1 2596 2597
2576 1 2597 2598
2577 1 2598 2599
2578 1 2599 2600
2579 1 2600 2601
2580 1 2601 2602
2581 1 2602 2603
2582 1 2603 2604
2583 1 2604 2605
2584 1 2605 2606
2585 1 2606 2607
2586 1 2607 2608
2587 1 2608 2609
2588 1 2609 2610
2589 1 2610 2611
2590 1 52 2592
2591 1 2611 57
2592 1 2612 2613
2593 1 2613 2614
2594 1 2614 2615
2595 1 2615 2616
2596 1 2616 2617
2597 1 2617 2618
2598 1 2618 2619
2599 1 2619 2620
2600 1 2620 2621
2601 1 2621 2622
2602 1 2622 2623
2603 1 2623 2624
2604 1 2624 2625
2605 1 2625 2626
2606 1 2626 2627
2607 1 2627 2628
2608 1 2628 2629
2609 1 2629 2630
2610 1 2630 2631
2611 1 52 2612
2612 1 2631 76
2613 1 2613 2632
2614 1 2632 2633
2615 1 2633 2634
2616 1 2634 2635
2617 1 2635 2636
2618 1 2620 2637
2619 1 2637 2638
2620 1 2638 2639
2621 1 2639 2640
2622 1 2640 2641
2623 1 2642 2643
2624 1 2643 2644
2625 1 2644 2645
2626 1 2645 2646
2627 1 2646 2647
2628 1 2647 2648
2629 1 2648 2649
2630 1 2649 2650
2631 1 2650 2651
2632 1 2651 2652
2633 1 2652 2653
2634 1 2653 2654
2635 1 2654 2655
2636 1 2655 2656
2637 1 2656 2657
2638 1 2657 2658
2639 1 2658 2659
2640 1 2659 2660
2641 1 2660 2661
2642 1 52 2642
2643 1 2661 71
2644 1 2659 2662
2645 1 2662 2663
2646 1 2663 2664
2647 1 2664 2665
2648 1 2665 2666
2649 1 2667 2668
2650 1 2668 2669
2651 1 2669 2670
2652 1 2670 2671
2653 1 2671 2672
2654 1 2672 2673
2655 1 2673 2674
2656 1 2674 2675
2657 1 2675 2676
2658 1 2676 2677
2659 1 2677 2678
2660 1 2678 2679
2661 1 2679 2680
2662 1 2680 2681
2663 1 2681 2682
2664 1 2682 2683
2665 1 2683 2684
2666 1 2684 2685
2667 1 2685 2686
2668 1 53 2667
2669 1 2686 54
2670 1 2686 2687
2671 1 2687 2688
2672 1 2688 2689
2673 1 2689 2690
2674 1 2690 2691
2675 1 2692 2693
2676 1 2693 2694
2677 1 2694 2695
2678 1 2695 2696
2679 1 2696 2697
2680 1 2697 2698
2681 1 2698 2699
2682 1 2699 2700
2683 1 2700 2701
2684 1 2701 2702
2685 1 2702 2703
2686 1 2703 2704
2687 1 2704 2705
2688 1 2705 2706
2689 1 2706 2707
2690 1 2707 2708
2691 1 2708 2709
2692 1 2709 2710
2693 1 2710 2711
2694 1 53 2692
2695 1 2711 58
2696 1 2693 2712
2697 1 2712 2713
2698 1 2713 2714
2699 1 2714 2715
2700 1 2715 2716
2701 1 2699 2717
2702 1 2717 2718
2703 1 2718 2719
2704 1 2719 2720
2705 1 2720 2721
2706 1 2722 2723
2707 1 2723 2724
2708 1 2724 2725
2709 1 2725 2726
2710 1 2726 2727
2711 1 2727 2728
2712 1 2728 2729
2713 1 2729 2730
2714 1 2730 2731
2715 1 2731 2732
2716 1 2732 2733
2717 1 2733 2734
2718 1 2734 2735
2719 1 2735 2736
2720 1 2736 2737
2721 1 2737 2738
2722 1 2738 2739
2723 1 2739 2740
2724 1 2740 2741
2725 1 53 2722
2726 1 2741 77
2727 1 2742 2743
2728 1 2743 2744
2729 1 2744 2745
2730 1 2745 2746
2731 1 2746 2747
2732 1 2747 2748
2733 1 2748 2749
2734 1 2749 2750
2735 1 2750 2751
2736 1 2751 2752
2737 1 2752 2753
2738 1 2753 2754
2739 1 2754 2755
2740 1 2755 2756
2741 1 2756 2757
2742 1 2757 2758
2743 1 2758 2759
2744 1 2759 2760
2745 1 2760 2761
2746 1 53 2742
2747 1 2761 57
2748 1 2749 2762
2749 1 2762 2763
2750 1 2763 2764
2751 1 2764 2765
2752 1 2765 2766
2753 1 2752 2767
2754 1 2767 2768
2755 1 2768 2769
2756 1 2769 2770
2757 1 2770 2771
2758 1 2759 2772
2759 1 2772 2773
2760 1 2773 2774
2761 1 2774 2775
2762 1 2775 2776
2763 1 2777 2778
2764 1 2778 2779
2765 1 2779 2780
2766 1 2780 2781
2767 1 2781 2782
2768 1 2782 2783
2769 1 2783 2784
2770 1 2784 2785
2771 1 2785 2786
2772 1 2786 2787
2773 1 2787 2788
2774 1 2788 2789
2775 1 2789 2790
2776 1 2790 2791
2777 1 2791 2792
2778 1 2792 2793
2779 1 2793 2794
2780 1 2794 2795
2781 1 2795 2796
2782 1 54 2777
2783 1 2796 59
2784 1 2790 2797
2785 1 2797 2798
2786 1 2798 2799
2787 1 2799 2800
2788 1 2800 2801
2789 1 2792 2802
2790 1 2802 2803
2791 1 2803 2804
2792 1 2804 2805
2793 1 2805 2806
2794 1 2807 2808
2795 1 2808 2809
2796 1 2809 2810
2797 1 2810 2811
2798 1 2811 2812
2799 1 2812 2813
2800 1 2813 2814
2801 1 2814 2815
2802 1 2815 2816
2803 1 2816 2817
2804 1 2817 2818
2805 1 2818 2819
2806 1 2819 2820
2807 1 2820 2821
2808 1 2821 2822
2809 1 2822 2823
2810 1 2823 2824
2811 1 2824 2825
2812 1 2825 2826
2813 1 54 2807
2814 1 2826 78
2815 1 2827 2828
2816 1 2828 2829
2817 1 2829 2830
2818 1 2830 2831
2819 1 2831 2832
2820 1 2832 2833
2821 1 2833 2834
2822 1 2834 2835
2823 1 2835 2836
2824 1 2836 2837
2825 1 2837 2838
2826 1 2838 2839
2827 1 2839 2840
2828 1 2840 2841
2829 1 2841 2842
2830 1 2842 2843
2831 1 2843 2844
2832 1 2844 2845
2833 1 2845 2846
2834 1 55 2827
2835 1 2846 56
2836 1 2829 2847
2837 1 2847 2848
2838 1 2848 2849
2839 1 2849 2850
2840 1 2850 2851
2841 1 2840 2852
2842 1 2852 2853
2843 1 2853 2854
2844 1 2854 2855
2845 1 2855 2856
2846 1 2857 2858
2847 1 2858 2859
2848 1 2859 2860
2849 1 2860 2861
2850 1 2861 2862
2851 1 2862 2863
2852 1 2863 2864
2853 1 2864 2865
2854 1 2865 2866
2855 1 2866 2867
2856 1 2867 2868
2857 1 2868 2869
2858 1 2869 2870
2859 1 2870 2871
2860 1 2871 2872
2861 1 2872 2873
2862 1 2873 2874
2863 1 2874 2875
2864 1 2875 2876
2865 1 57 2857
2866 1 2876 62
2867 1 2861 2877
2868 1 2877 2878
2869 1 2878 2879
2870 1 2879 2880
2871 1 2880 2881
2872 1 2867 2882
2873 1 2882 2883
2874 1 2883 2884
2875 1 2884 2885
2876 1 2885 2886
2877 1 2874 2887
2878 1 2887 2888
2879 1 2888 2889
2880 1 2889 2890
2881 1 2890 2891
2882 1 2892 2893
2883 1 2893 2894
2884 1 2894 2895
2885 1 2895 2896
2886 1 2896 2897
2887 1 2897 2898
2888 1 2898 2899
2889 1 2899 2900
2890 1 2900 2901
2891 1 2901 2902
2892 1 2902 2903
2893 1 2903 2904
2894 1 2904 2905
2895 1 2905 2906
2896 1 2906 2907
2897 1 2907 2908
2898 1 2908 2909
2899 1 2909 2910
2900 1 2910 2911
2901 1 57 2892
2902 1 2911 81
2903 1 2912 2913
2904 1 2913 2914
2905 1 2914 2915
2906 1 2915 2916
2907 1 2916 2917
2908 1 2917 2918
2909 1 2918 2919
2910 1 2919 2920
2911 1 2920 2921
2912 1 2921 2922
2913 1 2922 2923
2914 1 2923 2924
2915 1 2924 2925
2916 1 2925 2926
2917 1 2926 2927
2918 1 2927 2928
2919 1 2928 2929
2920 1 2929 2930
2921 1 2930 2931
2922 1 58 2912
2923 1 2931 82
2924 1 2915 2932
2925 1 2932 2933
2926 1 2933 2934
2927 1 2934 2935
2928 1 2935 2936
2929 1 2937 2938
2930 1 2938 2939
2931 1 2939 2940
2932 1 2940 2941
2933 1 2941 2942
2934 1 2942 2943
2935 1 2943 2944
2936 1 2944 2945
2937 1 2945 2946
2938 1 2946 2947
2939 1 2947 2948
2940 1 2948 2949
2941 1 2949 2950
2942 1 2950 2951
2943 1 2951 2952
2944 1 2952 2953
2945 1 2953 2954
2946 1 2954 2955
2947 1 2955 2956
2948 1 58 2937
2949 1 2956 62
2950 1 2949 2957
2951 1 2957 2958
2952 1 2958 2959
2953 1 2959 2960
2954 1 2960 2961
2955 1 2962 2963
2956 1 2963 2964
2957 1 2964 2965
2958 1 2965 2966
2959 1 2966 2967
2960 1 2967 2968
2961 1 2968 2969
2962 1 2969 2970
2963 1 2970 2971
2964 1 2971 2972
2965 1 2972 2973
2966 1 2973 2974
2967 1 2974 2975
2968 1 2975 2976
2969 1 2976 2977
2970 1 2977 2978
2971 1 2978 2979
2972 1 2979 2980
2973 1 2980 2981
2974 1 59 2962
2975 1 2981 63
2976 1 2982 2983
2977 1 2983 2984
2978 1 2984 2985
2979 1 2985 2986
2980 1 2986 2987
2981 1 2987 2988
2982 1 2988 2989
2983 1 2989 2990
2984 1 2990 2991
2985 1 2991 2992
2986 1 2992 2993
2987 1 2993 2994
2988 1 2994 2995
2989 1 2995 2996
2990 1 2996 2997
2991 1 2997 2998
2992 1 2998 2999
2993 1 2999 3000
2994 1 3000 3001
2995 1 59 2982
2996 1 3001 83
2997 1 2992 3002
2998 1 3002 3003
2999 1 3003 3004
3000 1 3004 3005
3001 1 3005 3006
3002 1 3000 3007
3003 1 3007 3008
3004 1 3008 3009
3005 1 3009 3010
3006 1 3010 3011
3007 1 3012 3013
3008 1 3013 3014
3009 1 3014 3015
3010 1 3015 3016
3011 1 3016 3017
3012 1 3017 3018
3013 1 3018 3019
3014 1 3019 3020
3015 1 3020 3021
3016 1 3021 3022
3017 1 3022 3023
3018 1 3023 3024
3019 1 3024 3025
3020 1 3025 3026
3021 1 3026 3027
3022 1 3027 3028
3023 1 3028 3029
3024 1 3029 3030
3025 1 3030 3031
3026 1 60 3012
3027 1 3031 61
3028 1 3024 3032
3029 1 3032 3033
3030 1 3033 3034
3031 1 3034 3035
3032 1 3035 3036
3033 1 3028 3037
3034 1 3037 3038
3035 1 3038 3039
3036 1 3039 3040
3037 1 3040 3041
3038 1 3042 3043
3039 1 3043 3044
3040 1 3044 3045
3041 1 3045 3046
3042 1 3046 3047
3043 1 3047 3048
3044 1 3048 3049
3045 1 3049 3050
3046 1 3050 3051
3047 1 3051 3052
3048 1 3052 3053
3049 1 3053 3054
3050 1 3054 3055
3051 1 3055 3056
3052 1 3056 3057
3053 1 3057 3058
3054 1 3058 3059
3055 1 3059 3060
3056 1 3060 3061
3057 1 60 3042
3058 1 3061 64
3059 1 3062 3063
3060 1 3063 3064
3061 1 3064 3065
3062 1 3065 3066
3063 1 3066 3067
3064 1 3067 3068
3065 1 3068 3069
3066 1 3069 3070
3067 1 3070 3071
3068 1 3071 3072
3069 1 3072 3073
3070 1 3073 3074
3071 1 3074 3075
3072 1 3075 3076
3073 1 3076 3077
3074 1 3077 3078
3075 1 3078 3079
3076 1 3079 3080
3077 1 3080 3081
3078 1 60 3062
3079 1 3081 84
3080 1 3071 3082
3081 1 3082 3083
3082 1 3083 3084
3083 1 3084 3085
3084 1 3085 3086
3085 1 3074 3087
3086 1 3087 3088
3087 1 3088 3089
3088 1 3089 3090
3089 1 3090 3091
3090 1 3076 3092
3091 1 3092 3093
3092 1 3093 3094
3093 1 3094 3095
3094 1 3095 3096
3095 1 3097 3098
3096 1 3098 3099
3097 1 3099 3100
3098 1 3100 3101
3099 1 3101 3102
3100 1 3102 3103
3101 1 3103 3104
3102 1 3104 3105
3103 1 3105 3106
3104 1 3106 3107
3105 1 3107 3108
3106 1 3108 3109
3107 1 3109 3110
3108 1 3110 3111
3109 1 3111 3112
3110 1 3112 3113
3111 1 3113 3114
3112 1 3114 3115
3113 1 3115 3116
3114 1 61 3097
3115 1 3116 65
3116 1 3100 3117
3117 1 3117 3118
3118 1 3118 3119
3119 1 3119 3120
3120 1 3120 3121
3121 1 3122 3123
3122 1 3123 3124
3123 1 3124 3125
3124 1 3125 3126
3125 1 3126 3127
3126 1 3127 3128
3127 1 3128 3129
3128 1 3129 3130
3129 1 3130 3131
3130 1 3131 3132
3131 1 3132 3133
3132 1 3133 3134
3133 1 3134 3135
3134 1 3135 3136
3135 1 3136 3137
3136 1 3137 3138
3137 1 3138 3139
3138 1 3139 3140
3139 1 3140 3141
3140 1 61 3122
3141 1 3141 85
3142 1 3129 3142
3143 1 3142 3143
3144 1 3143 3144
3145 1 3144 3145
3146 1 3145 3146
3147 1 3147 3148
3148 1 3148 3149
3149 1 3149 3150
3150 1 3150 3151
3151 1 3151 3152
3152 1 3152 3153
3153 1 3153 3154
3154 1 3154 3155
3155 1 3155 3156
3156 1 3156 3157
3157 1 3157 3158
3158 1 3158 3159
3159 1 3159 3160
3160 1 3160 3161
3161 1 3161 3162
3162 1 3162 3163
3163 1 3163 3164
3164 1 3164 3165
3165 1 3165 3166
3166 1 62 3147
3167 1 3166 66
3168 1 3154 3167
3169 1 3167 3168
3170 1 3168 3169
3171 1 3169 3170
3172 1 3170 3171
3173 1 3172 3173
3174 1 3173 3174
3175 1 3174 3175
3176 1 3175 3176
3177 1 3176 3177
3178 1 3177 3178
3179 1 3178 3179
3180 1 3179 3180
3181 1 3180 3181
3182 1 3181 3182
3183 1 3182 3183
3184 1 3183 3184
3185 1 3184 3185
3186 1 3185 3186
3187 1 3186 3187
3188 1 3187 3188
3189 1 3188 3189
3190 1 3189 3190
3191 1 3190 3191
3192 1 63 3172
3193 1 3191 68
3194 1 3192 3193
3195 1 3193 3194
3196 1 3194 3195
3197 1 3195 3196
3198 1 3196 3197
3199 1 3197 3198
3200 1 3198 3199
3201 1 3199 3200
3202 1 3200 3201
3203 1 3201 3202
3204 1 3202 3203
3205 1 3203 3204
3206 1 3204 3205
3207 1 3205 3206
3208 1 3206 3207
3209 1 3207 3208
3210 1 3208 3209
3211 1 3209 3210
3212 1 3210 3211
3213 1 63 3192
3214 1 3211 88
3215 1 3198 3212
3216 1 3212 3213
3217 1 3213 3214
3218 1 3214 3215
3219 1 3215 3216
3220 1 3217 3218
3221 1 3218 3219
3222 1 3219 3220
3223 1 3220 3221
3224 1 3221 3222
3225 1 3222 3223
3226 1 3223 3224
3227 1 3224 3225
3228 1 3225 3226
3229 1 3226 3227
3230 1 3227 3228
3231 1 3228 3229
3232 1 3229 3230
3233 1 3230 3231
3234 1 3231 3232
3235 1 3232 3233
3236 1 3233 3234
3237 1 3234 3235
3238 1 3235 3236
3239 1 64 3217
3240 1 3236 65
3241 1 3218 3237
3242 1 3237 3238
3243 1 3238 3239
3244 1 3239 3240
3245 1 3240 3241
3246 1 3223 3242
3247 1 3242 3243
3248 1 3243 3244
3249 1 3244 3245
3250 1 3245 3246
3251 1 3247 3248
3252 1 3248 3249
3253 1 3249 3250
3254 1 3250 3251
3255 1 3251 3252
3256 1 3252 3253
3257 1 3253 3254
3258 1 3254 3255
3259 1 3255 3256
3260 1 3256 3257
3261 1 3257 3258
3262 1 3258 3259
3263 1 3259 3260
3264 1 3260 3261
3265 1 3261 3262
3266 1 3262 3263
3267 1 3263 3264
3268 1 3264 3265
3269 1 3265 3266
3270 1 64 3247
3271 1 3266 89
3272 1 3259 3267
3273 1 3267 3268
3274 1 3268 3269
3275 1 3269 3270
3276 1 3270 3271
3277 1 3261 3272
3278 1 3272 3273
3279 1 3273 3274
3280 1 3274 3275
3281 1 3275 3276
3282 1 3277 3278
3283 1 3278 3279
3284 1 3279 3280
3285 1 3280 3281
3286 1 3281 3282
3287 1 3282 3283
3288 1 3283 3284
3289 1 3284 3285
3290 1 3285 3286
3291 1 3286 3287
3292 1 3287 3288
3293 1 3288 3289
3294 1 3289 3290
3295 1 3290 3291
3296 1 3291 3292
3297 1 3292 3293
3298 1 3293 3294
3299 1 3294 3295
3300 1 3295 3296
3301 1 65 3277
3302 1 3296 66
3303 1 3277 3297
3304 1 3297 3298
3305 1 3298 3299
3306 1 3299 3300
3307 1 3300 3301
3308 1 3280 3302
3309 1 3302 3303
3310 1 3303 3304
3311 1 3304 3305
3312 1 3305 3306
3313 1 3307 3308
3314 1 3308 3309
3315 1 3309 3310
3316 1 3310 3311
3317 1 3311 3312
3318 1 3312 3313
3319 1 3313 3314
3320 1 3314 3315
3321 1 3315 3316
3322 1 3316 3317
3323 1 3317 3318
3324 1 3318 3319
3325 1 3319 3320
3326 1 3320 3321
3327 1 3321 3322
3328 1 3322 3323
3329 1 3323 3324
3330 1 3324 3325
3331 1 3325 3326
3332 1 65 3307
3333 1 3326 70
3334 1 3307 3327
3335 1 3327 3328
3336 1 3328 3329
3337 1 3329 3330
3338 1 3330 3331
3339 1 3314 3332
3340 1 3332 3333
3341 1 3333 3334
3342 1 3334 3335
3343 1 3335 3336
3344 1 3337 3338
3345 1 3338 3339
3346 1 3339 3340
3347 1 3340 3341
3348 1 3341 3342
3349 1 3342 3343
3350 1 3343 3344
3351 1 3344 3345
3352 1 3345 3346
3353 1 3346 3347
3354 1 3347 3348
3355 1 3348 3349
3356 1 3349 3350
3357 1 3350 3351
3358 1 3351 3352
3359 1 3352 3353
3360 1 3353 3354
3361 1 3354 3355
3362 1 3355 3356
3363 1 66 3337
3364 1 3356 91
3365 1 3346 3357
3366 1 3357 3358
3367 1 3358 3359
3368 1 3359 3360
3369 1 3360 3361
3370 1 3355 3362
3371 1 3362 3363
3372 1 3363 3364
3373 1 3364 3365
3374 1 3365 3366
3375 1 3367 3368
3376 1 3368 3369
3377 1 3369 3370
3378 1 3370 3371
3379 1 3371 3372
3380 1 3372 3373
3381 1 3373 3374
3382 1 3374 3375
3383 1 3375 3376
3384 1 3376 3377
3385 1 3377 3378
3386 1 3378 3379
3387 1 3379 3380
3388 1 3380 3381
3389 1 3381 3382
3390 1 3382 3383
3391 1 3383 3384
3392 1 3384 3385
3393 1 3385 3386
3394 1 67 3367
3395 1 3386 68
3396 1 3371 3387
3397 1 3387 3388
3398 1 3388 3389
3399 1 3389 3390
3400 1 3390 3391
3401 1 3392 3393
3402 1 3393 3394
3403 1 3394 3395
3404 1 3395 3396
3405 1 3396 3397
3406 1 3397 3398
3407 1 3398 3399
3408 1 3399 3400
3409 1 3400 3401
3410 1 3401 3402
3411 1 3402 3403
3412 1 3403 3404
3413 1 3404 3405
3414 1 3405 3406
3415 1 3406 3407
3416 1 3407 3408
3417 1 3408 3409
3418 1 3409 3410
3419 1 3410 3411
3420 1 67 3392
3421 1 3411 92
3422 1 3412 3413
3423 1 3413 3414
3424 1 3414 3415
3425 1 3415 3416
3426 1 3416 3417
3427 1 3417 3418
3428 1 3418 3419
3429 1 3419 3420
3430 1 3420 3421
3431 1 3421 3422
3432 1 3422 3423
3433 1 3423 3424
3434 1 3424 3425
3435 1 3425 3426
3436 1 3426 3427
3437 1 3427 3428
3438 1 3428 3429
3439 1 3429 3430
3440 1 3430 3431
3441 1 68 3412
3442 1 3431 69
3443 1 3432 3433
3444 1 3433 3434
3445 1 3434 3435
3446 1 3435 3436
3447 1 3436 3437
3448 1 3437 3438
3449 1 3438 3439
3450 1 3439 3440
3451 1 3440 3441
3452 1 3441 3442
3453 1 3442 3443
3454 1 3443 3444
3455 1 3444 3445
3456 1 3445 3446
3457 1 3446 3447
3458 1 3447 3448
3459 1 3448 3449
3460 1 3449 3450
3461 1 3450 3451
3462 1 70 3432
3463 1 3451 71
3464 1 3450 3452
3465 1 3452 3453
3466 1 3453 3454
3467 1 3454 3455
3468 1 3455 3456
3469 1 3457 3458
3470 1 3458 3459
3471 1 3459 3460
3472 1 3460 3461
3473 1 3461 3462
3474 1 3462 3463
3475 1 3463 3464
3476 1 3464 3465
3477 1 3465 3466
3478 1 3466 3467
3479 1 3467 3468
3480 1 3468 3469
3481 1 3469 3470
3482 1 3470 3471
3483 1 3471 3472
3484 1 3472 3473
3485 1 3473 3474
3486 1 3474 3475
3487 1 3475 3476
3488 1 70 3457
3489 1 3476 95
3490 1 3477 3478
3491 1 3478 3479
3492 1 3479 3480
3493 1 3480 3481
3494 1 3481 3482
3495 1 3482 3483
3496 1 3483 3484
3497 1 3484 3485
3498 1 3485 3486
3499 1 3486 3487
3500 1 3487 3488
3501 1 3488 3489
3502 1 3489 3490
3503 1 3490 3491
3504 1 3491 3492
3505 1 3492 3493
3506 1 3493 3494
3507 1 3494 3495
3508 1 3495 3496
3509 1 71 3477
3510 1 3496 96
3511 1 3478 3497
3512 1 3497 3498
3513 1 3498 3499
3514 1 3499 3500
3515 1 3500 3501
3516 1 3502 3503
3517 1 3503 3504
3518 1 3504 3505
3519 1 3505 3506
3520 1 3506 3507
3521 1 3507 3508
3522 1 3508 3509
3523 1 3509 3510
3524 1 3510 3511
3525 1 3511 3512
3526 1 3512 3513
3527 1 3513 3514
3528 1 3514 3515
3529 1 3515 3516
3530 1 3516 3517
3531 1 3517 3518
3532 1 3518 3519
3533 1 3519 3520
3534 1 3520 3521
3535 1 72 3502
3536 1 3521 73
3537 1 3507 3522
3538 1 3522 3523
3539 1 3523 3524
3540 1 3524 3525
3541 1 3525 3526
3542 1 3527 3528
3543 1 3528 3529
3544 1 3529 3530
3545 1 3530 3531
3546 1 3531 3532
3547 1 3532 3533
3548 1 3533 3534
3549 1 3534 3535
3550 1 3535 3536
3551 1 3536 3537
3552 1 3537 3538
3553 1 3538 3539
3554 1 3539 3540
3555 1 3540 3541
3556 1 3541 3542
3557 1 3542 3543
3558 1 3543 3544
3559 1 3544 3545
3560 1 3545 3546
3561 1 73 3527
3562 1 3546 98
3563 1 3534 3547
3564 1 3547 3548
3565 1 3548 3549
3566 1 3549 3550
3567 1 3550 3551
3568 1 3552 3553
3569 1 3553 3554
3570 1 3554 3555
3571 1 3555 3556
3572 1 3556 3557
3573 1 3557 3558
3574 1 3558 3559
3575 1 3559 3560
3576 1 3560 3561
3577 1 3561 3562
3578 1 3562 3563
3579 1 3563 3564
3580 1 3564 3565
3581 1 3565 3566
3582 1 3566 3567
3583 1 3567 3568
3584 1 3568 3569
3585 1 3569 3570
3586 1 3570 3571
3587 1 73 3552
3588 1 3571 93
3589 1 3560 3572
3590 1 3572 3573
3591 1 3573 3574
3592 1 3574 3575
3593 1 3575 3576
3594 1 3562 3577
3595 1 3577 3578
3596 1 3578 3579
3597 1 3579 3580
3598 1 3580 3581
3599 1 3582 3583
3600 1 3583 3584
3601 1 3584 3585
3602 1 3585 3586
3603 1 3586 3587
3604 1 3587 3588
3605 1 3588 3589
3606 1 3589 3590
3607 1 3590 3591
3608 1 3591 3592
3609 1 3592 3593
3610 1 3593 3594
3611 1 3594 3595
3612 1 3595 3596
3613 1 3596 3597
3614 1 3597 3598
3615 1 3598 3599
3616 1 3599 3600
3617 1 3600 3601
3618 1 74 3582
3619 1 3601 75
3620 1 3582 3602
3621 1 3602 3603
3622 1 3603 3604
3623 1 3604 3605
3624 1 3605 3606
3625 1 3589 3607
3626 1 3607 3608
3627 1 3608 3609
3628 1 3609 3610
3629 1 3610 3611
3630 1 3592 3612
3631 1 3612 3613
3632 1 3613 3614
3633 1 3614 3615
3634 1 3615 3616
3635 1 3598 3617
3636 1 3617 3618
3637 1 3618 3619
3638 1 3619 3620
3639 1 3620 3621
3640 1 3622 3623
3641 1 3623 3624
3642 1 3624 3625
3643 1 3625 3626
3644 1 3626 3627
3645 1 3627 3628
3646 1 3628 3629
3647 1 3629 3630
3648 1 3630 3631
3649 1 3631 3632
3650 1 3632 3633
3651 1 3633 3634
3652 1 3634 3635
3653 1 3635 3636
3654 1 3636 3637
3655 1 3637 3638
3656 1 3638 3639
3657 1 3639 3640
3658 1 3640 3641
3659 1 74 3622
3660 1 3641 99
3661 1 3623 3642
3662 1 3642 3643
3663 1 3643 3644
3664 1 3644 3645
3665 1 3645 3646
3666 1 3633 3647
3667 1 3647 3648
3668 1 3648 3649
3669 1 3649 3650
3670 1 3650 3651
3671 1 3652 3653
3672 1 3653 3654
3673 1 3654 3655
3674 1 3655 3656
3675 1 3656 3657
3676 1 3657 3658
3677 1 3658 3659
3678 1 3659 3660
3679 1 3660 3661
3680 1 3661 3662
3681 1 3662 3663
3682 1 3663 3664
3683 1 3664 3665
3684 1 3665 3666
3685 1 3666 3667
3686 1 3667 3668
3687 1 3668 3669
3688 1 3669 3670
3689 1 3670 3671
3690 1 74 3652
3691 1 3671 94
3692 1 3672 3673
3693 1 3673 3674
3694 1 3674 3675
3695 1 3675 3676
3696 1 3676 3677
3697 1 3677 3678
3698 1 3678 3679
3699 1 3679 3680
3700 1 3680 3681
3701 1 3681 3682
3702 1 3682 3683
3703 1 3683 3684
3704 1 3684 3685
3705 1 3685 3686
3706 1 3686 3687
3707 1 3687 3688
3708 1 3688 3689
3709 1 3689 3690
3710 1 3690 3691
3711 1 75 3672
3712 1 3691 80
3713 1 3692 3693
3714 1 3693 3694
3715 1 3694 3695
3716 1 3695 3696
3717 1 3696 3697
3718 1 3697 3698
3719 1 3698 3699
3720 1 3699 3700
3721 1 3700 3701
3722 1 3701 3702
3723 1 3702 3703
3724 1 3703 3704
3725 1 3704 3705
3726 1 3705 3706
3727 1 3706 3707
3728 1 3707 3708
3729 1 3708 3709
3730 1 3709 3710
3731 1 3710 3711
3732 1 75 3692
3733 1 3711 100
3734 1 3712 3713
3735 1 3713 3714
3736 1 3714 3715
3737 1 3715 3716
3738 1 3716 3717
3739 1 3717 3718
3740 1 3718 3719
3741 1 3719 3720
3742 1 3720 3721
3743 1 3721 3722
3744 1 3722 3723
3745 1 3723 3724
3746 1 3724 3725
3747 1 3725 3726
3748 1 3726 3727
3749 1 3727 3728
3750 1 3728 3729
3751 1 3729 3730
3752 1 3730 3731
3753 1 76 3712
3754 1 3731 101
3755 1 3732 3733
3756 1 3733 3734
3757 1 3734 3735
3758 1 3735 3736
3759 1 3736 3737
3760 1 3737 3738
3761 1 3738 3739
3762 1 3739 3740
3763 1 3740 3741
3764 1 3741 3742
3765 1 3742 3743
3766 1 3743 3744
3767 1 3744 3745
3768 1 3745 3746
3769 1 3746 3747
3770 1 3747 3748
3771 1 3748 3749
3772 1 3749 3750
3773 1 3750 3751
3774 1 76 3732
3775 1 3751 96
3776 1 3741 3752
3777 1 3752 3753
3778 1 3753 3754
3779 1 3754 3755
3780 1 3755 3756
3781 1 3757 3758
3782 1 3758 3759
3783 1 3759 3760
3784 1 3760 3761
3785 1 3761 3762
3786 1 3762 3763
3787 1 3763 3764
3788 1 3764 3765
3789 1 3765 3766
3790 1 3766 3767
3791 1 3767 3768
3792 1 3768 3769
3793 1 3769 3770
3794 1 3770 3771
3795 1 3771 3772
3796 1 3772 3773
3797 1 3773 3774
3798 1 3774 3775
3799 1 3775 3776
3800 1 77 3757
3801 1 3776 78
3802 1 3762 3777
3803 1 3777 3778
3804 1 3778 3779
3805 1 3779 3780
3806 1 3780 3781
3807 1 3782 3783
3808 1 3783 3784
3809 1 3784 3785
3810 1 3785 3786
3811 1 3786 3787
3812 1 3787 3788
3813 1 3788 3789
3814 1 3789 3790
3815 1 3790 3791
3816 1 3791 3792
3817 1 3792 3793
3818 1 3793 3794
3819 1 3794 3795
3820 1 3795 3796
3821 1 3796 3797
3822 1 3797 3798
3823 1 3798 3799
3824 1 3799 3800
3825 1 3800 3801
3826 1 77 3782
3827 1 3801 102
3828 1 3790 3802
3829 1 3802 3803
3830 1 3803 3804
3831 1 3804 3805
3832 1 3805 3806
3833 1 3798 3807
3834 1 3807 3808
3835 1 3808 3809
3836 1 3809 3810
3837 1 3810 3811
3838 1 3812 3813
3839 1 3813 3814
3840 1 3814 3815
3841 1 3815 3816
3842 1 3816 3817
3843 1 3817 3818
3844 1 3818 3819
3845 1 3819 3820
3846 1 3820 3821
3847 1 3821 3822
3848 1 3822 3823
3849 1 3823 3824
3850 1 3824 3825
3851 1 3825 3826
3852 1 3826 3827
3853 1 3827 3828
3854 1 3828 3829
3855 1 3829 3830
3856 1 3830 3831
3857 1 78 3812
3858 1 3831 79
3859 1 3823 3832
3860 1 3832 3833
3861 1 3833 3834
3862 1 3834 3835
3863 1 3835 3836
3864 1 3837 3838
3865 1 3838 3839
3866 1 3839 3840
3867 1 3840 3841
3868 1 3841 3842
3869 1 3842 3843
3870 1 3843 3844
3871 1 3844 3845
3872 1 3845 3846
3873 1 3846 3847
3874 1 3847 3848
3875 1 3848 3849
3876 1 3849 3850
3877 1 3850 3851
3878 1 3851 3852
3879 1 3852 3853
3880 1 3853 3854
3881 1 3854 3855
3882 1 3855 3856
3883 1 78 3837
3884 1 3856 103
3885 1 3837 3857
3886 1 3857 3858
3887 1 3858 3859
3888 1 3859 3860
3889 1 3860 3861
3890 1 3841 3862
3891 1 3862 3863
3892 1 3863 3864
3893 1 3864 3865
3894 1 3865 3866
3895 1 3867 3868
3896 1 3868 3869
3897 1 3869 3870
3898 1 3870 3871
3899 1 3871 3872
3900 1 3872 3873
3901 1 3873 3874
3902 1 3874 3875
3903 1 3875 3876
3904 1 3876 3877
3905 1 3877 3878
3906 1 3878 3879
3907 1 3879 3880
3908 1 3880 3881
3909 1 3881 3882
3910 1 3882 3883
3911 1 3883 3884
3912 1 3884 3885
3913 1 3885 3886
3914 1 79 3867
3915 1 3886 80
3916 1 3887 3888
3917 1 3888 3889
3918 1 3889 3890
3919 1 3890 3891
3920 1 3891 3892
3921 1 3892 3893
3922 1 3893 3894
3923 1 3894 3895
3924 1 3895 3896
3925 1 3896 3897
3926 1 3897 3898
3927 1 3898 3899
3928 1 3899 3900
3929 1 3900 3901
3930 1 3901 3902
3931 1 3902 3903
3932 1 3903 3904
3933 1 3904 3905
3934 1 3905 3906
3935 1 79 3887
3936 1 3906 84
3937 1 3888 3907
3938 1 3907 3908
3939 1 3908 3909
3940 1 3909 3910
3941 1 3910 3911
3942 1 3892 3912
3943 1 3912 3913
3944 1 3913 3914
3945 1 3914 3915
3946 1 3915 3916
3947 1 3917 3918
3948 1 3918 3919
3949 1 3919 3920
3950 1 3920 3921
3951 1 3921 3922
3952 1 3922 3923
3953 1 3923 3924
3954 1 3924 3925
3955 1 3925 3926
3956 1 3926 3927
3957 1 3927 3928
3958 1 3928 3929
3959 1 3929 3930
3960 1 3930 3931
3961 1 3931 3932
3962 1 3932 3933
3963 1 3933 3934
3964 1 3934 3935
3965 1 3935 3936
3966 1 79 3917
3967 1 3936 104
3968 1 3927 3937
3969 1 3937 3938
3970 1 3938 3939
3971 1 3939 3940
3972 1 3940 3941
3973 1 3942 3943
3974 1 3943 3944
3975 1 3944 3945
3976 1 3945 3946
3977 1 3946 3947
3978 1 3947 3948
3979 1 3948 3949
3980 1 3949 3950
3981 1 3950 3951
3982 1 3951 3952
3983 1 3952 3953
3984 1 3953 3954
3985 1 3954 3955
3986 1 3955 3956
3987 1 3956 3957
3988 1 3957 3958
3989 1 3958 3959
3990 1 3959 3960
3991 1 3960 3961
3992 1 80 3942
3993 1 3961 85
3994 1 3952 3962
3995 1 3962 3963
3996 1 3963 3964
3997 1 3964 3965
3998 1 3965 3966
3999 1 3967 3968
4000 1 3968 3969
4001 1 3969 3970
4002 1 3970 3971
4003 1 3971 3972
4004 1 3972 3973
4005 1 3973 3974
4006 1 3974 3975
4007 1 3975 3976
4008 1 3976 3977
4009 1 3977 3978
4010 1 3978 3979
4011 1 3979 3980
4012 1 3980 3981
4013 1 3981 3982
4014 1 3982 3983
4015 1 3983 3984
4016 1 3984 3985
4017 1 3985 3986
4018 1 81 3967
4019 1 3986 86
4020 1 3982 3987
4021 1 3987 3988
4022 1 3988 3989
4023 1 3989 3990
4024 1 3990 3991
4025 1 3992 3993
4026 1 3993 3994
4027 1 3994 3995
4028 1 3995 3996
4029 1 3996 3997
4030 1 3997 3998
4031 1 3998 3999
4032 1 3999 4000
4033 1 4000 4001
4034 1 4001 4002
4035 1 4002 4003
4036 1 4003 4004
4037 1 4004 4005
4038 1 4005 4006
4039 1 4006 4007
4040 1 4007 4008
4041 1 4008 4009
4042 1 4009 4010
4043 1 4010 4011
4044 1 81 3992
4045 1 4011 106
4046 1 4012 4013
4047 1 4013 4014
4048 1 4014 4015
4049 1 4015 4016
4050 1 4016 4017
4051 1 4017 4018
4052 1 4018 4019
4053 1 4019 4020
4054 1 4020 4021
4055 1 4021 4022
4056 1 4022 4023
4057 1 4023 4024
4058 1 4024 4025
4059 1 4025 4026
4060 1 4026 4027
4061 1 4027 4028
4062 1 4028 4029
4063 1 4029 4030
4064 1 4030 4031
4065 1 82 4012
4066 1 4031 87
4067 1 4016 4032
4068 1 4032 4033
4069 1 4033 4034
4070 1 4034 4035
4071 1 4035 4036
4072 1 4022 4037
4073 1 4037 4038
4074 1 4038 4039
4075 1 4039 4040
4076 1 4040 4041
4077 1 4042 4043
4078 1 4043 4044
4079 1 4044 4045
4080 1 4045 4046
4081 1 4046 4047
4082 1 4047 4048
4083 1 4048 4049
4084 1 4049 4050
4085 1 4050 4051
4086 1 4051 4052
4087 1 4052 4053
4088 1 4053 4054
4089 1 4054 4055
4090 1 4055 4056
4091 1 4056 4057
4092 1 4057 4058
4093 1 4058 4059
4094 1 4059 4060
4095 1 4060 4061
4096 1 82 4042
4097 1 4061 107
4098 1 4062 4063
4099 1 4063 4064
4100 1 4064 4065
4101 1 4065 4066
4102 1 4066 4067
4103 1 4067 4068
4104 1 4068 4069
4105 1 4069 4070
4106 1 4070 4071
4107 1 4071 4072
4108 1 4072 4073
4109 1 4073 4074
4110 1 4074 4075
4111 1 4075 4076
4112 1 4076 4077
4113 1 4077 4078
4114 1 4078 4079
4115 1 4079 4080
4116 1 4080 4081
4117 1 82 4062
4118 1 4081 86
4119 1 4064 4082
4120 1 4082 4083
4121 1 4083 4084
4122 1 4084 4085
4123 1 4085 4086
4124 1 4066 4087
4125 1 4087 4088
4126 1 4088 4089
4127 1 4089 4090
4128 1 4090 4091
4129 1 4074 4092
4130 1 4092 4093
4131 1 4093 4094
4132 1 4094 4095
4133 1 4095 4096
4134 1 4076 4097
4135 1 4097 4098
4136 1 4098 4099
4137 1 4099 4100
4138 1 4100 4101
4139 1 4102 4103
4140 1 4103 4104
4141 1 4104 4105
4142 1 4105 4106
4143 1 4106 4107
4144 1 4107 4108
4145 1 4108 4109
4146 1 4109 4110
4147 1 4110 4111
4148 1 4111 4112
4149 1 4112 4113
4150 1 4113 4114
4151 1 4114 4115
4152 1 4115 4116
4153 1 4116 4117
4154 1 4117 4118
4155 1 4118 4119
4156 1 4119 4120
4157 1 4120 4121
4158 1 83 4102
4159 1 4121 84
4160 1 4109 4122
4161 1 4122 4123
4162 1 4123 4124
4163 1 4124 4125
4164 1 4125 4126
4165 1 4127 4128
4166 1 4128 4129
4167 1 4129 4130
4168 1 4130 4131
4169 1 4131 4132
4170 1 4132 4133
4171 1 4133 4134
4172 1 4134 4135
4173 1 4135 4136
4174 1 4136 4137
4175 1 4137 4138
4176 1 4138 4139
4177 1 4139 4140
4178 1 4140 4141
4179 1 4141 4142
4180 1 4142 4143
4181 1 4143 4144
4182 1 4144 4145
4183 1 4145 4146
4184 1 83 4127
4185 1 4146 108
4186 1 4147 4148
4187 1 4148 4149
4188 1 4149 4150
4189 1 4150 4151
4190 1 4151 4152
4191 1 4152 4153
4192 1 4153 4154
4193 1 4154 4155
4194 1 4155 4156
4195 1 4156 4157
4196 1 4157 4158
4197 1 4158 4159
4198 1 4159 4160
4199 1 4160 4161
4200 1 4161 4162
4201 1 4162 4163
4202 1 4163 4164
4203 1 4164 4165
4204 1 4165 4166
4205 1 84 4147
4206 1 4166 89
4207 1 4149 4167
4208 1 4167 4168
4209 1 4168 4169
4210 1 4169 4170
4211 1 4170 4171
4212 1 4172 4173
4213 1 4173 4174
4214 1 4174 4175
4215 1 4175 4176
4216 1 4176 4177
4217 1 4177 4178
4218 1 4178 4179
4219 1 4179 4180
4220 1 4180 4181
4221 1 4181 4182
4222 1 4182 4183
4223 1 4183 4184
4224 1 4184 4185
4225 1 4185 4186
4226 1 4186 4187
4227 1 4187 4188
4228 1 4188 4189
4229 1 4189 4190
4230 1 4190 4191
4231 1 85 4172
4232 1 4191 86
4233 1 4177 4192
4234 1 4192 4193
4235 1 4193 4194
4236 1 4194 4195
4237 1 4195 4196
4238 1 4197 4198
4239 1 4198 4199
4240 1 4199 4200
4241 1 4200 4201
4242 1 4201 4202
4243 1 4202 4203
4244 1 4203 4204
4245 1 4204 4205
4246 1 4205 4206
4247 1 4206 4207
4248 1 4207 4208
4249 1 4208 4209
4250 1 4209 4210
4251 1 4210 4211
4252 1 4211 4212
4253 1 4212 4213
4254 1 4213 4214
4255 1 4214 4215
4256 1 4215 4216
4257 1 85 4197
4258 1 4216 90
4259 1 4199 4217
4260 1 4217 4218
4261 1 4218 4219
4262 1 4219 4220
4263 1 4220 4221
4264 1 4222 4223
4265 1 4223 4224
4266 1 4224 4225
4267 1 4225 4226
4268 1 4226 4227
4269 1 4227 4228
4270 1 4228 4229
4271 1 4229 4230
4272 1 4230 4231
4273 1 4231 4232
4274 1 4232 4233
4275 1 4233 4234
4276 1 4234 4235
4277 1 4235 4236
4278 1 4236 4237
4279 1 4237 4238
4280 1 4238 4239
4281 1 4239 4240
4282 1 4240 4241
4283 1 86 4222
4284 1 4241 111
4285 1 4224 4242
4286 1 4242 4243
4287 1 4243 4244
4288 1 4244 4245
4289 1 4245 4246
4290 1 4237 4247
4291 1 4247 4248
4292 1 4248 4249
4293 1 4249 4250
4294 1 4250 4251
4295 1 4252 4253
4296 1 4253 4254
4297 1 4254 4255
4298 1 4255 4256
4299 1 4256 4257
4300 1 4257 4258
4301 1 4258 4259
4302 1 4259 4260
4303 1 4260 4261
4304 1 4261 4262
4305 1 4262 4263
4306 1 4263 4264
4307 1 4264 4265
4308 1 4265 4266
4309 1 4266 4267
4310 1 4267 4268
4311 1 4268 4269
4312 1 4269 4270
4313 1 4270 4271
4314 1 87 4252
4315 1 4271 88
4316 1 4258 4272
4317 1 4272 4273
4318 1 4273 4274
4319 1 4274 4275
4320 1 4275 4276
4321 1 4266 4277
4322 1 4277 4278
4323 1 4278 4279
4324 1 4279 4280
4325 1 4280 4281
4326 1 4282 4283
4327 1 4283 4284
4328 1 4284 4285
4329 1 4285 4286
4330 1 4286 4287
4331 1 4287 4288
4332 1 4288 4289
4333 1 4289 4290
4334 1 4290 4291
4335 1 4291 4292
4336 1 4292 4293
4337 1 4293 4294
4338 1 4294 4295
4339 1 4295 4296
4340 1 4296 4297
4341 1 4297 4298
4342 1 4298 4299
4343 1 4299 4300
4344 1 4300 4301
4345 1 87 4282
4346 1 4301 91
4347 1 4302 4303
4348 1 4303 4304
4349 1 4304 4305
4350 1 4305 4306
4351 1 4306 4307
4352 1 4307 4308
4353 1 4308 4309
4354 1 4309 4310
4355 1 4310 4311
4356 1 4311 4312
4357 1 4312 4313
4358 1 4313 4314
4359 1 4314 4315
4360 1 4315 4316
4361 1 4316 4317
4362 1 4317 4318
4363 1 4318 4319
4364 1 4319 4320
4365 1 4320 4321
4366 1 88 4302
4367 1 4321 93
4368 1 4322 4323
4369 1 4323 4324
4370 1 4324 4325
4371 1 4325 4326
4372 1 4326 4327
4373 1 4327 4328
4374 1 4328 4329
4375 1 4329 4330
4376 1 4330 4331
4377 1 4331 4332
4378 1 4332 4333
4379 1 4333 4334
4380 1 4334 4335
4381 1 4335 4336
4382 1 4336 4337
4383 1 4337 4338
4384 1 4338 4339
4385 1 4339 4340
4386 1 4340 4341
4387 1 88 4322
4388 1 4341 113
4389 1 4342 4343
4390 1 4343 4344
4391 1 4344 4345
4392 1 4345 4346
4393 1 4346 4347
4394 1 4347 4348
4395 1 4348 4349
4396 1 4349 4350
4397 1 4350 4351
4398 1 4351 4352
4399 1 4352 4353
4400 1 4353 4354
4401 1 4354 4355
4402 1 4355 4356
4403 1 4356 4357
4404 1 4357 4358
4405 1 4358 4359
4406 1 4359 4360
4407 1 4360 4361
4408 1 89 4342
4409 1 4361 114
4410 1 4347 4362
4411 1 4362 4363
4412 1 4363 4364
4413 1 4364 4365
4414 1 4365 4366
4415 1 4348 4367
4416 1 4367 4368
4417 1 4368 4369
4418 1 4369 4370
4419 1 4370 4371
4420 1 4372 4373
4421 1 4373 4374
4422 1 4374 4375
4423 1 4375 4376
4424 1 4376 4377
4425 1 4377 4378
4426 1 4378 4379
4427 1 4379 4380
4428 1 4380 4381
4429 1 4381 4382
4430 1 4382 4383
4431 1 4383 4384
4432 1 4384 4385
4433 1 4385 4386
4434 1 4386 4387
4435 1 4387 4388
4436 1 4388 4389
4437 1 4389 4390
4438 1 4390 4391
4439 1 90 4372
4440 1 4391 91
4441 1 4376 4392
4442 1 4392 4393
4443 1 4393 4394
4444 1 4394 4395
4445 1 4395 4396
4446 1 4380 4397
4447 1 4397 4398
4448 1 4398 4399
4449 1 4399 4400
4450 1 4400 4401
4451 1 4387 4402
4452 1 4402 4403
4453 1 4403 4404
4454 1 4404 4405
4455 1 4405 4406
4456 1 4407 4408
4457 1 4408 4409
4458 1 4409 4410
4459 1 4410 4411
4460 1 4411 4412
4461 1 4412 4413
4462 1 4413 4414
4463 1 4414 4415
4464 1 4415 4416
4465 1 4416 4417
4466 1 4417 4418
4467 1 4418 4419
4468 1 4419 4420
4469 1 4420 4421
4470 1 4421 4422
4471 1 4422 4423
4472 1 4423 4424
4473 1 4424 4425
4474 1 4425 4426
4475 1 90 4407
4476 1 4426 95
4477 1 4427 4428
4478 1 4428 4429
4479 1 4429 4430
4480 1 4430 4431
4481 1 4431 4432
4482 1 4432 4433
4483 1 4433 4434
4484 1 4434 4435
4485 1 4435 4436
4486 1 4436 4437
4487 1 4437 4438
4488 1 4438 4439
4489 1 4439 4440
4490 1 4440 4441
4491 1 4441 4442
4492 1 4442 4443
4493 1 4443 4444
4494 1 4444 4445
4495 1 4445 4446
4496 1 90 4427
4497 1 4446 115
4498 1 4428 4447
4499 1 4447 4448
4500 1 4448 4449
4501 1 4449 4450
4502 1 4450 4451
4503 1 4430 4452
4504 1 4452 4453
4505 1 4453 4454
4506 1 4454 4455
4507 1 4455 4456
4508 1 4437 4457
4509 1 4457 4458
4510 1 4458 4459
4511 1 4459 4460
4512 1 4460 4461
4513 1 4462 4463
4514 1 4463 4464
4515 1 4464 4465
4516 1 4465 4466
4517 1 4466 4467
4518 1 4467 4468
4519 1 4468 4469
4520 1 4469 4470
4521 1 4470 4471
4522 1 4471 4472
4523 1 4472 4473
4524 1 4473 4474
4525 1 4474 4475
4526 1 4475 4476
4527 1 4476 4477
4528 1 4477 4478
4529 1 4478 4479
4530 1 4479 4480
4531 1 4480 4481
4532 1 91 4462
4533 1 4481 116
4534 1 4463 4482
4535 1 4482 4483
4536 1 4483 4484
4537 1 4484 4485
4538 1 4485 4486
4539 1 4468 4487
4540 1 4487 4488
4541 1 4488 4489
4542 1 4489 4490
4543 1 4490 4491
4544 1 4470 4492
4545 1 4492 4493
4546 1 4493 4494
4547 1 4494 4495
4548 1 4495 4496
4549 1 4471 4497
4550 1 4497 4498
4551 1 4498 4499
4552 1 4499 4500
4553 1 4500 4501
4554 1 4502 4503
4555 1 4503 4504
4556 1 4504 4505
4557 1 4505 4506
4558 1 4506 4507
4559 1 4507 4508
4560 1 4508 4509
4561 1 4509 4510
4562 1 4510 4511
4563 1 4511 4512
4564 1 4512 4513
4565 1 4513 4514
4566 1 4514 4515
4567 1 4515 4516
4568 1 4516 4517
4569 1 4517 4518
4570 1 4518 4519
4571 1 4519 4520
4572 1 4520 4521
4573 1 92 4502
4574 1 4521 93
4575 1 4522 4523
4576 1 4523 4524
4577 1 4524 4525
4578 1 4525 4526
4579 1 4526 4527
4580 1 4527 4528
4581 1 4528 4529
4582 1 4529 4530
4583 1 4530 4531
4584 1 4531 4532
4585 1 4532 4533
4586 1 4533 4534
4587 1 4534 4535
4588 1 4535 4536
4589 1 4536 4537
4590 1 4537 4538
4591 1 4538 4539
4592 1 4539 4540
4593 1 4540 4541
4594 1 92 4522
4595 1 4541 117
4596 1 4527 4542
4597 1 4542 4543
4598 1 4543 4544
4599 1 4544 4545
4600 1 4545 4546
4601 1 4539 4547
4602 1 4547 4548
4603 1 4548 4549
4604 1 4549 4550
4605 1 4550 4551
4606 1 4552 4553
4607 1 4553 4554
4608 1 4554 4555
4609 1 4555 4556
4610 1 4556 4557
4611 1 4557 4558
4612 1 4558 4559
4613 1 4559 4560
4614 1 4560 4561
4615 1 4561 4562
4616 1 4562 4563
4617 1 4563 4564
4618 1 4564 4565
4619 1 4565 4566
4620 1 4566 4567
4621 1 4567 4568
4622 1 4568 4569
4623 1 4569 4570
4624 1 4570 4571
4625 1 92 4552
4626 1 4571 96
4627 1 4557 4572
4628 1 4572 4573
4629 1 4573 4574
4630 1 4574 4575
4631 1 4575 4576
4632 1 4561 4577
4633 1 4577 4578
4634 1 4578 4579
4635 1 4579 4580
4636 1 4580 4581
4637 1 4582 4583
4638 1 4583 4584
4639 1 4584 4585
4640 1 4585 4586
4641 1 4586 4587
4642 1 4587 4588
4643 1 4588 4589
4644 1 4589 4590
4645 1 4590 4591
4646 1 4591 4592
4647 1 4592 4593
4648 1 4593 4594
4649 1 4594 4595
4650 1 4595 4596
4651 1 4596 4597
4652 1 4597 4598
4653 1 4598 4599
4654 1 4599 4600
4655 1 4600 4601
4656 1 93 4582
4657 1 4601 118
4658 1 4588 4602
4659 1 4602 4603
4660 1 4603 4604
4661 1 4604 4605
4662 1 4605 4606
4663 1 4600 4607
4664 1 4607 4608
4665 1 4608 4609
4666 1 4609 4610
4667 1 4610 4611
4668 1 4612 4613
4669 1 4613 4614
4670 1 4614 4615
4671 1 4615 4616
4672 1 4616 4617
4673 1 4617 4618
4674 1 4618 4619
4675 1 4619 4620
4676 1 4620 4621
4677 1 4621 4622
4678 1 4622 4623
4679 1 4623 4624
4680 1 4624 4625
4681 1 4625 4626
4682 1 4626 4627
4683 1 4627 4628
4684 1 4628 4629
4685 1 4629 4630
4686 1 4630 4631
4687 1 94 4612
4688 1 4631 95
4689 1 4630 4632
4690 1 4632 4633
4691 1 4633 4634
4692 1 4634 4635
4693 1 4635 4636
4694 1 4637 4638
4695 1 4638 4639
4696 1 4639 4640
4697 1 4640 4641
4698 1 4641 4642
4699 1 4642 4643
4700 1 4643 4644
4701 1 4644 4645
4702 1 4645 4646
4703 1 4646 4647
4704 1 4647 4648
4705 1 4648 4649
4706 1 4649 4650
4707 1 4650 4651
4708 1 4651 4652
4709 1 4652 4653
4710 1 4653 4654
4711 1 4654 4655
4712 1 4655 4656
4713 1 94 4637
4714 1 4656 119
4715 1 4653 4657
4716 1 4657 4658
4717 1 4658 4659
4718 1 4659 4660
4719 1 4660 4661
4720 1 4662 4663
4721 1 4663 4664
4722 1 4664 4665
4723 1 4665 4666
4724 1 4666 4667
4725 1 4667 4668
4726 1 4668 4669
4727 1 4669 4670
4728 1 4670 4671
4729 1 4671 4672
4730 1 4672 4673
4731 1 4673 4674
4732 1 4674 4675
4733 1 4675 4676
4734 1 4676 4677
4735 1 4677 4678
4736 1 4678 4679
4737 1 4679 4680
4738 1 4680 4681
4739 1 95 4662
4740 1 4681 120
4741 1 4681 4682
4742 1 4682 4683
4743 1 4683 4684
4744 1 4684 4685
4745 1 4685 4686
4746 1 4687 4688
4747 1 4688 4689
4748 1 4689 4690
4749 1 4690 4691
4750 1 4691 4692
4751 1 4692 4693
4752 1 4693 4694
4753 1 4694 4695
4754 1 4695 4696
4755 1 4696 4697
4756 1 4697 4698
4757 1 4698 4699
4758 1 4699 4700
4759 1 4700 4701
4760 1 4701 4702
4761 1 4702 4703
4762 1 4703 4704
4763 1 4704 4705
4764 1 4705 4706
4765 1 97 4687
4766 1 4706 98
4767 1 4696 4707
4768 1 4707 4708
4769 1 4708 4709
4770 1 4709 4710
4771 1 4710 4711
4772 1 4712 4713
4773 1 4713 4714
4774 1 4714 4715
4775 1 4715 4716
4776 1 4716 4717
4777 1 4717 4718
4778 1 4718 4719
4779 1 4719 4720
4780 1 4720 4721
4781 1 4721 4722
4782 1 4722 4723
4783 1 4723 4724
4784 1 4724 4725
4785 1 4725 4726
4786 1 4726 4727
4787 1 4727 4728
4788 1 4728 4729
4789 1 4729 4730
4790 1 4730 4731
4791 1 97 4712
4792 1 4731 101
4793 1 4722 4732
4794 1 4732 4733
4795 1 4733 4734
4796 1 4734 4735
4797 1 4735 4736
4798 1 4723 4737
4799 1 4737 4738
4800 1 4738 4739
4801 1 4739 4740
4802 1 4740 4741
4803 1 4742 4743
4804 1 4743 4744
4805 1 4744 4745
4806 1 4745 4746
4807 1 4746 4747
4808 1 4747 4748
4809 1 4748 4749
4810 1 4749 4750
4811 1 4750 4751
4812 1 4751 4752
4813 1 4752 4753
4814 1 4753 4754
4815 1 4754 4755
4816 1 4755 4756
4817 1 4756 4757
4818 1 4757 4758
4819 1 4758 4759
4820 1 4759 4760
4821 1 4760 4761
4822 1 97 4742
4823 1 4761 117
4824 1 4762 4763
4825 1 4763 4764
4826 1 4764 4765
4827 1 4765 4766
4828 1 4766 4767
4829 1 4767 4768
4830 1 4768 4769
4831 1 4769 4770
4832 1 4770 4771
4833 1 4771 4772
4834 1 4772 4773
4835 1 4773 4774
4836 1 4774 4775
4837 1 4775 4776
4838 1 4776 4777
4839 1 4777 4778
4840 1 4778 4779
4841 1 4779 4780
4842 1 4780 4781
4843 1 98 4762
4844 1 4781 103
4845 1 4765 4782
4846 1 4782 4783
4847 1 4783 4784
4848 1 4784 4785
4849 1 4785 4786
4850 1 4777 4787
4851 1 4787 4788
4852 1 4788 4789
4853 1 4789 4790
4854 1 4790 4791
4855 1 4792 4793
4856 1 4793 4794
4857 1 4794 4795
4858 1 4795 4796
4859 1 4796 4797
4860 1 4797 4798
4861 1 4798 4799
4862 1 4799 4800
4863 1 4800 4801
4864 1 4801 4802
4865 1 4802 4803
4866 1 4803 4804
4867 1 4804 4805
4868 1 4805 4806
4869 1 4806 4807
4870 1 4807 4808
4871 1 4808 4809
4872 1 4809 4810
4873 1 4810 4811
4874 1 98 4792
4875 1 4811 118
4876 1 4803 4812
4877 1 4812 4813
4878 1 4813 4814
4879 1 4814 4815
4880 1 4815 4816
4881 1 4805 4817
4882 1 4817 4818
4883 1 4818 4819
4884 1 4819 4820
4885 1 4820 4821
4886 1 4822 4823
4887 1 4823 4824
4888 1 4824 4825
4889 1 4825 4826
4890 1 4826 4827
4891 1 4827 4828
4892 1 4828 4829
4893 1 4829 4830
4894 1 4830 4831
4895 1 4831 4832
4896 1 4832 4833
4897 1 4833 4834
4898 1 4834 4835
4899 1 4835 4836
4900 1 4836 4837
4901 1 4837 4838
4902 1 4838 4839
4903 1 4839 4840
4904 1 4840 4841
4905 1 99 4822
4906 1 4841 100
4907 1 4842 4843
4908 1 4843 4844
4909 1 4844 4845
4910 1 4845 4846
4911 1 4846 4847
4912 1 4847 4848
4913 1 4848 4849
4914 1 4849 4850
4915 1 4850 4851
4916 1 4851 4852
4917 1 4852 4853
4918 1 4853 4854
4919 1 4854 4855
4920 1 4855 4856
4921 1 4856 4857
4922 1 4857 4858
4923 1 4858 4859
4924 1 4859 4860
4925 1 4860 4861
4926 1 99 4842
4927 1 4861 104
4928 1 4857 4862
4929 1 4862 4863
4930 1 4863 4864
4931 1 4864 4865
4932 1 4865 4866
4933 1 4860 4867
4934 1 4867 4868
4935 1 4868 4869
4936 1 4869 4870
4937 1 4870 4871
4938 1 4872 4873
4939 1 4873 4874
4940 1 4874 4875
4941 1 4875 4876
4942 1 4876 4877
4943 1 4877 4878
4944 1 4878 4879
4945 1 4879 4880
4946 1 4880 4881
4947 1 4881 4882
4948 1 4882 4883
4949 1 4883 4884
4950 1 4884 4885
4951 1 4885 4886
4952 1 4886 4887
4953 1 4887 4888
4954 1 4888 4889
4955 1 4889 4890
4956 1 4890 4891
4957 1 100 4872
4958 1 4891 101
4959 1 4872 4892
4960 1 4892 4893
4961 1 4893 4894
4962 1 4894 4895
4963 1 4895 4896
4964 1 4880 4897
4965 1 4897 4898
4966 1 4898 4899
4967 1 4899 4900
4968 1 4900 4901
4969 1 4888 4902
4970 1 4902 4903
4971 1 4903 4904
4972 1 4904 4905
4973 1 4905 4906
4974 1 4907 4908
4975 1 4908 4909
4976 1 4909 4910
4977 1 4910 4911
4978 1 4911 4912
4979 1 4912 4913
4980 1 4913 4914
4981 1 4914 4915
4982 1 4915 4916
4983 1 4916 4917
4984 1 4917 4918
4985 1 4918 4919
4986 1 4919 4920
4987 1 4920 4921
4988 1 4921 4922
4989 1 4922 4923
4990 1 4923 4924
4991 1 4924 4925
4992 1 4925 4926
4993 1 100 4907
4994 1 4926 105
4995 1 4927 4928
4996 1 4928 4929
4997 1 4929 4930
4998 1 4930 4931
4999 1 4931 4932
5000 1 4932 4933
5001 1 4933 4934
5002 1 4934 4935
5003 1 4935 4936
5004 1 4936 4937
5005 1 4937 4938
5006 1 4938 4939
5007 1 4939 4940
5008 1 4940 4941
5009 1 4941 4942
5010 1 4942 4943
5011 1 4943 4944
5012 1 4944 4945
5013 1 4945 4946
5014 1 101 4927
5015 1 4946 121
5016 1 4947 4948
5017 1 4948 4949
5018 1 4949 4950
5019 1 4950 4951
5020 1 4951 4952
5021 1 4952 4953
5022 1 4953 4954
5023 1 4954 4955
5024 1 4955 4956
5025 1 4956 4957
5026 1 4957 4958
5027 1 4958 4959
5028 1 4959 4960
5029 1 4960 4961
5030 1 4961 4962
5031 1 4962 4963
5032 1 4963 4964
5033 1 4964 4965
5034 1 4965 4966
5035 1 102 4947
5036 1 4966 107
5037 1 4963 4967
5038 1 4967 4968
5039 1 4968 4969
5040 1 4969 4970
5041 1 4970 4971
5042 1 4972 4973
5043 1 4973 4974
5044 1 4974 4975
5045 1 4975 4976
5046 1 4976 4977
5047 1 4977 4978
5048 1 4978 4979
5049 1 4979 4980
5050 1 4980 4981
5051 1 4981 4982
5052 1 4982 4983
5053 1 4983 4984
5054 1 4984 4985
5055 1 4985 4986
5056 1 4986 4987
5057 1 4987 4988
5058 1 4988 4989
5059 1 4989 4990
5060 1 4990 4991
5061 1 102 4972
5062 1 4991 106
5063 1 4992 4993
5064 1 4993 4994
5065 1 4994 4995
5066 1 4995 4996
5067 1 4996 4997
5068 1 4997 4998
5069 1 4998 4999
5070 1 4999 5000
5071 1 5000 5001
5072 1 5001 5002
5073 1 5002 5003
5074 1 5003 5004
5075 1 5004 5005
5076 1 5005 5006
5077 1 5006 5007
5078 1 5007 5008
5079 1 5008 5009
5080 1 5009 5010
5081 1 5010 5011
5082 1 103 4992
5083 1 5011 108
5084 1 5012 5013
5085 1 5013 5014
5086 1 5014 5015
5087 1 5015 5016
5088 1 5016 5017
5089 1 5017 5018
5090 1 5018 5019
5091 1 5019 5020
5092 1 5020 5021
5093 1 5021 5022
5094 1 5022 5023
5095 1 5023 5024
5096 1 5024 5025
5097 1 5025 5026
5098 1 5026 5027
5099 1 5027 5028
5100 1 5028 5029
5101 1 5029 5030
5102 1 5030 5031
5103 1 104 5012
5104 1 5031 109
5105 1 5032 5033
5106 1 5033 5034
5107 1 5034 5035
5108 1 5035 5036
5109 1 5036 5037
5110 1 5037 5038
5111 1 5038 5039
5112 1 5039 5040
5113 1 5040 5041
5114 1 5041 5042
5115 1 5042 5043
5116 1 5043 5044
5117 1 5044 5045
5118 1 5045 5046
5119 1 5046 5047
5120 1 5047 5048
5121 1 5048 5049
5122 1 5049 5050
5123 1 5050 5051
5124 1 105 5032
5125 1 5051 110
5126 1 5035 5052
5127 1 5052 5053
5128 1 5053 5054
5129 1 5054 5055
5130 1 5055 5056
5131 1 5041 5057
5132 1 5057 5058
5133 1 5058 5059
5134 1 5059 5060
5135 1 5060 5061
5136 1 5062 5063
5137 1 5063 5064
5138 1 5064 5065
5139 1 5065 5066
5140 1 5066 5067
5141 1 5067 5068
5142 1 5068 5069
5143 1 5069 5070
5144 1 5070 5071
5145 1 5071 5072
5146 1 5072 5073
5147 1 5073 5074
5148 1 5074 5075
5149 1 5075 5076
5150 1 5076 5077
5151 1 5077 5078
5152 1 5078 5079
5153 1 5079 5080
5154 1 5080 5081
5155 1 106 5062
5156 1 5081 111
5157 1 5062 5082
5158 1 5082 5083
5159 1 5083 5084
5160 1 5084 5085
5161 1 5085 5086
5162 1 5064 5087
5163 1 5087 5088
5164 1 5088 5089
5165 1 5089 5090
5166 1 5090 5091
5167 1 5068 5092
5168 1 5092 5093
5169 1 5093 5094
5170 1 5094 5095
5171 1 5095 5096
5172 1 5097 5098
5173 1 5098 5099
5174 1 5099 5100
5175 1 5100 5101
5176 1 5101 5102
5177 1 5102 5103
5178 1 5103 5104
5179 1 5104 5105
5180 1 5105 5106
5181 1 5106 5107
5182 1 5107 5108
5183 1 5108 5109
5184 1 5109 5110
5185 1 5110 5111
5186 1 5111 5112
5187 1 5112 5113
5188 1 5113 5114
5189 1 5114 5115
5190 1 5115 5116
5191 1 107 5097
5192 1 5116 108
5193 1 5116 5117
5194 1 5117 5118
5195 1 5118 5119
5196 1 5119 5120
5197 1 5120 5121
5198 1 5122 5123
5199 1 5123 5124
5200 1 5124 5125
5201 1 5125 5126
5202 1 5126 5127
5203 1 5127 5128
5204 1 5128 5129
5205 1 5129 5130
5206 1 5130 5131
5207 1 5131 5132
5208 1 5132 5133
5209 1 5133 5134
5210 1 5134 5135
5211 1 5135 5136
5212 1 5136 5137
5213 1 5137 5138
5214 1 5138 5139
5215 1 5139 5140
5216 1 5140 5141
5217 1 107 5122
5218 1 5141 112
5219 1 5130 5142
5220 1 5142 5143
5221 1 5143 5144
5222 1 5144 5145
5223 1 5145 5146
5224 1 5147 5148
5225 1 5148 5149
5226 1 5149 5150
5227 1 5150 5151
5228 1 5151 5152
5229 1 5152 5153
5230 1 5153 5154
5231 1 5154 5155
5232 1 5155 5156
5233 1 5156 5157
5234 1 5157 5158
5235 1 5158 5159
5236 1 5159 5160
5237 1 5160 5161
5238 1 5161 5162
5239 1 5162 5163
5240 1 5163 5164
5241 1 5164 5165
5242 1 5165 5166
5243 1 108 5147
5244 1 5166 109
5245 1 5155 5167
5246 1 5167 5168
5247 1 5168 5169
5248 1 5169 5170
5249 1 5170 5171
5250 1 5165 5172
5251 1 5172 5173
5252 1 5173 5174
5253 1 5174 5175
5254 1 5175 5176
5255 1 5177 5178
5256 1 5178 5179
5257 1 5179 5180
5258 1 5180 5181
5259 1 5181 5182
5260 1 5182 5183
5261 1 5183 5184
5262 1 5184 5185
5263 1 5185 5186
5264 1 5186 5187
5265 1 5187 5188
5266 1 5188 5189
5267 1 5189 5190
5268 1 5190 5191
5269 1 5191 5192
5270 1 5192 5193
5271 1 5193 5194
5272 1 5194 5195
5273 1 5195 5196
5274 1 109 5177
5275 1 5196 114
5276 1 5197 5198
5277 1 5198 5199
5278 1 5199 5200
5279 1 5200 5201
5280 1 5201 5202
5281 1 5202 5203
5282 1 5203 5204
5283 1 5204 5205
5284 1 5205 5206
5285 1 5206 5207
5286 1 5207 5208
5287 1 5208 5209
5288 1 5209 5210
5289 1 5210 5211
5290 1 5211 5212
5291 1 5212 5213
5292 1 5213 5214
5293 1 5214 5215
5294 1 5215 5216
5295 1 110 5197
5296 1 5216 111
5297 1 5203 5217
5298 1 5217 5218
5299 1 5218 5219
5300 1 5219 5220
5301 1 5220 5221
5302 1 5207 5222
5303 1 5222 5223
5304 1 5223 5224
5305 1 5224 5225
5306 1 5225 5226
5307 1 5227 5228
5308 1 5228 5229
5309 1 5229 5230
5310 1 5230 5231
5311 1 5231 5232
5312 1 5232 5233
5313 1 5233 5234
5314 1 5234 5235
5315 1 5235 5236
5316 1 5236 5237
5317 1 5237 5238
5318 1 5238 5239
5319 1 5239 5240
5320 1 5240 5241
5321 1 5241 5242
5322 1 5242 5243
5323 1 5243 5244
5324 1 5244 5245
5325 1 5245 5246
5326 1 110 5227
5327 1 5246 115
5328 1 5242 5247
5329 1 5247 5248
5330 1 5248 5249
5331 1 5249 5250
5332 1 5250 5251
5333 1 5252 5253
5334 1 5253 5254
5335 1 5254 5255
5336 1 5255 5256
5337 1 5256 5257
5338 1 5257 5258
5339 1 5258 5259
5340 1 5259 5260
5341 1 5260 5261
5342 1 5261 5262
5343 1 5262 5263
5344 1 5263 5264
5345 1 5264 5265
5346 1 5265 5266
5347 1 5266 5267
5348 1 5267 5268
5349 1 5268 5269
5350 1 5269 5270
5351 1 5270 5271
5352 1 111 5252
5353 1 5271 116
5354 1 5272 5273
5355 1 5273 5274
5356 1 5274 5275
5357 1 5275 5276
5358 1 5276 5277
5359 1 5277 5278
5360 1 5278 5279
5361 1 5279 5280
5362 1 5280 5281
5363 1 5281 5282
5364 1 5282 5283
5365 1 5283 5284
5366 1 5284 5285
5367 1 5285 5286
5368 1 5286 5287
5369 1 5287 5288
5370 1 5288 5289
5371 1 5289 5290
5372 1 5290 5291
5373 1 113 5272
5374 1 5291 114
5375 1 5273 5292
5376 1 5292 5293
5377 1 5293 5294
5378 1 5294 5295
5379 1 5295 5296
5380 1 5297 5298
5381 1 5298 5299
5382 1 5299 5300
5383 1 5300 5301
5384 1 5301 5302
5385 1 5302 5303
5386 1 5303 5304
5387 1 5304 5305
5388 1 5305 5306
5389 1 5306 5307
5390 1 5307 5308
5391 1 5308 5309
5392 1 5309 5310
5393 1 5310 5311
5394 1 5311 5312
5395 1 5312 5313
5396 1 5313 5314
5397 1 5314 5315
5398 1 5315 5316
5399 1 113 5297
5400 1 5316 118
5401 1 5317 5318
5402 1 5318 5319
5403 1 5319 5320
5404 1 5320 5321
5405 1 5321 5322
5406 1 5322 5323
5407 1 5323 5324
5408 1 5324 5325
5409 1 5325 5326
5410 1 5326 5327
5411 1 5327 5328
5412 1 5328 5329
5413 1 5329 5330
5414 1 5330 5331
5415 1 5331 5332
5416 1 5332 5333
5417 1 5333 5334
5418 1 5334 5335
5419 1 5335 5336
5420 1 114 5317
5421 1 5336 119
5422 1 5337 5338
5423 1 5338 5339
5424 1 5339 5340
5425 1 5340 5341
5426 1 5341 5342
5427 1 5342 5343
5428 1 5343 5344
5429 1 5344 5345
5430 1 5345 5346
5431 1 5346 5347
5432 1 5347 5348
5433 1 5348 5349
5434 1 5349 5350
5435 1 5350 5351
5436 1 5351 5352
5437 1 5352 5353
5438 1 5353 5354
5439 1 5354 5355
5440 1 5355 5356
5441 1 115 5337
5442 1 5356 120
5443 1 5342 5357
5444 1 5357 5358
5445 1 5358 5359
5446 1 5359 5360
5447 1 5360 5361
5448 1 5362 5363
5449 1 5363 5364
5450 1 5364 5365
5451 1 5365 5366
5452 1 5366 5367
5453 1 5367 5368
5454 1 5368 5369
5455 1 5369 5370
5456 1 5370 5371
5457 1 5371 5372
5458 1 5372 5373
5459 1 5373 5374
5460 1 5374 5375
5461 1 5375 5376
5462 1 5376 5377
5463 1 5377 5378
5464 1 5378 5379
5465 1 5379 5380
5466 1 5380 5381
5467 1 117 5362
5468 1 5381 118
5469 1 5366 5382
5470 1 5382 5383
5471 1 5383 5384
5472 1 5384 5385
5473 1 5385 5386
5474 1 5372 5387
5475 1 5387 5388
5476 1 5388 5389
5477 1 5389 5390
5478 1 5390 5391
5479 1 5392 5393
5480 1 5393 5394
5481 1 5394 5395
5482 1 5395 5396
5483 1 5396 5397
5484 1 5397 5398
5485 1 5398 5399
5486 1 5399 5400
5487 1 5400 5401
5488 1 5401 5402
5489 1 5402 5403
5490 1 5403 5404
5491 1 5404 5405
5492 1 5405 5406
5493 1 5406 5407
5494 1 5407 5408
5495 1 5408 5409
5496 1 5409 5410
5497 1 5410 5411
5498 1 119 5392
5499 1 5411 120
5500 1 5408 5412
5501 1 5412 5413
5502 1 5413 5414
5503 1 5414 5415
5504 1 5415 5416
5505 1 5417 5418
5506 1 5418 5419
5507 1 5419 5420
5508 1 5420 5421
5509 1 5421 5422
5510 1 5422 5423
5511 1 5423 5424
5512 1 5424 5425
5513 1 5425 5426
5514 1 5426 5427
5515 1 5427 5428
5516 1 5428 5429
5517 1 5429 5430
5518 1 5430 5431
5519 1 5431 5432
5520 1 5432 5433
5521 1 5433 5434
5522 1 5434 5435
5523 1 5435 5436
5524 1 120 5417
5525 1 5436 121
5526 1 5419 5437
5527 1 5437 5438
5528 1 5438 5439
5529 1 5439 5440
5530 1 5440 5441
5531 1 5427 5442
5532 1 5442 5443
5533 1 5443 5444
5534 1 5444 5445
5535 1 5445 5446

Angles

1 1 122 1 157
2 1 122 1 177
3 1 157 1 177
4 1 197 2 222
5 1 197 2 242
6 1 222 2 242
7 1 216 3 262
8 1 216 3 287
9 1 216 3 307
10 1 262 3 287
11 1 262 3 307
12 1 287 3 307
13 1 281 4 327
14 1 281 4 352
15 1 281 4 372
16 1 327 4 352
17 1 327 4 372
18 1 352 4 372
19 1 176 5 346
20 1 176 5 392
21 1 176 5 422
22 1 346 5 392
23 1 346 5 422
24 1 392 5 422
25 1 141 6 457
26 1 141 6 477
27 1 141 6 497
28 1 457 6 477
29 1 457 6 497
30 1 477 6 497
31 1 527 7 547
32 1 527 7 567
33 1 527 7 587
34 1 547 7 567
35 1 547 7 587
36 1 567 7 587
37 1 371 8 546
38 1 371 8 607
39 1 371 8 632
40 1 546 8 607
41 1 546 8 632
42 1 607 8 632
43 1 411 9 496
44 1 411 9 626
45 1 411 9 672
46 1 496 9 626
47 1 496 9 672
48 1 626 9 672
49 1 697 10 727
50 1 697 10 752
51 1 727 10 752
52 1 772 11 797
53 1 772 11 817
54 1 797 11 817
55 1 566 12 791
56 1 566 12 847
57 1 566 12 872
58 1 791 12 847
59 1 791 12 872
60 1 847 12 872
61 1 897 13 922
62 1 897 13 947
63 1 922 13 947
64 1 771 14 916
65 1 771 14 967
66 1 916 14 967
67 1 716 15 987
68 1 716 15 1017
69 1 716 15 1047
70 1 987 15 1017
71 1 987 15 1047
72 1 1017 15 1047
73 1 816 16 1067
74 1 816 16 1092
75 1 1067 16 1092
76 1 941 18 1142
77 1 941 18 1167
78 1 1142 18 1167
79 1 986 19 1066
80 1 986 19 1202
81 1 986 19 1232
82 1 1066 19 1202
83 1 1066 19 1232
84 1 1202 19 1232
85 1 196 20 1006
86 1 196 20 1262
87 1 196 20 1287
88 1 1006 20 1262
89 1 1006 20 1287
90 1 1262 20 1287
91 1 261 21 1086
92 1 261 21 1281
93 1 261 21 1317
94 1 1086 21 1281
95 1 1086 21 1317
96 1 1281 21 1317
97 1 326 22 1337
98 1 326 22 1367
99 1 1337 22 1367
100 1 1161 23 1356
101 1 1161 23 1397
102 1 1161 23 1417
103 1 1356 23 1397
104 1 1356 23 1417
105 1 1397 23 1417
106 1 1221 24 1306
107 1 1221 24 1416
108 1 1221 24 1437
109 1 1306 24 1416
110 1 1306 24 1437
111 1 1416 24 1437
112 1 1457 25 1482
113 1 1457 25 1507
114 1 1482 25 1507
115 1 241 26 1527
116 1 241 26 1557
117 1 241 26 1582
118 1 1527 26 1557
119 1 1527 26 1582
120 1 1557 26 1582
121 1 306 27 1546
122 1 306 27 1607
123 1 306 27 1627
124 1 1546 27 1607
125 1 1546 27 1627
126 1 1607 27 1627
127 1 391 28 1652
128 1 391 28 1672
129 1 391 28 1697
130 1 1652 28 1672
131 1 1652 28 1697
132 1 1672 28 1697
133 1 441 29 1501
134 1 441 29 1671
135 1 441 29 1717
136 1 1501 29 1671
137 1 1501 29 1717
138 1 1671 29 1717
139 1 476 30 1737
140 1 476 30 1757
141 1 1737 30 1757
142 1 1576 31 1756
143 1 1576 31 1777
144 1 1576 31 1807
145 1 1756 31 1777
146 1 1756 31 1807
147 1 1777 31 1807
148 1 586 32 1626
149 1 586 32 1832
150 1 586 32 1852
151 1 1626 32 1832
152 1 1626 32 1852
153 1 1832 32 1852
154 1 1691 33 1877
155 1 1691 33 1897
156 1 1877 33 1897
157 1 691 34 1896
158 1 691 34 1927
159 1 1896 34 1927
160 1 746 35 1776
161 1 746 35 1962
162 1 1776 35 1962
163 1 836 36 1796
164 1 836 36 1987
165 1 1796 36 1987
166 1 866 37 1851
167 1 866 37 2007
168 1 866 37 2037
169 1 1851 37 2007
170 1 1851 37 2037
171 1 2007 37 2037
172 1 2026 38 2062
173 1 2026 38 2087
174 1 2026 38 2112
175 1 2062 38 2087
176 1 2062 38 2112
177 1 2087 38 2112
178 1 1946 39 2081
179 1 1946 39 2132
180 1 1946 39 2152
181 1 2081 39 2132
182 1 2081 39 2152
183 1 2132 39 2152
184 1 1036 40 1981
185 1 1036 40 2177
186 1 1036 40 2197
187 1 1981 40 2177
188 1 1981 40 2197
189 1 2177 40 2197
190 1 1131 41 2242
191 1 1131 41 2267
192 1 2242 41 2267
193 1 2106 42 2261
194 1 2106 42 2302
195 1 2261 42 2302
196 1 2151 43 2216
197 1 2151 43 2327
198 1 2216 43 2327
199 1 1526 44 2196
200 1 1526 44 2347
201 1 2196 44 2347
202 1 1336 45 1601
203 1 1336 45 2367
204 1 1601 45 2367
205 1 1436 47 1716
206 1 1436 47 2321
207 1 1436 47 2392
208 1 1716 47 2321
209 1 1716 47 2392
210 1 2321 47 2392
211 1 2346 48 2411
212 1 2346 48 2432
213 1 2411 48 2432
214 1 1646 50 2452
215 1 1646 50 2472
216 1 1646 50 2492
217 1 2452 50 2472
218 1 2452 50 2492
219 1 2472 50 2492
220 1 2471 51 2512
221 1 2471 51 2537
222 1 2471 51 2562
223 1 2512 51 2537
224 1 2512 51 2562
225 1 2537 51 2562
226 1 1736 52 2592
227 1 1736 52 2612
228 1 1736 52 2642
229 1 2592 52 2612
230 1 2592 52 2642
231 1 2612 52 2642
232 1 2667 53 2692
233 1 2667 53 2722
234 1 2667 53 2742
235 1 2692 53 2722
236 1 2692 53 2742
237 1 2722 53 2742
238 1 1826 54 2686
239 1 1826 54 2777
240 1 1826 54 2807
241 1 2686 54 2777
242 1 2686 54 2807
243 1 2777 54 2807
244 1 1871 55 2491
245 1 1871 55 2827
246 1 2491 55 2827
247 1 1916 56 2531
248 1 1916 56 2846
249 1 2531 56 2846
250 1 2611 57 2761
251 1 2611 57 2857
252 1 2611 57 2892
253 1 2761 57 2857
254 1 2761 57 2892
255 1 2857 57 2892
256 1 2711 58 2912
257 1 2711 58 2937
258 1 2912 58 2937
259 1 2006 59 2796
260 1 2006 59 2962
261 1 2006 59 2982
262 1 2796 59 2962
263 1 2796 59 2982
264 1 2962 59 2982
265 1 2056 60 3012
266 1 2056 60 3042
267 1 2056 60 3062
268 1 3012 60 3042
269 1 3012 60 3062
270 1 3042 60 3062
271 1 2131 61 3031
272 1 2131 61 3097
273 1 2131 61 3122
274 1 3031 61 3097
275 1 3031 61 3122
276 1 3097 61 3122
277 1 2171 62 2876
278 1 2171 62 2956
279 1 2171 62 3147
280 1 2876 62 2956
281 1 2876 62 3147
282 1 2956 62 3147
283 1 2981 63 3172
284 1 2981 63 3192
285 1 3172 63 3192
286 1 2286 64 3061
287 1 2286 64 3217
288 1 2286 64 3247
289 1 3061 64 3217
290 1 3061 64 3247
291 1 3217 64 3247
292 1 3116 65 3236
293 1 3116 65 3277
294 1 3116 65 3307
295 1 3236 65 3277
296 1 3236 65 3307
297 1 3277 65 3307
298 1 3166 66 3296
299 1 3166 66 3337
300 1 3296 66 3337
301 1 2366 67 3367
302 1 2366 67 3392
303 1 3367 67 3392
304 1 2386 68 3191
305 1 2386 68 3386
306 1 2386 68 3412
307 1 3191 68 3386
308 1 3191 68 3412
309 1 3386 68 3412
310 1 2581 70 3326
311 1 2581 70 3432
312 1 2581 70 3457
313 1 3326 70 3432
314 1 3326 70 3457
315 1 3432 70 3457
316 1 2451 71 2661
317 1 2451 71 3451
318 1 2451 71 3477
319 1 2661 71 3451
320 1 2661 71 3477
321 1 3451 71 3477
322 1 3521 73 3527
323 1 3521 73 3552
324 1 3527 73 3552
325 1 2511 74 3582
326 1 2511 74 3622
327 1 2511 74 3652
328 1 3582 74 3622
329 1 3582 74 3652
330 1 3622 74 3652
331 1 2556 75 3601
332 1 2556 75 3672
333 1 2556 75 3692
334 1 3601 75 3672
335 1 3601 75 3692
336 1 3672 75 3692
337 1 2631 76 3712
338 1 2631 76 3732
339 1 3712 76 3732
340 1 2741 77 3757
341 1 2741 77 3782
342 1 3757 77 3782
343 1 2826 78 3776
344 1 2826 78 3812
345 1 2826 78 3837
346 1 3776 78 3812
347 1 3776 78 3837
348 1 3812 78 3837
349 1 3831 79 3867
350 1 3831 79 3887
351 1 3831 79 3917
352 1 3867 79 3887
353 1 3867 79 3917
354 1 3887 79 3917
355 1 3691 80 3886
356 1 3691 80 3942
357 1 3886 80 3942
358 1 2911 81 3967
359 1 2911 81 3992
360 1 3967 81 3992
361 1 2931 82 4012
362 1 2931 82 4042
363 1 2931 82 4062
364 1 4012 82 4042
365 1 4012 82 4062
366 1 4042 82 4062
367 1 3001 83 4102
368 1 3001 83 4127
369 1 4102 83 4127
370 1 3081 84 3906
371 1 3081 84 4121
372 1 3081 84 4147
373 1 3906 84 4121
374 1 3906 84 4147
375 1 4121 84 4147
376 1 3141 85 3961
377 1 3141 85 4172
378 1 3141 85 4197
379 1 3961 85 4172
380 1 3961 85 4197
381 1 4172 85 4197
382 1 3986 86 4081
383 1 3986 86 4191
384 1 3986 86 4222
385 1 4081 86 4191
386 1 4081 86 4222
387 1 4191 86 4222
388 1 4031 87 4252
389 1 4031 87 4282
390 1 4252 87 4282
391 1 3211 88 4271
392 1 3211 88 4302
393 1 3211 88 4322
394 1 4271 88 4302
395 1 4271 88 4322
396 1 4302 88 4322
397 1 3266 89 4166
398 1 3266 89 4342
399 1 4166 89 4342
400 1 4216 90 4372
401 1 4216 90 4407
402 1 4216 90 4427
403 1 4372 90 4407
404 1 4372 90 4427
405 1 4407 90 4427
406 1 3356 91 4301
407 1 3356 91 4391
408 1 3356 91 4462
409 1 4301 91 4391
410 1 4301 91 4462
411 1 4391 91 4462
412 1 3411 92 4502
413 1 3411 92 4522
414 1 3411 92 4552
415 1 4502 92 4522
416 1 4502 92 4552
417 1 4522 92 4552
418 1 3571 93 4321
419 1 3571 93 4521
420 1 3571 93 4582
421 1 4321 93 4521
422 1 4321 93 4582
423 1 4521 93 4582
424 1 3671 94 4612
425 1 3671 94 4637
426 1 4612 94 4637
427 1 3476 95 4426
428 1 3476 95 4631
429 1 3476 95 4662
430 1 4426 95 4631
431 1 4426 95 4662
432 1 4631 95 4662
433 1 3496 96 3751
434 1 3496 96 4571
435 1 3751 96 4571
436 1 4687 97 4712
437 1 4687 97 4742
438 1 4712 97 4742
439 1 3546 98 4706
440 1 3546 98 4762
441 1 3546 98 4792
442 1 4706 98 4762
443 1 4706 98 4792
444 1 4762 98 4792
445 1 3641 99 4822
446 1 3641 99 4842
447 1 4822 99 4842
448 1 3711 100 4841
449 1 3711 100 4872
450 1 3711 100 4907
451 1 4841 100 4872
452 1 4841 100 4907
453 1 4872 100 4907
454 1 3731 101 4731
455 1 3731 101 4891
456 1 3731 101 4927
457 1 4731 101 4891
458 1 4731 101 4927
459 1 4891 101 4927
460 1 516 102 3801
461 1 516 102 4947
462 1 516 102 4972
463 1 3801 102 4947
464 1 3801 102 4972
465 1 4947 102 4972
466 1 3856 103 4781
467 1 3856 103 4992
468 1 4781 103 4992
469 1 606 104 3936
470 1 606 104 4861
471 1 606 104 5012
472 1 3936 104 4861
473 1 3936 104 5012
474 1 4861 104 5012
475 1 651 105 4926
476 1 651 105 5032
477 1 4926 105 5032
478 1 4011 106 4991
479 1 4011 106 5062
480 1 4991 106 5062
481 1 4061 107 4966
482 1 4061 107 5097
483 1 4061 107 5122
484 1 4966 107 5097
485 1 4966 107 5122
486 1 5097 107 5122
487 1 4146 108 5011
488 1 4146 108 5116
489 1 4146 108 5147
490 1 5011 108 5116
491 1 5011 108 5147
492 1 5116 108 5147
493 1 891 109 5031
494 1 891 109 5166
495 1 891 109 5177
496 1 5031 109 5166
497 1 5031 109 5177
498 1 5166 109 5177
499 1 966 110 5051
500 1 966 110 5197
501 1 966 110 5227
502 1 5051 110 5197
503 1 5051 110 5227
504 1 5197 110 5227
505 1 4241 111 5081
506 1 4241 111 5216
507 1 4241 111 5252
508 1 5081 111 5216
509 1 5081 111 5252
510 1 5216 111 5252
511 1 1111 113 4341
512 1 1111 113 5272
513 1 1111 113 5297
514 1 4341 113 5272
515 1 4341 113 5297
516 1 5272 113 5297
517 1 4361 114 5196
518 1 4361 114 5291
519 1 4361 114 5317
520 1 5196 114 5291
521 1 5196 114 5317
522 1 5291 114 5317
523 1 1186 115 4446
524 1 1186 115 5246
525 1 1186 115 5337
526 1 4446 115 5246
527 1 4446 115 5337
528 1 5246 115 5337
529 1 1251 116 4481
530 1 1251 116 5271
531 1 4481 116 5271
532 1 4541 117 4761
533 1 4541 117 5362
534 1 4761 117 5362
535 1 4601 118 4811
536 1 4601 118 5316
537 1 4601 118 5381
538 1 4811 118 5316
539 1 4811 118 5381
540 1 5316 118 5381
541 1 4656 119 5336
542 1 4656 119 5392
543 1 5336 119 5392
544 1 4681 120 5356
545 1 4681 120 5411
546 1 4681 120 5417
547 1 5356 120 5411
548 1 5356 120 5417
549 1 5411 120 5417
550 1 1456 121 4946
551 1 1456 121 5436
552 1 4946 121 5436
553 1 123 122 1
554 1 123 122 142
555 1 1 122 142
556 1 122 123 124
557 1 122 123 147
558 1 124 123 147
559 1 123 124 125
560 1 124 125 126
561 1 125 126 127
562 1 126 127 128
563 1 127 128 129
564 1 128 129 130
565 1 129 130 131
566 1 130 131 132
567 1 131 132 133
568 1 132 133 134
569 1 133 134 135
570 1 134 135 136
571 1 135 136 137
572 1 136 137 138
573 1 136 137 152
574 1 138 137 152
575 1 137 138 139
576 1 138 139 140
577 1 139 140 141
578 1 140 141 6
579 1 122 142 143
580 1 142 143 144
581 1 143 144 145
582 1 144 145 146
583 1 123 147 148
584 1 147 148 149
585 1 148 149 150
586 1 149 150 151
587 1 137 152 153
588 1 152 153 154
589 1 153 154 155
590 1 154 155 156
591 1 158 157 1
592 1 157 158 159
593 1 158 159 160
594 1 159 160 161
595 1 160 161 162
596 1 161 162 163
597 1 162 163 164
598 1 163 164 165
599 1 164 165 166
600 1 165 166 167
601 1 166 167 168
602 1 167 168 169
603 1 168 169 170
604 1 169 170 171
605 1 170 171 172
606 1 171 172 173
607 1 172 173 174
608 1 173 174 175
609 1 174 175 176
610 1 175 176 5
611 1 178 177 1
612 1 177 178 179
613 1 178 179 180
614 1 179 180 181
615 1 180 181 182
616 1 181 182 183
617 1 182 183 184
618 1 183 184 185
619 1 184 185 186
620 1 185 186 187
621 1 186 187 188
622 1 187 188 189
623 1 188 189 190
624 1 189 190 191
625 1 190 191 192
626 1 191 192 193
627 1 192 193 194
628 1 193 194 195
629 1 194 195 196
630 1 195 196 20
631 1 198 197 2
632 1 197 198 199
633 1 198 199 200
634 1 198 199 217
635 1 200 199 217
636 1 199 200 201
637 1 200 201 202
638 1 201 202 203
639 1 202 203 204
640 1 203 204 205
641 1 204 205 206
642 1 205 206 207
643 1 206 207 208
644 1 207 208 209
645 1 208 209 210
646 1 209 210 211
647 1 210 211 212
648 1 211 212 213
649 1 212 213 214
650 1 213 214 215
651 1 214 215 216
652 1 215 216 3
653 1 199 217 218
654 1 217 218 219
655 1 218 219 220
656 1 219 220 221
657 1 223 222 2
658 1 222 223 224
659 1 223 224 225
660 1 224 225 226
661 1 225 226 227
662 1 226 227 228
663 1 227 228 229
664 1 228 229 230
665 1 229 230 231
666 1 230 231 232
667 1 231 232 233
668 1 232 233 234
669 1 233 234 235
670 1 234 235 236
671 1 235 236 237
672 1 236 237 238
673 1 237 238 239
674 1 238 239 240
675 1 239 240 241
676 1 240 241 26
677 1 243 242 2
678 1 242 243 244
679 1 243 244 245
680 1 244 245 246
681 1 245 246 247
682 1 246 247 248
683 1 247 248 249
684 1 248 249 250
685 1 249 250 251
686 1 250 251 252
687 1 251 252 253
688 1 252 253 254
689 1 253 254 255
690 1 254 255 256
691 1 255 256 257
692 1 256 257 258
693 1 257 258 259
694 1 258 259 260
695 1 259 260 261
696 1 260 261 21
697 1 263 262 3
698 1 262 263 264
699 1 263 264 265
700 1 264 265 266
701 1 265 266 267
702 1 266 267 268
703 1 267 268 269
704 1 268 269 270
705 1 269 270 271
706 1 270 271 272
707 1 271 272 273
708 1 272 273 274
709 1 273 274 275
710 1 273 274 282
711 1 275 274 282
712 1 274 275 276
713 1 275 276 277
714 1 276 277 278
715 1 277 278 279
716 1 278 279 280
717 1 279 280 281
718 1 280 281 4
719 1 274 282 283
720 1 282 283 284
721 1 283 284 285
722 1 284 285 286
723 1 288 287 3
724 1 287 288 289
725 1 288 289 290
726 1 289 290 291
727 1 290 291 292
728 1 291 292 293
729 1 292 293 294
730 1 293 294 295
731 1 294 295 296
732 1 295 296 297
733 1 296 297 298
734 1 297 298 299
735 1 298 299 300
736 1 299 300 301
737 1 300 301 302
738 1 301 302 303
739 1 302 303 304
740 1 303 304 305
741 1 304 305 306
742 1 305 306 27
743 1 308 307 3
744 1 307 308 309
745 1 308 309 310
746 1 309 310 311
747 1 310 311 312
748 1 311 312 313
749 1 312 313 314
750 1 313 314 315
751 1 314 315 316
752 1 315 316 317
753 1 316 317 318
754 1 317 318 319
755 1 318 319 320
756 1 319 320 321
757 1 320 321 322
758 1 321 322 323
759 1 322 323 324
760 1 323 324 325
761 1 324 325 326
762 1 325 326 22
763 1 328 327 4
764 1 327 328 329
765 1 328 329 330
766 1 328 329 347
767 1 330 329 347
768 1 329 330 331
769 1 330 331 332
770 1 331 332 333
771 1 332 333 334
772 1 333 334 335
773 1 334 335 336
774 1 335 336 337
775 1 336 337 338
776 1 337 338 339
777 1 338 339 340
778 1 339 340 341
779 1 340 341 342
780 1 341 342 343
781 1 342 343 344
782 1 343 344 345
783 1 344 345 346
784 1 345 346 5
785 1 329 347 348
786 1 347 348 349
787 1 348 349 350
788 1 349 350 351
789 1 353 352 4
790 1 352 353 354
791 1 353 354 355
792 1 354 355 356
793 1 355 356 357
794 1 356 357 358
795 1 357 358 359
796 1 358 359 360
797 1 359 360 361
798 1 360 361 362
799 1 361 362 363
800 1 362 363 364
801 1 363 364 365
802 1 364 365 366
803 1 365 366 367
804 1 366 367 368
805 1 367 368 369
806 1 368 369 370
807 1 369 370 371
808 1 370 371 8
809 1 373 372 4
810 1 372 373 374
811 1 373 374 375
812 1 374 375 376
813 1 375 376 377
814 1 376 377 378
815 1 377 378 379
816 1 378 379 380
817 1 379 380 381
818 1 380 381 382
819 1 381 382 383
820 1 382 383 384
821 1 383 384 385
822 1 384 385 386
823 1 385 386 387
824 1 386 387 388
825 1 387 388 389
826 1 388 389 390
827 1 389 390 391
828 1 390 391 28
829 1 393 392 5
830 1 392 393 394
831 1 393 394 395
832 1 394 395 396
833 1 394 395 412
834 1 396 395 412
835 1 395 396 397
836 1 396 397 398
837 1 397 398 399
838 1 398 399 400
839 1 399 400 401
840 1 400 401 402
841 1 401 402 403
842 1 402 403 404
843 1 403 404 405
844 1 404 405 406
845 1 405 406 407
846 1 405 406 417
847 1 407 406 417
848 1 406 407 408
849 1 407 408 409
850 1 408 409 410
851 1 409 410 411
852 1 410 411 9
853 1 395 412 413
854 1 412 413 414
855 1 413 414 415
856 1 414 415 416
857 1 406 417 418
858 1 417 418 419
859 1 418 419 420
860 1 419 420 421
861 1 423 422 5
862 1 422 423 424
863 1 423 424 425
864 1 424 425 426
865 1 425 426 427
866 1 426 427 428
867 1 427 428 429
868 1 428 429 430
869 1 428 429 442
870 1 430 429 442
871 1 429 430 431
872 1 430 431 432
873 1 431 432 433
874 1 432 433 434
875 1 433 434 435
876 1 434 435 436
877 1 434 435 447
878 1 436 435 447
879 1 435 436 437
880 1 435 436 452
881 1 437 436 452
882 1 436 437 438
883 1 437 438 439
884 1 438 439 440
885 1 439 440 441
886 1 440 441 29
887 1 429 442 443
888 1 442 443 444
889 1 443 444 445
890 1 444 445 446
891 1 435 447 448
892 1 447 448 449
893 1 448 449 450
894 1 449 450 451
895 1 436 452 453
896 1 452 453 454
897 1 453 454 455
898 1 454 455 456
899 1 458 457 6
900 1 457 458 459
901 1 458 459 460
902 1 459 460 461
903 1 460 461 462
904 1 461 462 463
905 1 462 463 464
906 1 463 464 465
907 1 464 465 466
908 1 465 466 467
909 1 466 467 468
910 1 467 468 469
911 1 468 469 470
912 1 469 470 471
913 1 470 471 472
914 1 471 472 473
915 1 472 473 474
916 1 473 474 475
917 1 474 475 476
918 1 475 476 30
919 1 478 477 6
920 1 477 478 479
921 1 478 479 480
922 1 479 480 481
923 1 480 481 482
924 1 481 482 483
925 1 482 483 484
926 1 483 484 485
927 1 484 485 486
928 1 485 486 487
929 1 486 487 488
930 1 487 488 489
931 1 488 489 490
932 1 489 490 491
933 1 490 491 492
934 1 491 492 493
935 1 492 493 494
936 1 493 494 495
937 1 494 495 496
938 1 495 496 9
939 1 498 497 6
940 1 497 498 499
941 1 498 499 500
942 1 499 500 501
943 1 500 501 502
944 1 501 502 503
945 1 501 502 517
946 1 503 502 517
947 1 502 503 504
948 1 503 504 505
949 1 504 505 506
950 1 505 506 507
951 1 506 507 508
952 1 507 508 509
953 1 508 509 510
954 1 509 510 511
955 1 509 510 522
956 1 511 510 522
957 1 510 511 512
958 1 511 512 513
959 1 512 513 514
960 1 513 514 515
961 1 514 515 516
962 1 515 516 102
963 1 502 517 518
964 1 517 518 519
965 1 518 519 520
966 1 519 520 521
967 1 510 522 523
968 1 522 523 524
969 1 523 524 525
970 1 524 525 526
971 1 528 527 7
972 1 527 528 529
973 1 528 529 530
974 1 529 530 531
975 1 530 531 532
976 1 531 532 533
977 1 532 533 534
978 1 533 534 535
979 1 534 535 536
980 1 535 536 537
981 1 536 537 538
982 1 537 538 539
983 1 538 539 540
984 1 539 540 541
985 1 540 541 542
986 1 541 542 543
987 1 542 543 544
988 1 543 544 545
989 1 544 545 546
990 1 545 546 8
991 1 548 547 7
992 1 547 548 549
993 1 548 549 550
994 1 549 550 551
995 1 550 551 552
996 1 551 552 553
997 1 552 553 554
998 1 553 554 555
999 1 554 555 556
1000 1 555 556 557
1001 1 556 557 558
1002 1 557 558 559
1003 1 558 559 560
1004 1 559 560 561
1005 1 560 561 562
1006 1 561 562 563
1007 1 562 563 564
1008 1 563 564 565
1009 1 564 565 566
1010 1 565 566 12
1011 1 568 567 7
1012 1 567 568 569
1013 1 568 569 570
1014 1 569 570 571
1015 1 570 571 572
1016 1 571 572 573
1017 1 572 573 574
1018 1 573 574 575
1019 1 574 575 576
1020 1 575 576 577
1021 1 576 577 578
1022 1 577 578 579
1023 1 578 579 580
1024 1 579 580 581
1025 1 580 581 582
1026 1 581 582 583
1027 1 582 583 584
1028 1 583 584 585
1029 1 584 585 586
1030 1 585 586 32
1031 1 588 587 7
1032 1 587 588 589
1033 1 588 589 590
1034 1 589 590 591
1035 1 590 591 592
1036 1 591 592 593
1037 1 592 593 594
1038 1 593 594 595
1039 1 594 595 596
1040 1 595 596 597
1041 1 596 597 598
1042 1 597 598 599
1043 1 598 599 600
1044 1 599 600 601
1045 1 600 601 602
1046 1 601 602 603
1047 1 602 603 604
1048 1 603 604 605
1049 1 604 605 606
1050 1 605 606 104
1051 1 608 607 8
1052 1 607 608 609
1053 1 608 609 610
1054 1 609 610 611
1055 1 610 611 612
1056 1 611 612 613
1057 1 612 613 614
1058 1 613 614 615
1059 1 614 615 616
1060 1 615 616 617
1061 1 616 617 618
1062 1 617 618 619
1063 1 618 619 620
1064 1 619 620 621
1065 1 620 621 622
1066 1 621 622 623
1067 1 622 623 624
1068 1 623 624 625
1069 1 624 625 626
1070 1 624 625 627
1071 1 626 625 627
1072 1 625 626 9
1073 1 625 627 628
1074 1 627 628 629
1075 1 628 629 630
1076 1 629 630 631
1077 1 633 632 8
1078 1 633 632 652
1079 1 8 632 652
1080 1 632 633 634
1081 1 633 634 635
1082 1 634 635 636
1083 1 634 635 657
1084 1 636 635 657
1085 1 635 636 637
1086 1 636 637 638
1087 1 637 638 639
1088 1 638 639 640
1089 1 638 639 662
1090 1 640 639 662
1091 1 639 640 641
1092 1 640 641 642
1093 1 641 642 643
1094 1 642 643 644
1095 1 643 644 645
1096 1 644 645 646
1097 1 645 646 647
1098 1 646 647 648
1099 1 647 648 649
1100 1 648 649 650
1101 1 648 649 667
1102 1 650 649 667
1103 1 649 650 651
1104 1 650 651 105
1105 1 632 652 653
1106 1 652 653 654
1107 1 653 654 655
1108 1 654 655 656
1109 1 635 657 658
1110 1 657 658 659
1111 1 658 659 660
1112 1 659 660 661
1113 1 639 662 663
1114 1 662 663 664
1115 1 663 664 665
1116 1 664 665 666
1117 1 649 667 668
1118 1 667 668 669
1119 1 668 669 670
1120 1 669 670 671
1121 1 673 672 9
1122 1 672 673 674
1123 1 673 674 675
1124 1 674 675 676
1125 1 675 676 677
1126 1 676 677 678
1127 1 676 677 692
1128 1 678 677 692
1129 1 677 678 679
1130 1 678 679 680
1131 1 679 680 681
1132 1 680 681 682
1133 1 681 682 683
1134 1 682 683 684
1135 1 683 684 685
1136 1 684 685 686
1137 1 685 686 687
1138 1 686 687 688
1139 1 687 688 689
1140 1 688 689 690
1141 1 689 690 691
1142 1 690 691 34
1143 1 677 692 693
1144 1 692 693 694
1145 1 693 694 695
1146 1 694 695 696
1147 1 698 697 10
1148 1 697 698 699
1149 1 698 699 700
1150 1 699 700 701
1151 1 700 701 702
1152 1 701 702 703
1153 1 701 702 717
1154 1 703 702 717
1155 1 702 703 704
1156 1 703 704 705
1157 1 704 705 706
1158 1 705 706 707
1159 1 706 707 708
1160 1 707 708 709
1161 1 708 709 710
1162 1 709 710 711
1163 1 710 711 712
1164 1 711 712 713
1165 1 712 713 714
1166 1 713 714 715
1167 1 714 715 716
1168 1 715 716 15
1169 1 715 716 722
1170 1 15 716 722
1171 1 702 717 718
1172 1 717 718 719
1173 1 718 719 720
1174 1 719 720 721
1175 1 716 722 723
1176 1 722 723 724
1177 1 723 724 725
1178 1 724 725 726
1179 1 728 727 10
1180 1 727 728 729
1181 1 728 729 730
1182 1 729 730 731
1183 1 730 731 732
1184 1 731 732 733
1185 1 732 733 734
1186 1 733 734 735
1187 1 734 735 736
1188 1 735 736 737
1189 1 736 737 738
1190 1 737 738 739
1191 1 737 738 747
1192 1 739 738 747
1193 1 738 739 740
1194 1 739 740 741
1195 1 740 741 742
1196 1 741 742 743
1197 1 742 743 744
1198 1 743 744 745
1199 1 744 745 746
1200 1 745 746 35
1201 1 738 747 748
1202 1 747 748 749
1203 1 748 749 750
1204 1 749 750 751
1205 1 753 752 10
1206 1 752 753 754
1207 1 753 754 755
1208 1 754 755 756
1209 1 755 756 757
1210 1 756 757 758
1211 1 757 758 759
1212 1 758 759 760
1213 1 759 760 761
1214 1 760 761 762
1215 1 761 762 763
1216 1 762 763 764
1217 1 763 764 765
1218 1 764 765 766
1219 1 765 766 767
1220 1 766 767 768
1221 1 767 768 769
1222 1 768 769 770
1223 1 769 770 771
1224 1 770 771 14
1225 1 773 772 11
1226 1 772 773 774
1227 1 773 774 775
1228 1 774 775 776
1229 1 774 775 792
1230 1 776 775 792
1231 1 775 776 777
1232 1 776 777 778
1233 1 777 778 779
1234 1 778 779 780
1235 1 779 780 781
1236 1 780 781 782
1237 1 781 782 783
1238 1 782 783 784
1239 1 783 784 785
1240 1 784 785 786
1241 1 785 786 787
1242 1 786 787 788
1243 1 787 788 789
1244 1 788 789 790
1245 1 789 790 791
1246 1 790 791 12
1247 1 775 792 793
1248 1 792 793 794
1249 1 793 794 795
1250 1 794 795 796
1251 1 798 797 11
1252 1 797 798 799
1253 1 798 799 800
1254 1 799 800 801
1255 1 800 801 802
1256 1 801 802 803
1257 1 802 803 804
1258 1 803 804 805
1259 1 804 805 806
1260 1 805 806 807
1261 1 806 807 808
1262 1 807 808 809
1263 1 808 809 810
1264 1 809 810 811
1265 1 810 811 812
1266 1 811 812 813
1267 1 812 813 814
1268 1 813 814 815
1269 1 814 815 816
1270 1 815 816 16
1271 1 818 817 11
1272 1 817 818 819
1273 1 817 818 837
1274 1 819 818 837
1275 1 818 819 820
1276 1 819 820 821
1277 1 820 821 822
1278 1 821 822 823
1279 1 822 823 824
1280 1 823 824 825
1281 1 824 825 826
1282 1 825 826 827
1283 1 826 827 828
1284 1 827 828 829
1285 1 827 828 842
1286 1 829 828 842
1287 1 828 829 830
1288 1 829 830 831
1289 1 830 831 832
1290 1 831 832 833
1291 1 832 833 834
1292 1 833 834 835
1293 1 834 835 836
1294 1 835 836 36
1295 1 818 837 838
1296 1 837 838 839
1297 1 838 839 840
1298 1 839 840 841
1299 1 828 842 843
1300 1 842 843 844
1301 1 843 844 845
1302 1 844 845 846
1303 1 848 847 12
1304 1 847 848 849
1305 1 848 849 850
1306 1 849 850 851
1307 1 850 851 852
1308 1 851 852 853
1309 1 852 853 854
1310 1 853 854 855
1311 1 854 855 856
1312 1 855 856 857
1313 1 856 857 858
1314 1 857 858 859
1315 1 857 858 867
1316 1 859 858 867
1317 1 858 859 860
1318 1 859 860 861
1319 1 860 861 862
1320 1 861 862 863
1321 1 862 863 864
1322 1 863 864 865
1323 1 864 865 866
1324 1 865 866 37
1325 1 858 867 868
1326 1 867 868 869
1327 1 868 869 870
1328 1 869 870 871
1329 1 873 872 12
1330 1 872 873 874
1331 1 873 874 875
1332 1 874 875 876
1333 1 875 876 877
1334 1 876 877 878
1335 1 876 877 892
1336 1 878 877 892
1337 1 877 878 879
1338 1 878 879 880
1339 1 879 880 881
1340 1 880 881 882
1341 1 881 882 883
1342 1 882 883 884
1343 1 883 884 885
1344 1 884 885 886
1345 1 885 886 887
1346 1 886 887 888
1347 1 887 888 889
1348 1 888 889 890
1349 1 889 890 891
1350 1 890 891 109
1351 1 877 892 893
1352 1 892 893 894
1353 1 893 894 895
1354 1 894 895 896
1355 1 898 897 13
1356 1 897 898 899
1357 1 898 899 900
1358 1 899 900 901
1359 1 900 901 902
1360 1 901 902 903
1361 1 901 902 917
1362 1 903 902 917
1363 1 902 903 904
1364 1 903 904 905
1365 1 904 905 906
1366 1 905 906 907
1367 1 906 907 908
1368 1 907 908 909
1369 1 908 909 910
1370 1 909 910 911
1371 1 910 911 912
1372 1 911 912 913
1373 1 912 913 914
1374 1 913 914 915
1375 1 914 915 916
1376 1 915 916 14
1377 1 902 917 918
1378 1 917 918 919
1379 1 918 919 920
1380 1 919 920 921
1381 1 923 922 13
1382 1 922 923 924
1383 1 923 924 925
1384 1 924 925 926
1385 1 925 926 927
1386 1 926 927 928
1387 1 927 928 929
1388 1 928 929 930
1389 1 929 930 931
1390 1 930 931 932
1391 1 931 932 933
1392 1 932 933 934
1393 1 932 933 942
1394 1 934 933 942
1395 1 933 934 935
1396 1 934 935 936
1397 1 935 936 937
1398 1 936 937 938
1399 1 937 938 939
1400 1 938 939 940
1401 1 939 940 941
1402 1 940 941 18
1403 1 933 942 943
1404 1 942 943 944
1405 1 943 944 945
1406 1 944 945 946
1407 1 948 947 13
1408 1 947 948 949
1409 1 948 949 950
1410 1 949 950 951
1411 1 950 951 952
1412 1 951 952 953
1413 1 952 953 954
1414 1 953 954 955
1415 1 954 955 956
1416 1 955 956 957
1417 1 956 957 958
1418 1 957 958 959
1419 1 958 959 960
1420 1 959 960 961
1421 1 960 961 962
1422 1 961 962 963
1423 1 962 963 964
1424 1 963 964 965
1425 1 964 965 966
1426 1 965 966 110
1427 1 968 967 14
1428 1 967 968 969
1429 1 968 969 970
1430 1 969 970 971
1431 1 970 971 972
1432 1 971 972 973
1433 1 972 973 974
1434 1 973 974 975
1435 1 974 975 976
1436 1 975 976 977
1437 1 976 977 978
1438 1 977 978 979
1439 1 978 979 980
1440 1 979 980 981
1441 1 980 981 982
1442 1 981 982 983
1443 1 982 983 984
1444 1 983 984 985
1445 1 984 985 986
1446 1 985 986 19
1447 1 988 987 15
1448 1 987 988 989
1449 1 988 989 990
1450 1 989 990 991
1451 1 990 991 992
1452 1 991 992 993
1453 1 992 993 994
1454 1 993 994 995
1455 1 994 995 996
1456 1 995 996 997
1457 1 996 997 998
1458 1 997 998 999
1459 1 998 999 1000
1460 1 999 1000 1001
1461 1 999 1000 1007
1462 1 1001 1000 1007
1463 1 1000 1001 1002
1464 1 1000 1001 1012
1465 1 1002 1001 1012
1466 1 1001 1002 1003
1467 1 1002 1003 1004
1468 1 1003 1004 1005
1469 1 1004 1005 1006
1470 1 1005 1006 20
1471 1 1000 1007 1008
1472 1 1007 1008 1009
1473 1 1008 1009 1010
1474 1 1009 1010 1011
1475 1 1001 1012 1013
1476 1 1012 1013 1014
1477 1 1013 1014 1015
1478 1 1014 1015 1016
1479 1 1018 1017 15
1480 1 1018 1017 1037
1481 1 15 1017 1037
1482 1 1017 1018 1019
1483 1 1018 1019 1020
1484 1 1019 1020 1021
1485 1 1020 1021 1022
1486 1 1021 1022 1023
1487 1 1022 1023 1024
1488 1 1023 1024 1025
1489 1 1024 1025 1026
1490 1 1025 1026 1027
1491 1 1026 1027 1028
1492 1 1027 1028 1029
1493 1 1028 1029 1030
1494 1 1028 1029 1042
1495 1 1030 1029 1042
1496 1 1029 1030 1031
1497 1 1030 1031 1032
1498 1 1031 1032 1033
1499 1 1032 1033 1034
1500 1 1033 1034 1035
1501 1 1034 1035 1036
1502 1 1035 1036 40
1503 1 1017 1037 1038
1504 1 1037 1038 1039
1505 1 1038 1039 1040
1506 1 1039 1040 1041
1507 1 1029 1042 1043
1508 1 1042 1043 1044
1509 1 1043 1044 1045
1510 1 1044 1045 1046
1511 1 1048 1047 15
1512 1 1047 1048 1049
1513 1 1048 1049 1050
1514 1 1049 1050 1051
1515 1 1050 1051 1052
1516 1 1051 1052 1053
1517 1 1052 1053 1054
1518 1 1053 1054 1055
1519 1 1054 1055 1056
1520 1 1055 1056 1057
1521 1 1056 1057 1058
1522 1 1057 1058 1059
1523 1 1058 1059 1060
1524 1 1059 1060 1061
1525 1 1060 1061 1062
1526 1 1061 1062 1063
1527 1 1062 1063 1064
1528 1 1063 1064 1065
1529 1 1064 1065 1066
1530 1 1065 1066 19
1531 1 1068 1067 16
1532 1 1067 1068 1069
1533 1 1068 1069 1070
1534 1 1069 1070 1071
1535 1 1070 1071 1072
1536 1 1071 1072 1073
1537 1 1072 1073 1074
1538 1 1073 1074 1075
1539 1 1074 1075 1076
1540 1 1075 1076 1077
1541 1 1076 1077 1078
1542 1 1077 1078 1079
1543 1 1077 1078 1087
1544 1 1079 1078 1087
1545 1 1078 1079 1080
1546 1 1079 1080 1081
1547 1 1080 1081 1082
1548 1 1081 1082 1083
1549 1 1082 1083 1084
1550 1 1083 1084 1085
1551 1 1084 1085 1086
1552 1 1085 1086 21
1553 1 1078 1087 1088
1554 1 1087 1088 1089
1555 1 1088 1089 1090
1556 1 1089 1090 1091
1557 1 1093 1092 16
1558 1 1092 1093 1094
1559 1 1093 1094 1095
1560 1 1094 1095 1096
1561 1 1095 1096 1097
1562 1 1096 1097 1098
1563 1 1097 1098 1099
1564 1 1098 1099 1100
1565 1 1099 1100 1101
1566 1 1100 1101 1102
1567 1 1101 1102 1103
1568 1 1102 1103 1104
1569 1 1103 1104 1105
1570 1 1104 1105 1106
1571 1 1105 1106 1107
1572 1 1106 1107 1108
1573 1 1107 1108 1109
1574 1 1108 1109 1110
1575 1 1109 1110 1111
1576 1 1110 1111 113
1577 1 1113 1112 17
1578 1 1112 1113 1114
1579 1 1113 1114 1115
1580 1 1114 1115 1116
1581 1 1114 1115 1132
1582 1 1116 1115 1132
1583 1 1115 1116 1117
1584 1 1116 1117 1118
1585 1 1117 1118 1119
1586 1 1118 1119 1120
1587 1 1119 1120 1121
1588 1 1120 1121 1122
1589 1 1121 1122 1123
1590 1 1122 1123 1124
1591 1 1123 1124 1125
1592 1 1124 1125 1126
1593 1 1125 1126 1127
1594 1 1126 1127 1128
1595 1 1127 1128 1129
1596 1 1128 1129 1130
1597 1 1129 1130 1131
1598 1 1129 1130 1137
1599 1 1131 1130 1137
1600 1 1130 1131 41
1601 1 1115 1132 1133
1602 1 1132 1133 1134
1603 1 1133 1134 1135
1604 1 1134 1135 1136
1605 1 1130 1137 1138
1606 1 1137 1138 1139
1607 1 1138 1139 1140
1608 1 1139 1140 1141
1609 1 1143 1142 18
1610 1 1142 1143 1144
1611 1 1143 1144 1145
1612 1 1144 1145 1146
1613 1 1145 1146 1147
1614 1 1146 1147 1148
1615 1 1147 1148 1149
1616 1 1148 1149 1150
1617 1 1149 1150 1151
1618 1 1150 1151 1152
1619 1 1151 1152 1153
1620 1 1152 1153 1154
1621 1 1153 1154 1155
1622 1 1154 1155 1156
1623 1 1154 1155 1162
1624 1 1156 1155 1162
1625 1 1155 1156 1157
1626 1 1156 1157 1158
1627 1 1157 1158 1159
1628 1 1158 1159 1160
1629 1 1159 1160 1161
1630 1 1160 1161 23
1631 1 1155 1162 1163
1632 1 1162 1163 1164
1633 1 1163 1164 1165
1634 1 1164 1165 1166
1635 1 1168 1167 18
1636 1 1167 1168 1169
1637 1 1167 1168 1187
1638 1 1169 1168 1187
1639 1 1168 1169 1170
1640 1 1169 1170 1171
1641 1 1170 1171 1172
1642 1 1170 1171 1192
1643 1 1172 1171 1192
1644 1 1171 1172 1173
1645 1 1172 1173 1174
1646 1 1173 1174 1175
1647 1 1174 1175 1176
1648 1 1175 1176 1177
1649 1 1176 1177 1178
1650 1 1177 1178 1179
1651 1 1178 1179 1180
1652 1 1178 1179 1197
1653 1 1180 1179 1197
1654 1 1179 1180 1181
1655 1 1180 1181 1182
1656 1 1181 1182 1183
1657 1 1182 1183 1184
1658 1 1183 1184 1185
1659 1 1184 1185 1186
1660 1 1185 1186 115
1661 1 1168 1187 1188
1662 1 1187 1188 1189
1663 1 1188 1189 1190
1664 1 1189 1190 1191
1665 1 1171 1192 1193
1666 1 1192 1193 1194
1667 1 1193 1194 1195
1668 1 1194 1195 1196
1669 1 1179 1197 1198
1670 1 1197 1198 1199
1671 1 1198 1199 1200
1672 1 1199 1200 1201
1673 1 1203 1202 19
1674 1 1202 1203 1204
1675 1 1203 1204 1205
1676 1 1204 1205 1206
1677 1 1205 1206 1207
1678 1 1206 1207 1208
1679 1 1207 1208 1209
1680 1 1208 1209 1210
1681 1 1209 1210 1211
1682 1 1209 1210 1222
1683 1 1211 1210 1222
1684 1 1210 1211 1212
1685 1 1211 1212 1213
1686 1 1212 1213 1214
1687 1 1213 1214 1215
1688 1 1213 1214 1227
1689 1 1215 1214 1227
1690 1 1214 1215 1216
1691 1 1215 1216 1217
1692 1 1216 1217 1218
1693 1 1217 1218 1219
1694 1 1218 1219 1220
1695 1 1219 1220 1221
1696 1 1220 1221 24
1697 1 1210 1222 1223
1698 1 1222 1223 1224
1699 1 1223 1224 1225
1700 1 1224 1225 1226
1701 1 1214 1227 1228
1702 1 1227 1228 1229
1703 1 1228 1229 1230
1704 1 1229 1230 1231
1705 1 1233 1232 19
1706 1 1232 1233 1234
1707 1 1233 1234 1235
1708 1 1234 1235 1236
1709 1 1235 1236 1237
1710 1 1236 1237 1238
1711 1 1237 1238 1239
1712 1 1238 1239 1240
1713 1 1238 1239 1252
1714 1 1240 1239 1252
1715 1 1239 1240 1241
1716 1 1240 1241 1242
1717 1 1241 1242 1243
1718 1 1242 1243 1244
1719 1 1243 1244 1245
1720 1 1243 1244 1257
1721 1 1245 1244 1257
1722 1 1244 1245 1246
1723 1 1245 1246 1247
1724 1 1246 1247 1248
1725 1 1247 1248 1249
1726 1 1248 1249 1250
1727 1 1249 1250 1251
1728 1 1250 1251 116
1729 1 1239 1252 1253
1730 1 1252 1253 1254
1731 1 1253 1254 1255
1732 1 1254 1255 1256
1733 1 1244 1257 1258
1734 1 1257 1258 1259
1735 1 1258 1259 1260
1736 1 1259 1260 1261
1737 1 1263 1262 20
1738 1 1262 1263 1264
1739 1 1262 1263 1282
1740 1 1264 1263 1282
1741 1 1263 1264 1265
1742 1 1264 1265 1266
1743 1 1265 1266 1267
1744 1 1266 1267 1268
1745 1 1267 1268 1269
1746 1 1268 1269 1270
1747 1 1269 1270 1271
1748 1 1270 1271 1272
1749 1 1271 1272 1273
1750 1 1272 1273 1274
1751 1 1273 1274 1275
1752 1 1274 1275 1276
1753 1 1275 1276 1277
1754 1 1276 1277 1278
1755 1 1277 1278 1279
1756 1 1278 1279 1280
1757 1 1279 1280 1281
1758 1 1280 1281 21
1759 1 1263 1282 1283
1760 1 1282 1283 1284
1761 1 1283 1284 1285
1762 1 1284 1285 1286
1763 1 1288 1287 20
1764 1 1287 1288 1289
1765 1 1288 1289 1290
1766 1 1289 1290 1291
1767 1 1290 1291 1292
1768 1 1291 1292 1293
1769 1 1292 1293 1294
1770 1 1293 1294 1295
1771 1 1293 1294 1307
1772 1 1295 1294 1307
1773 1 1294 1295 1296
1774 1 1295 1296 1297
1775 1 1296 1297 1298
1776 1 1297 1298 1299
1777 1 1298 1299 1300
1778 1 1299 1300 1301
1779 1 1299 1300 1312
1780 1 1301 1300 1312
1781 1 1300 1301 1302
1782 1 1301 1302 1303
1783 1 1302 1303 1304
1784 1 1303 1304 1305
1785 1 1304 1305 1306
1786 1 1305 1306 24
1787 1 1294 1307 1308
1788 1 1307 1308 1309
1789 1 1308 1309 1310
1790 1 1309 1310 1311
1791 1 1300 1312 1313
1792 1 1312 1313 1314
1793 1 1313 1314 1315
1794 1 1314 1315 1316
1795 1 1318 1317 21
1796 1 1317 1318 1319
1797 1 1318 1319 1320
1798 1 1319 1320 1321
1799 1 1320 1321 1322
1800 1 1321 1322 1323
1801 1 1322 1323 1324
1802 1 1323 1324 1325
1803 1 1324 1325 1326
1804 1 1325 1326 1327
1805 1 1326 1327 1328
1806 1 1327 1328 1329
1807 1 1328 1329 1330
1808 1 1329 1330 1331
1809 1 1330 1331 1332
1810 1 1331 1332 1333
1811 1 1332 1333 1334
1812 1 1333 1334 1335
1813 1 1334 1335 1336
1814 1 1335 1336 45
1815 1 1338 1337 22
1816 1 1337 1338 1339
1817 1 1338 1339 1340
1818 1 1338 1339 1357
1819 1 1340 1339 1357
1820 1 1339 1340 1341
1821 1 1339 1340 1362
1822 1 1341 1340 1362
1823 1 1340 1341 1342
1824 1 1341 1342 1343
1825 1 1342 1343 1344
1826 1 1343 1344 1345
1827 1 1344 1345 1346
1828 1 1345 1346 1347
1829 1 1346 1347 1348
1830 1 1347 1348 1349
1831 1 1348 1349 1350
1832 1 1349 1350 1351
1833 1 1350 1351 1352
1834 1 1351 1352 1353
1835 1 1352 1353 1354
1836 1 1353 1354 1355
1837 1 1354 1355 1356
1838 1 1355 1356 23
1839 1 1339 1357 1358
1840 1 1357 1358 1359
1841 1 1358 1359 1360
1842 1 1359 1360 1361
1843 1 1340 1362 1363
1844 1 1362 1363 1364
1845 1 1363 1364 1365
1846 1 1364 1365 1366
1847 1 1368 1367 22
1848 1 1367 1368 1369
1849 1 1368 1369 1370
1850 1 1369 1370 1371
1851 1 1370 1371 1372
1852 1 1371 1372 1373
1853 1 1372 1373 1374
1854 1 1373 1374 1375
1855 1 1374 1375 1376
1856 1 1375 1376 1377
1857 1 1376 1377 1378
1858 1 1377 1378 1379
1859 1 1377 1378 1387
1860 1 1379 1378 1387
1861 1 1378 1379 1380
1862 1 1379 1380 1381
1863 1 1380 1381 1382
1864 1 1381 1382 1383
1865 1 1382 1383 1384
1866 1 1383 1384 1385
1867 1 1383 1384 1392
1868 1 1385 1384 1392
1869 1 1384 1385 1386
1870 1 1385 1386 46
1871 1 1378 1387 1388
1872 1 1387 1388 1389
1873 1 1388 1389 1390
1874 1 1389 1390 1391
1875 1 1384 1392 1393
1876 1 1392 1393 1394
1877 1 1393 1394 1395
1878 1 1394 1395 1396
1879 1 1398 1397 23
1880 1 1397 1398 1399
1881 1 1398 1399 1400
1882 1 1399 1400 1401
1883 1 1400 1401 1402
1884 1 1401 1402 1403
1885 1 1402 1403 1404
1886 1 1403 1404 1405
1887 1 1404 1405 1406
1888 1 1405 1406 1407
1889 1 1406 1407 1408
1890 1 1407 1408 1409
1891 1 1408 1409 1410
1892 1 1409 1410 1411
1893 1 1410 1411 1412
1894 1 1411 1412 1413
1895 1 1412 1413 1414
1896 1 1413 1414 1415
1897 1 1414 1415 1416
1898 1 1415 1416 24
1899 1 1418 1417 23
1900 1 1417 1418 1419
1901 1 1418 1419 1420
1902 1 1419 1420 1421
1903 1 1420 1421 1422
1904 1 1421 1422 1423
1905 1 1422 1423 1424
1906 1 1423 1424 1425
1907 1 1424 1425 1426
1908 1 1425 1426 1427
1909 1 1426 1427 1428
1910 1 1427 1428 1429
1911 1 1428 1429 1430
1912 1 1429 1430 1431
1913 1 1430 1431 1432
1914 1 1431 1432 1433
1915 1 1432 1433 1434
1916 1 1433 1434 1435
1917 1 1434 1435 1436
1918 1 1435 1436 47
1919 1 1438 1437 24
1920 1 1437 1438 1439
1921 1 1438 1439 1440
1922 1 1439 1440 1441
1923 1 1440 1441 1442
1924 1 1441 1442 1443
1925 1 1442 1443 1444
1926 1 1443 1444 1445
1927 1 1444 1445 1446
1928 1 1445 1446 1447
1929 1 1446 1447 1448
1930 1 1447 1448 1449
1931 1 1448 1449 1450
1932 1 1449 1450 1451
1933 1 1450 1451 1452
1934 1 1451 1452 1453
1935 1 1452 1453 1454
1936 1 1453 1454 1455
1937 1 1454 1455 1456
1938 1 1455 1456 121
1939 1 1458 1457 25
1940 1 1457 1458 1459
1941 1 1458 1459 1460
1942 1 1459 1460 1461
1943 1 1460 1461 1462
1944 1 1461 1462 1463
1945 1 1462 1463 1464
1946 1 1463 1464 1465
1947 1 1464 1465 1466
1948 1 1465 1466 1467
1949 1 1466 1467 1468
1950 1 1467 1468 1469
1951 1 1468 1469 1470
1952 1 1468 1469 1477
1953 1 1470 1469 1477
1954 1 1469 1470 1471
1955 1 1470 1471 1472
1956 1 1471 1472 1473
1957 1 1472 1473 1474
1958 1 1473 1474 1475
1959 1 1474 1475 1476
1960 1 1475 1476 49
1961 1 1469 1477 1478
1962 1 1477 1478 1479
1963 1 1478 1479 1480
1964 1 1479 1480 1481
1965 1 1483 1482 25
1966 1 1482 1483 1484
1967 1 1483 1484 1485
1968 1 1484 1485 1486
1969 1 1485 1486 1487
1970 1 1486 1487 1488
1971 1 1487 1488 1489
1972 1 1488 1489 1490
1973 1 1489 1490 1491
1974 1 1490 1491 1492
1975 1 1490 1491 1502
1976 1 1492 1491 1502
1977 1 1491 1492 1493
1978 1 1492 1493 1494
1979 1 1493 1494 1495
1980 1 1494 1495 1496
1981 1 1495 1496 1497
1982 1 1496 1497 1498
1983 1 1497 1498 1499
1984 1 1498 1499 1500
1985 1 1499 1500 1501
1986 1 1500 1501 29
1987 1 1491 1502 1503
1988 1 1502 1503 1504
1989 1 1503 1504 1505
1990 1 1504 1505 1506
1991 1 1508 1507 25
1992 1 1507 1508 1509
1993 1 1508 1509 1510
1994 1 1509 1510 1511
1995 1 1510 1511 1512
1996 1 1511 1512 1513
1997 1 1512 1513 1514
1998 1 1513 1514 1515
1999 1 1514 1515 1516
2000 1 1515 1516 1517
2001 1 1516 1517 1518
2002 1 1517 1518 1519
2003 1 1518 1519 1520
2004 1 1519 1520 1521
2005 1 1520 1521 1522
2006 1 1521 1522 1523
2007 1 1522 1523 1524
2008 1 1523 1524 1525
2009 1 1524 1525 1526
2010 1 1525 1526 44
2011 1 1528 1527 26
2012 1 1527 1528 1529
2013 1 1528 1529 1530
2014 1 1528 1529 1547
2015 1 1530 1529 1547
2016 1 1529 1530 1531
2017 1 1530 1531 1532
2018 1 1531 1532 1533
2019 1 1532 1533 1534
2020 1 1533 1534 1535
2021 1 1534 1535 1536
2022 1 1535 1536 1537
2023 1 1536 1537 1538
2024 1 1537 1538 1539
2025 1 1538 1539 1540
2026 1 1538 1539 1552
2027 1 1540 1539 1552
2028 1 1539 1540 1541
2029 1 1540 1541 1542
2030 1 1541 1542 1543
2031 1 1542 1543 1544
2032 1 1543 1544 1545
2033 1 1544 1545 1546
2034 1 1545 1546 27
2035 1 1529 1547 1548
2036 1 1547 1548 1549
2037 1 1548 1549 1550
2038 1 1549 1550 1551
2039 1 1539 1552 1553
2040 1 1552 1553 1554
2041 1 1553 1554 1555
2042 1 1554 1555 1556
2043 1 1558 1557 26
2044 1 1557 1558 1559
2045 1 1558 1559 1560
2046 1 1558 1559 1577
2047 1 1560 1559 1577
2048 1 1559 1560 1561
2049 1 1560 1561 1562
2050 1 1561 1562 1563
2051 1 1562 1563 1564
2052 1 1563 1564 1565
2053 1 1564 1565 1566
2054 1 1565 1566 1567
2055 1 1566 1567 1568
2056 1 1567 1568 1569
2057 1 1568 1569 1570
2058 1 1569 1570 1571
2059 1 1570 1571 1572
2060 1 1571 1572 1573
2061 1 1572 1573 1574
2062 1 1573 1574 1575
2063 1 1574 1575 1576
2064 1 1575 1576 31
2065 1 1559 1577 1578
2066 1 1577 1578 1579
2067 1 1578 1579 1580
2068 1 1579 1580 1581
2069 1 1583 1582 26
2070 1 1582 1583 1584
2071 1 1583 1584 1585
2072 1 1584 1585 1586
2073 1 1585 1586 1587
2074 1 1586 1587 1588
2075 1 1587 1588 1589
2076 1 1588 1589 1590
2077 1 1589 1590 1591
2078 1 1590 1591 1592
2079 1 1591 1592 1593
2080 1 1592 1593 1594
2081 1 1592 1593 1602
2082 1 1594 1593 1602
2083 1 1593 1594 1595
2084 1 1594 1595 1596
2085 1 1595 1596 1597
2086 1 1596 1597 1598
2087 1 1597 1598 1599
2088 1 1598 1599 1600
2089 1 1599 1600 1601
2090 1 1600 1601 45
2091 1 1593 1602 1603
2092 1 1602 1603 1604
2093 1 1603 1604 1605
2094 1 1604 1605 1606
2095 1 1608 1607 27
2096 1 1607 1608 1609
2097 1 1608 1609 1610
2098 1 1609 1610 1611
2099 1 1610 1611 1612
2100 1 1611 1612 1613
2101 1 1612 1613 1614
2102 1 1613 1614 1615
2103 1 1614 1615 1616
2104 1 1615 1616 1617
2105 1 1616 1617 1618
2106 1 1617 1618 1619
2107 1 1618 1619 1620
2108 1 1619 1620 1621
2109 1 1620 1621 1622
2110 1 1621 1622 1623
2111 1 1622 1623 1624
2112 1 1623 1624 1625
2113 1 1624 1625 1626
2114 1 1625 1626 32
2115 1 1628 1627 27
2116 1 1627 1628 1629
2117 1 1628 1629 1630
2118 1 1629 1630 1631
2119 1 1630 1631 1632
2120 1 1631 1632 1633
2121 1 1632 1633 1634
2122 1 1633 1634 1635
2123 1 1634 1635 1636
2124 1 1635 1636 1637
2125 1 1636 1637 1638
2126 1 1637 1638 1639
2127 1 1638 1639 1640
2128 1 1639 1640 1641
2129 1 1640 1641 1642
2130 1 1641 1642 1643
2131 1 1641 1642 1647
2132 1 1643 1642 1647
2133 1 1642 1643 1644
2134 1 1643 1644 1645
2135 1 1644 1645 1646
2136 1 1645 1646 50
2137 1 1642 1647 1648
2138 1 1647 1648 1649
2139 1 1648 1649 1650
2140 1 1649 1650 1651
2141 1 1653 1652 28
2142 1 1652 1653 1654
2143 1 1653 1654 1655
2144 1 1654 1655 1656
2145 1 1655 1656 1657
2146 1 1656 1657 1658
2147 1 1657 1658 1659
2148 1 1658 1659 1660
2149 1 1659 1660 1661
2150 1 1660 1661 1662
2151 1 1661 1662 1663
2152 1 1662 1663 1664
2153 1 1663 1664 1665
2154 1 1664 1665 1666
2155 1 1665 1666 1667
2156 1 1666 1667 1668
2157 1 1667 1668 1669
2158 1 1668 1669 1670
2159 1 1669 1670 1671
2160 1 1670 1671 29
2161 1 1673 1672 28
2162 1 1672 1673 1674
2163 1 1673 1674 1675
2164 1 1674 1675 1676
2165 1 1675 1676 1677
2166 1 1676 1677 1678
2167 1 1677 1678 1679
2168 1 1678 1679 1680
2169 1 1679 1680 1681
2170 1 1680 1681 1682
2171 1 1681 1682 1683
2172 1 1682 1683 1684
2173 1 1682 1683 1692
2174 1 1684 1683 1692
2175 1 1683 1684 1685
2176 1 1684 1685 1686
2177 1 1685 1686 1687
2178 1 1686 1687 1688
2179 1 1687 1688 1689
2180 1 1688 1689 1690
2181 1 1689 1690 1691
2182 1 1690 1691 33
2183 1 1683 1692 1693
2184 1 1692 1693 1694
2185 1 1693 1694 1695
2186 1 1694 1695 1696
2187 1 1698 1697 28
2188 1 1697 1698 1699
2189 1 1698 1699 1700
2190 1 1699 1700 1701
2191 1 1700 1701 1702
2192 1 1701 1702 1703
2193 1 1702 1703 1704
2194 1 1703 1704 1705
2195 1 1704 1705 1706
2196 1 1705 1706 1707
2197 1 1706 1707 1708
2198 1 1707 1708 1709
2199 1 1708 1709 1710
2200 1 1709 1710 1711
2201 1 1710 1711 1712
2202 1 1711 1712 1713
2203 1 1712 1713 1714
2204 1 1713 1714 1715
2205 1 1714 1715 1716
2206 1 1715 1716 47
2207 1 1718 1717 29
2208 1 1717 1718 1719
2209 1 1718 1719 1720
2210 1 1719 1720 1721
2211 1 1720 1721 1722
2212 1 1721 1722 1723
2213 1 1722 1723 1724
2214 1 1723 1724 1725
2215 1 1724 1725 1726
2216 1 1725 1726 1727
2217 1 1726 1727 1728
2218 1 1727 1728 1729
2219 1 1728 1729 1730
2220 1 1729 1730 1731
2221 1 1730 1731 1732
2222 1 1731 1732 1733
2223 1 1732 1733 1734
2224 1 1733 1734 1735
2225 1 1734 1735 1736
2226 1 1735 1736 52
2227 1 1738 1737 30
2228 1 1737 1738 1739
2229 1 1738 1739 1740
2230 1 1739 1740 1741
2231 1 1740 1741 1742
2232 1 1741 1742 1743
2233 1 1742 1743 1744
2234 1 1743 1744 1745
2235 1 1744 1745 1746
2236 1 1745 1746 1747
2237 1 1746 1747 1748
2238 1 1747 1748 1749
2239 1 1748 1749 1750
2240 1 1749 1750 1751
2241 1 1750 1751 1752
2242 1 1751 1752 1753
2243 1 1752 1753 1754
2244 1 1753 1754 1755
2245 1 1754 1755 1756
2246 1 1755 1756 31
2247 1 1758 1757 30
2248 1 1757 1758 1759
2249 1 1758 1759 1760
2250 1 1759 1760 1761
2251 1 1760 1761 1762
2252 1 1761 1762 1763
2253 1 1762 1763 1764
2254 1 1763 1764 1765
2255 1 1764 1765 1766
2256 1 1765 1766 1767
2257 1 1766 1767 1768
2258 1 1767 1768 1769
2259 1 1768 1769 1770
2260 1 1769 1770 1771
2261 1 1770 1771 1772
2262 1 1771 1772 1773
2263 1 1772 1773 1774
2264 1 1773 1774 1775
2265 1 1774 1775 1776
2266 1 1775 1776 35
2267 1 1778 1777 31
2268 1 1778 1777 1797
2269 1 31 1777 1797
2270 1 1777 1778 1779
2271 1 1778 1779 1780
2272 1 1779 1780 1781
2273 1 1780 1781 1782
2274 1 1781 1782 1783
2275 1 1782 1783 1784
2276 1 1783 1784 1785
2277 1 1784 1785 1786
2278 1 1785 1786 1787
2279 1 1786 1787 1788
2280 1 1787 1788 1789
2281 1 1788 1789 1790
2282 1 1789 1790 1791
2283 1 1790 1791 1792
2284 1 1791 1792 1793
2285 1 1792 1793 1794
2286 1 1792 1793 1802
2287 1 1794 1793 1802
2288 1 1793 1794 1795
2289 1 1794 1795 1796
2290 1 1795 1796 36
2291 1 1777 1797 1798
2292 1 1797 1798 1799
2293 1 1798 1799 1800
2294 1 1799 1800 1801
2295 1 1793 1802 1803
2296 1 1802 1803 1804
2297 1 1803 1804 1805
2298 1 1804 1805 1806
2299 1 1808 1807 31
2300 1 1807 1808 1809
2301 1 1808 1809 1810
2302 1 1809 1810 1811
2303 1 1810 1811 1812
2304 1 1811 1812 1813
2305 1 1811 1812 1827
2306 1 1813 1812 1827
2307 1 1812 1813 1814
2308 1 1813 1814 1815
2309 1 1814 1815 1816
2310 1 1815 1816 1817
2311 1 1816 1817 1818
2312 1 1817 1818 1819
2313 1 1818 1819 1820
2314 1 1819 1820 1821
2315 1 1820 1821 1822
2316 1 1821 1822 1823
2317 1 1822 1823 1824
2318 1 1823 1824 1825
2319 1 1824 1825 1826
2320 1 1825 1826 54
2321 1 1812 1827 1828
2322 1 1827 1828 1829
2323 1 1828 1829 1830
2324 1 1829 1830 1831
2325 1 1833 1832 32
2326 1 1832 1833 1834
2327 1 1833 1834 1835
2328 1 1834 1835 1836
2329 1 1835 1836 1837
2330 1 1836 1837 1838
2331 1 1837 1838 1839
2332 1 1838 1839 1840
2333 1 1839 1840 1841
2334 1 1840 1841 1842
2335 1 1841 1842 1843
2336 1 1842 1843 1844
2337 1 1843 1844 1845
2338 1 1844 1845 1846
2339 1 1845 1846 1847
2340 1 1846 1847 1848
2341 1 1847 1848 1849
2342 1 1848 1849 1850
2343 1 1849 1850 1851
2344 1 1850 1851 37
2345 1 1853 1852 32
2346 1 1852 1853 1854
2347 1 1853 1854 1855
2348 1 1854 1855 1856
2349 1 1855 1856 1857
2350 1 1856 1857 1858
2351 1 1857 1858 1859
2352 1 1858 1859 1860
2353 1 1859 1860 1861
2354 1 1860 1861 1862
2355 1 1861 1862 1863
2356 1 1861 1862 1872
2357 1 1863 1862 1872
2358 1 1862 1863 1864
2359 1 1863 1864 1865
2360 1 1864 1865 1866
2361 1 1865 1866 1867
2362 1 1866 1867 1868
2363 1 1867 1868 1869
2364 1 1868 1869 1870
2365 1 1869 1870 1871
2366 1 1870 1871 55
2367 1 1862 1872 1873
2368 1 1872 1873 1874
2369 1 1873 1874 1875
2370 1 1874 1875 1876
2371 1 1878 1877 33
2372 1 1877 1878 1879
2373 1 1878 1879 1880
2374 1 1879 1880 1881
2375 1 1880 1881 1882
2376 1 1881 1882 1883
2377 1 1882 1883 1884
2378 1 1883 1884 1885
2379 1 1884 1885 1886
2380 1 1885 1886 1887
2381 1 1886 1887 1888
2382 1 1887 1888 1889
2383 1 1888 1889 1890
2384 1 1889 1890 1891
2385 1 1890 1891 1892
2386 1 1891 1892 1893
2387 1 1892 1893 1894
2388 1 1893 1894 1895
2389 1 1894 1895 1896
2390 1 1895 1896 34
2391 1 1898 1897 33
2392 1 1897 1898 1899
2393 1 1898 1899 1900
2394 1 1899 1900 1901
2395 1 1900 1901 1902
2396 1 1901 1902 1903
2397 1 1902 1903 1904
2398 1 1902 1903 1917
2399 1 1904 1903 1917
2400 1 1903 1904 1905
2401 1 1904 1905 1906
2402 1 1905 1906 1907
2403 1 1906 1907 1908
2404 1 1907 1908 1909
2405 1 1908 1909 1910
2406 1 1909 1910 1911
2407 1 1910 1911 1912
2408 1 1911 1912 1913
2409 1 1912 1913 1914
2410 1 1913 1914 1915
2411 1 1914 1915 1916
2412 1 1914 1915 1922
2413 1 1916 1915 1922
2414 1 1915 1916 56
2415 1 1903 1917 1918
2416 1 1917 1918 1919
2417 1 1918 1919 1920
2418 1 1919 1920 1921
2419 1 1915 1922 1923
2420 1 1922 1923 1924
2421 1 1923 1924 1925
2422 1 1924 1925 1926
2423 1 1928 1927 34
2424 1 1927 1928 1929
2425 1 1928 1929 1930
2426 1 1929 1930 1931
2427 1 1930 1931 1932
2428 1 1931 1932 1933
2429 1 1932 1933 1934
2430 1 1933 1934 1935
2431 1 1933 1934 1947
2432 1 1935 1934 1947
2433 1 1934 1935 1936
2434 1 1935 1936 1937
2435 1 1936 1937 1938
2436 1 1937 1938 1939
2437 1 1938 1939 1940
2438 1 1939 1940 1941
2439 1 1940 1941 1942
2440 1 1941 1942 1943
2441 1 1942 1943 1944
2442 1 1942 1943 1952
2443 1 1944 1943 1952
2444 1 1943 1944 1945
2445 1 1944 1945 1946
2446 1 1945 1946 39
2447 1 1945 1946 1957
2448 1 39 1946 1957
2449 1 1934 1947 1948
2450 1 1947 1948 1949
2451 1 1948 1949 1950
2452 1 1949 1950 1951
2453 1 1943 1952 1953
2454 1 1952 1953 1954
2455 1 1953 1954 1955
2456 1 1954 1955 1956
2457 1 1946 1957 1958
2458 1 1957 1958 1959
2459 1 1958 1959 1960
2460 1 1959 1960 1961
2461 1 1963 1962 35
2462 1 1962 1963 1964
2463 1 1962 1963 1982
2464 1 1964 1963 1982
2465 1 1963 1964 1965
2466 1 1964 1965 1966
2467 1 1965 1966 1967
2468 1 1966 1967 1968
2469 1 1967 1968 1969
2470 1 1968 1969 1970
2471 1 1969 1970 1971
2472 1 1970 1971 1972
2473 1 1971 1972 1973
2474 1 1972 1973 1974
2475 1 1973 1974 1975
2476 1 1974 1975 1976
2477 1 1975 1976 1977
2478 1 1976 1977 1978
2479 1 1977 1978 1979
2480 1 1978 1979 1980
2481 1 1979 1980 1981
2482 1 1980 1981 40
2483 1 1963 1982 1983
2484 1 1982 1983 1984
2485 1 1983 1984 1985
2486 1 1984 1985 1986
2487 1 1988 1987 36
2488 1 1987 1988 1989
2489 1 1988 1989 1990
2490 1 1989 1990 1991
2491 1 1990 1991 1992
2492 1 1991 1992 1993
2493 1 1992 1993 1994
2494 1 1993 1994 1995
2495 1 1994 1995 1996
2496 1 1995 1996 1997
2497 1 1996 1997 1998
2498 1 1997 1998 1999
2499 1 1998 1999 2000
2500 1 1999 2000 2001
2501 1 2000 2001 2002
2502 1 2001 2002 2003
2503 1 2002 2003 2004
2504 1 2003 2004 2005
2505 1 2004 2005 2006
2506 1 2005 2006 59
2507 1 2008 2007 37
2508 1 2008 2007 2027
2509 1 37 2007 2027
2510 1 2007 2008 2009
2511 1 2008 2009 2010
2512 1 2008 2009 2032
2513 1 2010 2009 2032
2514 1 2009 2010 2011
2515 1 2010 2011 2012
2516 1 2011 2012 2013
2517 1 2012 2013 2014
2518 1 2013 2014 2015
2519 1 2014 2015 2016
2520 1 2015 2016 2017
2521 1 2016 2017 2018
2522 1 2017 2018 2019
2523 1 2018 2019 2020
2524 1 2019 2020 2021
2525 1 2020 2021 2022
2526 1 2021 2022 2023
2527 1 2022 2023 2024
2528 1 2023 2024 2025
2529 1 2024 2025 2026
2530 1 2025 2026 38
2531 1 2007 2027 2028
2532 1 2027 2028 2029
2533 1 2028 2029 2030
2534 1 2029 2030 2031
2535 1 2009 2032 2033
2536 1 2032 2033 2034
2537 1 2033 2034 2035
2538 1 2034 2035 2036
2539 1 2038 2037 37
2540 1 2037 2038 2039
2541 1 2038 2039 2040
2542 1 2039 2040 2041
2543 1 2040 2041 2042
2544 1 2041 2042 2043
2545 1 2042 2043 2044
2546 1 2043 2044 2045
2547 1 2043 2044 2057
2548 1 2045 2044 2057
2549 1 2044 2045 2046
2550 1 2045 2046 2047
2551 1 2046 2047 2048
2552 1 2047 2048 2049
2553 1 2048 2049 2050
2554 1 2049 2050 2051
2555 1 2050 2051 2052
2556 1 2051 2052 2053
2557 1 2052 2053 2054
2558 1 2053 2054 2055
2559 1 2054 2055 2056
2560 1 2055 2056 60
2561 1 2044 2057 2058
2562 1 2057 2058 2059
2563 1 2058 2059 2060
2564 1 2059 2060 2061
2565 1 2063 2062 38
2566 1 2062 2063 2064
2567 1 2063 2064 2065
2568 1 2064 2065 2066
2569 1 2065 2066 2067
2570 1 2066 2067 2068
2571 1 2067 2068 2069
2572 1 2068 2069 2070
2573 1 2069 2070 2071
2574 1 2070 2071 2072
2575 1 2071 2072 2073
2576 1 2072 2073 2074
2577 1 2073 2074 2075
2578 1 2074 2075 2076
2579 1 2075 2076 2077
2580 1 2076 2077 2078
2581 1 2076 2077 2082
2582 1 2078 2077 2082
2583 1 2077 2078 2079
2584 1 2078 2079 2080
2585 1 2079 2080 2081
2586 1 2080 2081 39
2587 1 2077 2082 2083
2588 1 2082 2083 2084
2589 1 2083 2084 2085
2590 1 2084 2085 2086
2591 1 2088 2087 38
2592 1 2087 2088 2089
2593 1 2088 2089 2090
2594 1 2088 2089 2107
2595 1 2090 2089 2107
2596 1 2089 2090 2091
2597 1 2090 2091 2092
2598 1 2091 2092 2093
2599 1 2092 2093 2094
2600 1 2093 2094 2095
2601 1 2094 2095 2096
2602 1 2095 2096 2097
2603 1 2096 2097 2098
2604 1 2097 2098 2099
2605 1 2098 2099 2100
2606 1 2099 2100 2101
2607 1 2100 2101 2102
2608 1 2101 2102 2103
2609 1 2102 2103 2104
2610 1 2103 2104 2105
2611 1 2104 2105 2106
2612 1 2105 2106 42
2613 1 2089 2107 2108
2614 1 2107 2108 2109
2615 1 2108 2109 2110
2616 1 2109 2110 2111
2617 1 2113 2112 38
2618 1 2112 2113 2114
2619 1 2113 2114 2115
2620 1 2114 2115 2116
2621 1 2115 2116 2117
2622 1 2116 2117 2118
2623 1 2117 2118 2119
2624 1 2118 2119 2120
2625 1 2119 2120 2121
2626 1 2120 2121 2122
2627 1 2121 2122 2123
2628 1 2122 2123 2124
2629 1 2123 2124 2125
2630 1 2124 2125 2126
2631 1 2125 2126 2127
2632 1 2126 2127 2128
2633 1 2127 2128 2129
2634 1 2128 2129 2130
2635 1 2129 2130 2131
2636 1 2130 2131 61
2637 1 2133 2132 39
2638 1 2132 2133 2134
2639 1 2133 2134 2135
2640 1 2134 2135 2136
2641 1 2135 2136 2137
2642 1 2136 2137 2138
2643 1 2137 2138 2139
2644 1 2138 2139 2140
2645 1 2139 2140 2141
2646 1 2140 2141 2142
2647 1 2141 2142 2143
2648 1 2142 2143 2144
2649 1 2143 2144 2145
2650 1 2144 2145 2146
2651 1 2145 2146 2147
2652 1 2146 2147 2148
2653 1 2147 2148 2149
2654 1 2148 2149 2150
2655 1 2149 2150 2151
2656 1 2150 2151 43
2657 1 2153 2152 39
2658 1 2152 2153 2154
2659 1 2153 2154 2155
2660 1 2154 2155 2156
2661 1 2154 2155 2172
2662 1 2156 2155 2172
2663 1 2155 2156 2157
2664 1 2156 2157 2158
2665 1 2157 2158 2159
2666 1 2158 2159 2160
2667 1 2159 2160 2161
2668 1 2160 2161 2162
2669 1 2161 2162 2163
2670 1 2162 2163 2164
2671 1 2163 2164 2165
2672 1 2164 2165 2166
2673 1 2165 2166 2167
2674 1 2166 2167 2168
2675 1 2167 2168 2169
2676 1 2168 2169 2170
2677 1 2169 2170 2171
2678 1 2170 2171 62
2679 1 2155 2172 2173
2680 1 2172 2173 2174
2681 1 2173 2174 2175
2682 1 2174 2175 2176
2683 1 2178 2177 40
2684 1 2177 2178 2179
2685 1 2178 2179 2180
2686 1 2179 2180 2181
2687 1 2180 2181 2182
2688 1 2181 2182 2183
2689 1 2182 2183 2184
2690 1 2183 2184 2185
2691 1 2184 2185 2186
2692 1 2185 2186 2187
2693 1 2186 2187 2188
2694 1 2187 2188 2189
2695 1 2188 2189 2190
2696 1 2189 2190 2191
2697 1 2190 2191 2192
2698 1 2191 2192 2193
2699 1 2192 2193 2194
2700 1 2193 2194 2195
2701 1 2194 2195 2196
2702 1 2195 2196 44
2703 1 2198 2197 40
2704 1 2197 2198 2199
2705 1 2198 2199 2200
2706 1 2199 2200 2201
2707 1 2200 2201 2202
2708 1 2201 2202 2203
2709 1 2201 2202 2217
2710 1 2203 2202 2217
2711 1 2202 2203 2204
2712 1 2203 2204 2205
2713 1 2203 2204 2222
2714 1 2205 2204 2222
2715 1 2204 2205 2206
2716 1 2205 2206 2207
2717 1 2206 2207 2208
2718 1 2206 2207 2227
2719 1 2208 2207 2227
2720 1 2207 2208 2209
2721 1 2207 2208 2232
2722 1 2209 2208 2232
2723 1 2208 2209 2210
2724 1 2208 2209 2237
2725 1 2210 2209 2237
2726 1 2209 2210 2211
2727 1 2210 2211 2212
2728 1 2211 2212 2213
2729 1 2212 2213 2214
2730 1 2213 2214 2215
2731 1 2214 2215 2216
2732 1 2215 2216 43
2733 1 2202 2217 2218
2734 1 2217 2218 2219
2735 1 2218 2219 2220
2736 1 2219 2220 2221
2737 1 2204 2222 2223
2738 1 2222 2223 2224
2739 1 2223 2224 2225
2740 1 2224 2225 2226
2741 1 2207 2227 2228
2742 1 2227 2228 2229
2743 1 2228 2229 2230
2744 1 2229 2230 2231
2745 1 2208 2232 2233
2746 1 2232 2233 2234
2747 1 2233 2234 2235
2748 1 2234 2235 2236
2749 1 2209 2237 2238
2750 1 2237 2238 2239
2751 1 2238 2239 2240
2752 1 2239 2240 2241
2753 1 2243 2242 41
2754 1 2242 2243 2244
2755 1 2243 2244 2245
2756 1 2244 2245 2246
2757 1 2245 2246 2247
2758 1 2246 2247 2248
2759 1 2247 2248 2249
2760 1 2248 2249 2250
2761 1 2248 2249 2262
2762 1 2250 2249 2262
2763 1 2249 2250 2251
2764 1 2250 2251 2252
2765 1 2251 2252 2253
2766 1 2252 2253 2254
2767 1 2253 2254 2255
2768 1 2254 2255 2256
2769 1 2255 2256 2257
2770 1 2256 2257 2258
2771 1 2257 2258 2259
2772 1 2258 2259 2260
2773 1 2259 2260 2261
2774 1 2260 2261 42
2775 1 2249 2262 2263
2776 1 2262 2263 2264
2777 1 2263 2264 2265
2778 1 2264 2265 2266
2779 1 2268 2267 41
2780 1 2267 2268 2269
2781 1 2268 2269 2270
2782 1 2269 2270 2271
2783 1 2269 2270 2287
2784 1 2271 2270 2287
2785 1 2270 2271 2272
2786 1 2271 2272 2273
2787 1 2272 2273 2274
2788 1 2273 2274 2275
2789 1 2274 2275 2276
2790 1 2275 2276 2277
2791 1 2275 2276 2292
2792 1 2277 2276 2292
2793 1 2276 2277 2278
2794 1 2277 2278 2279
2795 1 2278 2279 2280
2796 1 2279 2280 2281
2797 1 2280 2281 2282
2798 1 2281 2282 2283
2799 1 2282 2283 2284
2800 1 2283 2284 2285
2801 1 2284 2285 2286
2802 1 2285 2286 64
2803 1 2285 2286 2297
2804 1 64 2286 2297
2805 1 2270 2287 2288
2806 1 2287 2288 2289
2807 1 2288 2289 2290
2808 1 2289 2290 2291
2809 1 2276 2292 2293
2810 1 2292 2293 2294
2811 1 2293 2294 2295
2812 1 2294 2295 2296
2813 1 2286 2297 2298
2814 1 2297 2298 2299
2815 1 2298 2299 2300
2816 1 2299 2300 2301
2817 1 2303 2302 42
2818 1 2302 2303 2304
2819 1 2303 2304 2305
2820 1 2303 2304 2322
2821 1 2305 2304 2322
2822 1 2304 2305 2306
2823 1 2305 2306 2307
2824 1 2306 2307 2308
2825 1 2307 2308 2309
2826 1 2308 2309 2310
2827 1 2309 2310 2311
2828 1 2310 2311 2312
2829 1 2311 2312 2313
2830 1 2312 2313 2314
2831 1 2313 2314 2315
2832 1 2314 2315 2316
2833 1 2315 2316 2317
2834 1 2316 2317 2318
2835 1 2317 2318 2319
2836 1 2318 2319 2320
2837 1 2319 2320 2321
2838 1 2320 2321 47
2839 1 2304 2322 2323
2840 1 2322 2323 2324
2841 1 2323 2324 2325
2842 1 2324 2325 2326
2843 1 2328 2327 43
2844 1 2327 2328 2329
2845 1 2328 2329 2330
2846 1 2329 2330 2331
2847 1 2330 2331 2332
2848 1 2331 2332 2333
2849 1 2332 2333 2334
2850 1 2333 2334 2335
2851 1 2334 2335 2336
2852 1 2335 2336 2337
2853 1 2336 2337 2338
2854 1 2337 2338 2339
2855 1 2338 2339 2340
2856 1 2339 2340 2341
2857 1 2340 2341 2342
2858 1 2341 2342 2343
2859 1 2342 2343 2344
2860 1 2343 2344 2345
2861 1 2344 2345 2346
2862 1 2345 2346 48
2863 1 2348 2347 44
2864 1 2347 2348 2349
2865 1 2348 2349 2350
2866 1 2349 2350 2351
2867 1 2350 2351 2352
2868 1 2351 2352 2353
2869 1 2352 2353 2354
2870 1 2353 2354 2355
2871 1 2354 2355 2356
2872 1 2355 2356 2357
2873 1 2356 2357 2358
2874 1 2357 2358 2359
2875 1 2358 2359 2360
2876 1 2359 2360 2361
2877 1 2360 2361 2362
2878 1 2361 2362 2363
2879 1 2362 2363 2364
2880 1 2363 2364 2365
2881 1 2364 2365 2366
2882 1 2365 2366 67
2883 1 2368 2367 45
2884 1 2367 2368 2369
2885 1 2368 2369 2370
2886 1 2369 2370 2371
2887 1 2370 2371 2372
2888 1 2370 2371 2387
2889 1 2372 2371 2387
2890 1 2371 2372 2373
2891 1 2372 2373 2374
2892 1 2373 2374 2375
2893 1 2374 2375 2376
2894 1 2375 2376 2377
2895 1 2376 2377 2378
2896 1 2377 2378 2379
2897 1 2378 2379 2380
2898 1 2379 2380 2381
2899 1 2380 2381 2382
2900 1 2381 2382 2383
2901 1 2382 2383 2384
2902 1 2383 2384 2385
2903 1 2384 2385 2386
2904 1 2385 2386 68
2905 1 2371 2387 2388
2906 1 2387 2388 2389
2907 1 2388 2389 2390
2908 1 2389 2390 2391
2909 1 2393 2392 47
2910 1 2392 2393 2394
2911 1 2393 2394 2395
2912 1 2394 2395 2396
2913 1 2395 2396 2397
2914 1 2396 2397 2398
2915 1 2397 2398 2399
2916 1 2397 2398 2412
2917 1 2399 2398 2412
2918 1 2398 2399 2400
2919 1 2398 2399 2417
2920 1 2400 2399 2417
2921 1 2399 2400 2401
2922 1 2400 2401 2402
2923 1 2401 2402 2403
2924 1 2402 2403 2404
2925 1 2403 2404 2405
2926 1 2404 2405 2406
2927 1 2405 2406 2407
2928 1 2406 2407 2408
2929 1 2407 2408 2409
2930 1 2407 2408 2422
2931 1 2409 2408 2422
2932 1 2408 2409 2410
2933 1 2409 2410 2411
2934 1 2409 2410 2427
2935 1 2411 2410 2427
2936 1 2410 2411 48
2937 1 2398 2412 2413
2938 1 2412 2413 2414
2939 1 2413 2414 2415
2940 1 2414 2415 2416
2941 1 2399 2417 2418
2942 1 2417 2418 2419
2943 1 2418 2419 2420
2944 1 2419 2420 2421
2945 1 2408 2422 2423
2946 1 2422 2423 2424
2947 1 2423 2424 2425
2948 1 2424 2425 2426
2949 1 2410 2427 2428
2950 1 2427 2428 2429
2951 1 2428 2429 2430
2952 1 2429 2430 2431
2953 1 2433 2432 48
2954 1 2432 2433 2434
2955 1 2433 2434 2435
2956 1 2434 2435 2436
2957 1 2435 2436 2437
2958 1 2436 2437 2438
2959 1 2437 2438 2439
2960 1 2438 2439 2440
2961 1 2439 2440 2441
2962 1 2440 2441 2442
2963 1 2441 2442 2443
2964 1 2442 2443 2444
2965 1 2443 2444 2445
2966 1 2444 2445 2446
2967 1 2445 2446 2447
2968 1 2446 2447 2448
2969 1 2447 2448 2449
2970 1 2448 2449 2450
2971 1 2449 2450 2451
2972 1 2450 2451 71
2973 1 2453 2452 50
2974 1 2452 2453 2454
2975 1 2453 2454 2455
2976 1 2454 2455 2456
2977 1 2455 2456 2457
2978 1 2456 2457 2458
2979 1 2457 2458 2459
2980 1 2458 2459 2460
2981 1 2459 2460 2461
2982 1 2460 2461 2462
2983 1 2461 2462 2463
2984 1 2462 2463 2464
2985 1 2463 2464 2465
2986 1 2464 2465 2466
2987 1 2465 2466 2467
2988 1 2466 2467 2468
2989 1 2467 2468 2469
2990 1 2468 2469 2470
2991 1 2469 2470 2471
2992 1 2470 2471 51
2993 1 2473 2472 50
2994 1 2472 2473 2474
2995 1 2473 2474 2475
2996 1 2474 2475 2476
2997 1 2475 2476 2477
2998 1 2476 2477 2478
2999 1 2477 2478 2479
3000 1 2478 2479 2480
3001 1 2479 2480 2481
3002 1 2480 2481 2482
3003 1 2481 2482 2483
3004 1 2482 2483 2484
3005 1 2483 2484 2485
3006 1 2484 2485 2486
3007 1 2485 2486 2487
3008 1 2486 2487 2488
3009 1 2487 2488 2489
3010 1 2488 2489 2490
3011 1 2489 2490 2491
3012 1 2490 2491 55
3013 1 2493 2492 50
3014 1 2492 2493 2494
3015 1 2493 2494 2495
3016 1 2494 2495 2496
3017 1 2495 2496 2497
3018 1 2496 2497 2498
3019 1 2497 2498 2499
3020 1 2498 2499 2500
3021 1 2499 2500 2501
3022 1 2500 2501 2502
3023 1 2501 2502 2503
3024 1 2502 2503 2504
3025 1 2503 2504 2505
3026 1 2504 2505 2506
3027 1 2505 2506 2507
3028 1 2506 2507 2508
3029 1 2507 2508 2509
3030 1 2508 2509 2510
3031 1 2509 2510 2511
3032 1 2510 2511 74
3033 1 2513 2512 51
3034 1 2513 2512 2532
3035 1 51 2512 2532
3036 1 2512 2513 2514
3037 1 2513 2514 2515
3038 1 2514 2515 2516
3039 1 2515 2516 2517
3040 1 2516 2517 2518
3041 1 2517 2518 2519
3042 1 2518 2519 2520
3043 1 2519 2520 2521
3044 1 2520 2521 2522
3045 1 2521 2522 2523
3046 1 2522 2523 2524
3047 1 2523 2524 2525
3048 1 2524 2525 2526
3049 1 2525 2526 2527
3050 1 2526 2527 2528
3051 1 2527 2528 2529
3052 1 2528 2529 2530
3053 1 2529 2530 2531
3054 1 2530 2531 56
3055 1 2512 2532 2533
3056 1 2532 2533 2534
3057 1 2533 2534 2535
3058 1 2534 2535 2536
3059 1 2538 2537 51
3060 1 2537 2538 2539
3061 1 2538 2539 2540
3062 1 2539 2540 2541
3063 1 2540 2541 2542
3064 1 2541 2542 2543
3065 1 2542 2543 2544
3066 1 2543 2544 2545
3067 1 2544 2545 2546
3068 1 2545 2546 2547
3069 1 2546 2547 2548
3070 1 2547 2548 2549
3071 1 2548 2549 2550
3072 1 2549 2550 2551
3073 1 2550 2551 2552
3074 1 2551 2552 2553
3075 1 2552 2553 2554
3076 1 2553 2554 2555
3077 1 2554 2555 2556
3078 1 2555 2556 75
3079 1 2555 2556 2557
3080 1 75 2556 2557
3081 1 2556 2557 2558
3082 1 2557 2558 2559
3083 1 2558 2559 2560
3084 1 2559 2560 2561
3085 1 2563 2562 51
3086 1 2562 2563 2564
3087 1 2562 2563 2582
3088 1 2564 2563 2582
3089 1 2563 2564 2565
3090 1 2564 2565 2566
3091 1 2565 2566 2567
3092 1 2566 2567 2568
3093 1 2567 2568 2569
3094 1 2568 2569 2570
3095 1 2569 2570 2571
3096 1 2570 2571 2572
3097 1 2571 2572 2573
3098 1 2572 2573 2574
3099 1 2573 2574 2575
3100 1 2574 2575 2576
3101 1 2575 2576 2577
3102 1 2576 2577 2578
3103 1 2577 2578 2579
3104 1 2577 2578 2587
3105 1 2579 2578 2587
3106 1 2578 2579 2580
3107 1 2579 2580 2581
3108 1 2580 2581 70
3109 1 2563 2582 2583
3110 1 2582 2583 2584
3111 1 2583 2584 2585
3112 1 2584 2585 2586
3113 1 2578 2587 2588
3114 1 2587 2588 2589
3115 1 2588 2589 2590
3116 1 2589 2590 2591
3117 1 2593 2592 52
3118 1 2592 2593 2594
3119 1 2593 2594 2595
3120 1 2594 2595 2596
3121 1 2595 2596 2597
3122 1 2596 2597 2598
3123 1 2597 2598 2599
3124 1 2598 2599 2600
3125 1 2599 2600 2601
3126 1 2600 2601 2602
3127 1 2601 2602 2603
3128 1 2602 2603 2604
3129 1 2603 2604 2605
3130 1 2604 2605 2606
3131 1 2605 2606 2607
3132 1 2606 2607 2608
3133 1 2607 2608 2609
3134 1 2608 2609 2610
3135 1 2609 2610 2611
3136 1 2610 2611 57
3137 1 2613 2612 52
3138 1 2612 2613 2614
3139 1 2612 2613 2632
3140 1 2614 2613 2632
3141 1 2613 2614 2615
3142 1 2614 2615 2616
3143 1 2615 2616 2617
3144 1 2616 2617 2618
3145 1 2617 2618 2619
3146 1 2618 2619 2620
3147 1 2619 2620 2621
3148 1 2619 2620 2637
3149 1 2621 2620 2637
3150 1 2620 2621 2622
3151 1 2621 2622 2623
3152 1 2622 2623 2624
3153 1 2623 2624 2625
3154 1 2624 2625 2626
3155 1 2625 2626 2627
3156 1 2626 2627 2628
3157 1 2627 2628 2629
3158 1 2628 2629 2630
3159 1 2629 2630 2631
3160 1 2630 2631 76
3161 1 2613 2632 2633
3162 1 2632 2633 2634
3163 1 2633 2634 2635
3164 1 2634 2635 2636
3165 1 2620 2637 2638
3166 1 2637 2638 2639
3167 1 2638 2639 2640
3168 1 2639 2640 2641
3169 1 2643 2642 52
3170 1 2642 2643 2644
3171 1 2643 2644 2645
3172 1 2644 2645 2646
3173 1 2645 2646 2647
3174 1 2646 2647 2648
3175 1 2647 2648 2649
3176 1 2648 2649 2650
3177 1 2649 2650 2651
3178 1 2650 2651 2652
3179 1 2651 2652 2653
3180 1 2652 2653 2654
3181 1 2653 2654 2655
3182 1 2654 2655 2656
3183 1 2655 2656 2657
3184 1 2656 2657 2658
3185 1 2657 2658 2659
3186 1 2658 2659 2660
3187 1 2658 2659 2662
3188 1 2660 2659 2662
3189 1 2659 2660 2661
3190 1 2660 2661 71
3191 1 2659 2662 2663
3192 1 2662 2663 2664
3193 1 2663 2664 2665
3194 1 2664 2665 2666
3195 1 2668 2667 53
3196 1 2667 2668 2669
3197 1 2668 2669 2670
3198 1 2669 2670 2671
3199 1 2670 2671 2672
3200 1 2671 2672 2673
3201 1 2672 2673 2674
3202 1 2673 2674 2675
3203 1 2674 2675 2676
3204 1 2675 2676 2677
3205 1 2676 2677 2678
3206 1 2677 2678 2679
3207 1 2678 2679 2680
3208 1 2679 2680 2681
3209 1 2680 2681 2682
3210 1 2681 2682 2683
3211 1 2682 2683 2684
3212 1 2683 2684 2685
3213 1 2684 2685 2686
3214 1 2685 2686 54
3215 1 2685 2686 2687
3216 1 54 2686 2687
3217 1 2686 2687 2688
3218 1 2687 2688 2689
3219 1 2688 2689 2690
3220 1 2689 2690 2691
3221 1 2693 2692 53
3222 1 2692 2693 2694
3223 1 2692 2693 2712
3224 1 2694 2693 2712
3225 1 2693 2694 2695
3226 1 2694 2695 2696
3227 1 2695 2696 2697
3228 1 2696 2697 2698
3229 1 2697 2698 2699
3230 1 2698 2699 2700
3231 1 2698 2699 2717
3232 1 2700 2699 2717
3233 1 2699 2700 2701
3234 1 2700 2701 2702
3235 1 2701 2702 2703
3236 1 2702 2703 2704
3237 1 2703 2704 2705
3238 1 2704 2705 2706
3239 1 2705 2706 2707
3240 1 2706 2707 2708
3241 1 2707 2708 2709
3242 1 2708 2709 2710
3243 1 2709 2710 2711
3244 1 2710 2711 58
3245 1 2693 2712 2713
3246 1 2712 2713 2714
3247 1 2713 2714 2715
3248 1 2714 2715 2716
3249 1 2699 2717 2718
3250 1 2717 2718 2719
3251 1 2718 2719 2720
3252 1 2719 2720 2721
3253 1 2723 2722 53
3254 1 2722 2723 2724
3255 1 2723 2724 2725
3256 1 2724 2725 2726
3257 1 2725 2726 2727
3258 1 2726 2727 2728
3259 1 2727 2728 2729
3260 1 2728 2729 2730
3261 1 2729 2730 2731
3262 1 2730 2731 2732
3263 1 2731 2732 2733
3264 1 2732 2733 2734
3265 1 2733 2734 2735
3266 1 2734 2735 2736
3267 1 2735 2736 2737
3268 1 2736 2737 2738
3269 1 2737 2738 2739
3270 1 2738 2739 2740
3271 1 2739 2740 2741
3272 1 2740 2741 77
3273 1 2743 2742 53
3274 1 2742 2743 2744
3275 1 2743 2744 2745
3276 1 2744 2745 2746
3277 1 2745 2746 2747
3278 1 2746 2747 2748
3279 1 2747 2748 2749
3280 1 2748 2749 2750
3281 1 2748 2749 2762
3282 1 2750 2749 2762
3283 1 2749 2750 2751
3284 1 2750 2751 2752
3285 1 2751 2752 2753
3286 1 2751 2752 2767
3287 1 2753 2752 2767
3288 1 2752 2753 2754
3289 1 2753 2754 2755
3290 1 2754 2755 2756
3291 1 2755 2756 2757
3292 1 2756 2757 2758
3293 1 2757 2758 2759
3294 1 2758 2759 2760
3295 1 2758 2759 2772
3296 1 2760 2759 2772
3297 1 2759 2760 2761
3298 1 2760 2761 57
3299 1 2749 2762 2763
3300 1 2762 2763 2764
3301 1 2763 2764 2765
3302 1 2764 2765 2766
3303 1 2752 2767 2768
3304 1 2767 2768 2769
3305 1 2768 2769 2770
3306 1 2769 2770 2771
3307 1 2759 2772 2773
3308 1 2772 2773 2774
3309 1 2773 2774 2775
3310 1 2774 2775 2776
3311 1 2778 2777 54
3312 1 2777 2778 2779
3313 1 2778 2779 2780
3314 1 2779 2780 2781
3315 1 2780 2781 2782
3316 1 2781 2782 2783
3317 1 2782 2783 2784
3318 1 2783 2784 2785
3319 1 2784 2785 2786
3320 1 2785 2786 2787
3321 1 2786 2787 2788
3322 1 2787 2788 2789
3323 1 2788 2789 2790
3324 1 2789 2790 2791
3325 1 2789 2790 2797
3326 1 2791 2790 2797
3327 1 2790 2791 2792
3328 1 2791 2792 2793
3329 1 2791 2792 2802
3330 1 2793 2792 2802
3331 1 2792 2793 2794
3332 1 2793 2794 2795
3333 1 2794 2795 2796
3334 1 2795 2796 59
3335 1 2790 2797 2798
3336 1 2797 2798 2799
3337 1 2798 2799 2800
3338 1 2799 2800 2801
3339 1 2792 2802 2803
3340 1 2802 2803 2804
3341 1 2803 2804 2805
3342 1 2804 2805 2806
3343 1 2808 2807 54
3344 1 2807 2808 2809
3345 1 2808 2809 2810
3346 1 2809 2810 2811
3347 1 2810 2811 2812
3348 1 2811 2812 2813
3349 1 2812 2813 2814
3350 1 2813 2814 2815
3351 1 2814 2815 2816
3352 1 2815 2816 2817
3353 1 2816 2817 2818
3354 1 2817 2818 2819
3355 1 2818 2819 2820
3356 1 2819 2820 2821
3357 1 2820 2821 2822
3358 1 2821 2822 2823
3359 1 2822 2823 2824
3360 1 2823 2824 2825
3361 1 2824 2825 2826
3362 1 2825 2826 78
3363 1 2828 2827 55
3364 1 2827 2828 2829
3365 1 2828 2829 2830
3366 1 2828 2829 2847
3367 1 2830 2829 2847
3368 1 2829 2830 2831
3369 1 2830 2831 2832
3370 1 2831 2832 2833
3371 1 2832 2833 2834
3372 1 2833 2834 2835
3373 1 2834 2835 2836
3374 1 2835 2836 2837
3375 1 2836 2837 2838
3376 1 2837 2838 2839
3377 1 2838 2839 2840
3378 1 2839 2840 2841
3379 1 2839 2840 2852
3380 1 2841 2840 2852
3381 1 2840 2841 2842
3382 1 2841 2842 2843
3383 1 2842 2843 2844
3384 1 2843 2844 2845
3385 1 2844 2845 2846
3386 1 2845 2846 56
3387 1 2829 2847 2848
3388 1 2847 2848 2849
3389 1 2848 2849 2850
3390 1 2849 2850 2851
3391 1 2840 2852 2853
3392 1 2852 2853 2854
3393 1 2853 2854 2855
3394 1 2854 2855 2856
3395 1 2858 2857 57
3396 1 2857 2858 2859
3397 1 2858 2859 2860
3398 1 2859 2860 2861
3399 1 2860 2861 2862
3400 1 2860 2861 2877
3401 1 2862 2861 2877
3402 1 2861 2862 2863
3403 1 2862 2863 2864
3404 1 2863 2864 2865
3405 1 2864 2865 2866
3406 1 2865 2866 2867
3407 1 2866 2867 2868
3408 1 2866 2867 2882
3409 1 2868 2867 2882
3410 1 2867 2868 2869
3411 1 2868 2869 2870
3412 1 2869 2870 2871
3413 1 2870 2871 2872
3414 1 2871 2872 2873
3415 1 2872 2873 2874
3416 1 2873 2874 2875
3417 1 2873 2874 2887
3418 1 2875 2874 2887
3419 1 2874 2875 2876
3420 1 2875 2876 62
3421 1 2861 2877 2878
3422 1 2877 2878 2879
3423 1 2878 2879 2880
3424 1 2879 2880 2881
3425 1 2867 2882 2883
3426 1 2882 2883 2884
3427 1 2883 2884 2885
3428 1 2884 2885 2886
3429 1 2874 2887 2888
3430 1 2887 2888 2889
3431 1 2888 2889 2890
3432 1 2889 2890 2891
3433 1 2893 2892 57
3434 1 2892 2893 2894
3435 1 2893 2894 2895
3436 1 2894 2895 2896
3437 1 2895 2896 2897
3438 1 2896 2897 2898
3439 1 2897 2898 2899
3440 1 2898 2899 2900
3441 1 2899 2900 2901
3442 1 2900 2901 2902
3443 1 2901 2902 2903
3444 1 2902 2903 2904
3445 1 2903 2904 2905
3446 1 2904 2905 2906
3447 1 2905 2906 2907
3448 1 2906 2907 2908
3449 1 2907 2908 2909
3450 1 2908 2909 2910
3451 1 2909 2910 2911
3452 1 2910 2911 81
3453 1 2913 2912 58
3454 1 2912 2913 2914
3455 1 2913 2914 2915
3456 1 2914 2915 2916
3457 1 2914 2915 2932
3458 1 2916 2915 2932
3459 1 2915 2916 2917
3460 1 2916 2917 2918
3461 1 2917 2918 2919
3462 1 2918 2919 2920
3463 1 2919 2920 2921
3464 1 2920 2921 2922
3465 1 2921 2922 2923
3466 1 2922 2923 2924
3467 1 2923 2924 2925
3468 1 2924 2925 2926
3469 1 2925 2926 2927
3470 1 2926 2927 2928
3471 1 2927 2928 2929
3472 1 2928 2929 2930
3473 1 2929 2930 2931
3474 1 2930 2931 82
3475 1 2915 2932 2933
3476 1 2932 2933 2934
3477 1 2933 2934 2935
3478 1 2934 2935 2936
3479 1 2938 2937 58
3480 1 2937 2938 2939
3481 1 2938 2939 2940
3482 1 2939 2940 2941
3483 1 2940 2941 2942
3484 1 2941 2942 2943
3485 1 2942 2943 2944
3486 1 2943 2944 2945
3487 1 2944 2945 2946
3488 1 2945 2946 2947
3489 1 2946 2947 2948
3490 1 2947 2948 2949
3491 1 2948 2949 2950
3492 1 2948 2949 2957
3493 1 2950 2949 2957
3494 1 2949 2950 2951
3495 1 2950 2951 2952
3496 1 2951 2952 2953
3497 1 2952 2953 2954
3498 1 2953 2954 2955
3499 1 2954 2955 2956
3500 1 2955 2956 62
3501 1 2949 2957 2958
3502 1 2957 2958 2959
3503 1 2958 2959 2960
3504 1 2959 2960 2961
3505 1 2963 2962 59
3506 1 2962 2963 2964
3507 1 2963 2964 2965
3508 1 2964 2965 2966
3509 1 2965 2966 2967
3510 1 2966 2967 2968
3511 1 2967 2968 2969
3512 1 2968 2969 2970
3513 1 2969 2970 2971
3514 1 2970 2971 2972
3515 1 2971 2972 2973
3516 1 2972 2973 2974
3517 1 2973 2974 2975
3518 1 2974 2975 2976
3519 1 2975 2976 2977
3520 1 2976 2977 2978
3521 1 2977 2978 2979
3522 1 2978 2979 2980
3523 1 2979 2980 2981
3524 1 2980 2981 63
3525 1 2983 2982 59
3526 1 2982 2983 2984
3527 1 2983 2984 2985
3528 1 2984 2985 2986
3529 1 2985 2986 2987
3530 1 2986 2987 2988
3531 1 2987 2988 2989
3532 1 2988 2989 2990
3533 1 2989 2990 2991
3534 1 2990 2991 2992
3535 1 2991 2992 2993
3536 1 2991 2992 3002
3537 1 2993 2992 3002
3538 1 2992 2993 2994
3539 1 2993 2994 2995
3540 1 2994 2995 2996
3541 1 2995 2996 2997
3542 1 2996 2997 2998
3543 1 2997 2998 2999
3544 1 2998 2999 3000
3545 1 2999 3000 3001
3546 1 2999 3000 3007
3547 1 3001 3000 3007
3548 1 3000 3001 83
3549 1 2992 3002 3003
3550 1 3002 3003 3004
3551 1 3003 3004 3005
3552 1 3004 3005 3006
3553 1 3000 3007 3008
3554 1 3007 3008 3009
3555 1 3008 3009 3010
3556 1 3009 3010 3011
3557 1 3013 3012 60
3558 1 3012 3013 3014
3559 1 3013 3014 3015
3560 1 3014 3015 3016
3561 1 3015 3016 3017
3562 1 3016 3017 3018
3563 1 3017 3018 3019
3564 1 3018 3019 3020
3565 1 3019 3020 3021
3566 1 3020 3021 3022
3567 1 3021 3022 3023
3568 1 3022 3023 3024
3569 1 3023 3024 3025
3570 1 3023 3024 3032
3571 1 3025 3024 3032
3572 1 3024 3025 3026
3573 1 3025 3026 3027
3574 1 3026 3027 3028
3575 1 3027 3028 3029
3576 1 3027 3028 3037
3577 1 3029 3028 3037
3578 1 3028 3029 3030
3579 1 3029 3030 3031
3580 1 3030 3031 61
3581 1 3024 3032 3033
3582 1 3032 3033 3034
3583 1 3033 3034 3035
3584 1 3034 3035 3036
3585 1 3028 3037 3038
3586 1 3037 3038 3039
3587 1 3038 3039 3040
3588 1 3039 3040 3041
3589 1 3043 3042 60
3590 1 3042 3043 3044
3591 1 3043 3044 3045
3592 1 3044 3045 3046
3593 1 3045 3046 3047
3594 1 3046 3047 3048
3595 1 3047 3048 3049
3596 1 3048 3049 3050
3597 1 3049 3050 3051
3598 1 3050 3051 3052
3599 1 3051 3052 3053
3600 1 3052 3053 3054
3601 1 3053 3054 3055
3602 1 3054 3055 3056
3603 1 3055 3056 3057
3604 1 3056 3057 3058
3605 1 3057 3058 3059
3606 1 3058 3059 3060
3607 1 3059 3060 3061
3608 1 3060 3061 64
3609 1 3063 3062 60
3610 1 3062 3063 3064
3611 1 3063 3064 3065
3612 1 3064 3065 3066
3613 1 3065 3066 3067
3614 1 3066 3067 3068
3615 1 3067 3068 3069
3616 1 3068 3069 3070
3617 1 3069 3070 3071
3618 1 3070 3071 3072
3619 1 3070 3071 3082
3620 1 3072 3071 3082
3621 1 3071 3072 3073
3622 1 3072 3073 3074
3623 1 3073 3074 3075
3624 1 3073 3074 3087
3625 1 3075 3074 3087
3626 1 3074 3075 3076
3627 1 3075 3076 3077
3628 1 3075 3076 3092
3629 1 3077 3076 3092
3630 1 3076 3077 3078
3631 1 3077 3078 3079
3632 1 3078 3079 3080
3633 1 3079 3080 3081
3634 1 3080 3081 84
3635 1 3071 3082 3083
3636 1 3082 3083 3084
3637 1 3083 3084 3085
3638 1 3084 3085 3086
3639 1 3074 3087 3088
3640 1 3087 3088 3089
3641 1 3088 3089 3090
3642 1 3089 3090 3091
3643 1 3076 3092 3093
3644 1 3092 3093 3094
3645 1 3093 3094 3095
3646 1 3094 3095 3096
3647 1 3098 3097 61
3648 1 3097 3098 3099
3649 1 3098 3099 3100
3650 1 3099 3100 3101
3651 1 3099 3100 3117
3652 1 3101 3100 3117
3653 1 3100 3101 3102
3654 1 3101 3102 3103
3655 1 3102 3103 3104
3656 1 3103 3104 3105
3657 1 3104 3105 3106
3658 1 3105 3106 3107
3659 1 3106 3107 3108
3660 1 3107 3108 3109
3661 1 3108 3109 3110
3662 1 3109 3110 3111
3663 1 3110 3111 3112
3664 1 3111 3112 3113
3665 1 3112 3113 3114
3666 1 3113 3114 3115
3667 1 3114 3115 3116
3668 1 3115 3116 65
3669 1 3100 3117 3118
3670 1 3117 3118 3119
3671 1 3118 3119 3120
3672 1 3119 3120 3121
3673 1 3123 3122 61
3674 1 3122 3123 3124
3675 1 3123 3124 3125
3676 1 3124 3125 3126
3677 1 3125 3126 3127
3678 1 3126 3127 3128
3679 1 3127 3128 3129
3680 1 3128 3129 3130
3681 1 3128 3129 3142
3682 1 3130 3129 3142
3683 1 3129 3130 3131
3684 1 3130 3131 3132
3685 1 3131 3132 3133
3686 1 3132 3133 3134
3687 1 3133 3134 3135
3688 1 3134 3135 3136
3689 1 3135 3136 3137
3690 1 3136 3137 3138
3691 1 3137 3138 3139
3692 1 3138 3139 3140
3693 1 3139 3140 3141
3694 1 3140 3141 85
3695 1 3129 3142 3143
3696 1 3142 3143 3144
3697 1 3143 3144 3145
3698 1 3144 3145 3146
3699 1 3148 3147 62
3700 1 3147 3148 3149
3701 1 3148 3149 3150
3702 1 3149 3150 3151
3703 1 3150 3151 3152
3704 1 3151 3152 3153
3705 1 3152 3153 3154
3706 1 3153 3154 3155
3707 1 3153 3154 3167
3708 1 3155 3154 3167
3709 1 3154 3155 3156
3710 1 3155 3156 3157
3711 1 3156 3157 3158
3712 1 3157 3158 3159
3713 1 3158 3159 3160
3714 1 3159 3160 3161
3715 1 3160 3161 3162
3716 1 3161 3162 3163
3717 1 3162 3163 3164
3718 1 3163 3164 3165
3719 1 3164 3165 3166
3720 1 3165 3166 66
3721 1 3154 3167 3168
3722 1 3167 3168 3169
3723 1 3168 3169 3170
3724 1 3169 3170 3171
3725 1 3173 3172 63
3726 1 3172 3173 3174
3727 1 3173 3174 3175
3728 1 3174 3175 3176
3729 1 3175 3176 3177
3730 1 3176 3177 3178
3731 1 3177 3178 3179
3732 1 3178 3179 3180
3733 1 3179 3180 3181
3734 1 3180 3181 3182
3735 1 3181 3182 3183
3736 1 3182 3183 3184
3737 1 3183 3184 3185
3738 1 3184 3185 3186
3739 1 3185 3186 3187
3740 1 3186 3187 3188
3741 1 3187 3188 3189
3742 1 3188 3189 3190
3743 1 3189 3190 3191
3744 1 3190 3191 68
3745 1 3193 3192 63
3746 1 3192 3193 3194
3747 1 3193 3194 3195
3748 1 3194 3195 3196
3749 1 3195 3196 3197
3750 1 3196 3197 3198
3751 1 3197 3198 3199
3752 1 3197 3198 3212
3753 1 3199 3198 3212
3754 1 3198 3199 3200
3755 1 3199 3200 3201
3756 1 3200 3201 3202
3757 1 3201 3202 3203
3758 1 3202 3203 3204
3759 1 3203 3204 3205
3760 1 3204 3205 3206
3761 1 3205 3206 3207
3762 1 3206 3207 3208
3763 1 3207 3208 3209
3764 1 3208 3209 3210
3765 1 3209 3210 3211
3766 1 3210 3211 88
3767 1 3198 3212 3213
3768 1 3212 3213 3214
3769 1 3213 3214 3215
3770 1 3214 3215 3216
3771 1 3218 3217 64
3772 1 3217 3218 3219
3773 1 3217 3218 3237
3774 1 3219 3218 3237
3775 1 3218 3219 3220
3776 1 3219 3220 3221
3777 1 3220 3221 3222
3778 1 3221 3222 3223
3779 1 3222 3223 3224
3780 1 3222 3223 3242
3781 1 3224 3223 3242
3782 1 3223 3224 3225
3783 1 3224 3225 3226
3784 1 3225 3226 3227
3785 1 3226 3227 3228
3786 1 3227 3228 3229
3787 1 3228 3229 3230
3788 1 3229 3230 3231
3789 1 3230 3231 3232
3790 1 3231 3232 3233
3791 1 3232 3233 3234
3792 1 3233 3234 3235
3793 1 3234 3235 3236
3794 1 3235 3236 65
3795 1 3218 3237 3238
3796 1 3237 3238 3239
3797 1 3238 3239 3240
3798 1 3239 3240 3241
3799 1 3223 3242 3243
3800 1 3242 3243 3244
3801 1 3243 3244 3245
3802 1 3244 3245 3246
3803 1 3248 3247 64
3804 1 3247 3248 3249
3805 1 3248 3249 3250
3806 1 3249 3250 3251
3807 1 3250 3251 3252
3808 1 3251 3252 3253
3809 1 3252 3253 3254
3810 1 3253 3254 3255
3811 1 3254 3255 3256
3812 1 3255 3256 3257
3813 1 3256 3257 3258
3814 1 3257 3258 3259
3815 1 3258 3259 3260
3816 1 3258 3259 3267
3817 1 3260 3259 3267
3818 1 3259 3260 3261
3819 1 3260 3261 3262
3820 1 3260 3261 3272
3821 1 3262 3261 3272
3822 1 3261 3262 3263
3823 1 3262 3263 3264
3824 1 3263 3264 3265
3825 1 3264 3265 3266
3826 1 3265 3266 89
3827 1 3259 3267 3268
3828 1 3267 3268 3269
3829 1 3268 3269 3270
3830 1 3269 3270 3271
3831 1 3261 3272 3273
3832 1 3272 3273 3274
3833 1 3273 3274 3275
3834 1 3274 3275 3276
3835 1 3278 3277 65
3836 1 3278 3277 3297
3837 1 65 3277 3297
3838 1 3277 3278 3279
3839 1 3278 3279 3280
3840 1 3279 3280 3281
3841 1 3279 3280 3302
3842 1 3281 3280 3302
3843 1 3280 3281 3282
3844 1 3281 3282 3283
3845 1 3282 3283 3284
3846 1 3283 3284 3285
3847 1 3284 3285 3286
3848 1 3285 3286 3287
3849 1 3286 3287 3288
3850 1 3287 3288 3289
3851 1 3288 3289 3290
3852 1 3289 3290 3291
3853 1 3290 3291 3292
3854 1 3291 3292 3293
3855 1 3292 3293 3294
3856 1 3293 3294 3295
3857 1 3294 3295 3296
3858 1 3295 3296 66
3859 1 3277 3297 3298
3860 1 3297 3298 3299
3861 1 3298 3299 3300
3862 1 3299 3300 3301
3863 1 3280 3302 3303
3864 1 3302 3303 3304
3865 1 3303 3304 3305
3866 1 3304 3305 3306
3867 1 3308 3307 65
3868 1 3308 3307 3327
3869 1 65 3307 3327
3870 1 3307 3308 3309
3871 1 3308 3309 3310
3872 1 3309 3310 3311
3873 1 3310 3311 3312
3874 1 3311 3312 3313
3875 1 3312 3313 3314
3876 1 3313 3314 3315
3877 1 3313 3314 3332
3878 1 3315 3314 3332
3879 1 3314 3315 3316
3880 1 3315 3316 3317
3881 1 3316 3317 3318
3882 1 3317 3318 3319
3883 1 3318 3319 3320
3884 1 3319 3320 3321
3885 1 3320 3321 3322
3886 1 3321 3322 3323
3887 1 3322 3323 3324
3888 1 3323 3324 3325
3889 1 3324 3325 3326
3890 1 3325 3326 70
3891 1 3307 3327 3328
3892 1 3327 3328 3329
3893 1 3328 3329 3330
3894 1 3329 3330 3331
3895 1 3314 3332 3333
3896 1 3332 3333 3334
3897 1 3333 3334 3335
3898 1 3334 3335 3336
3899 1 3338 3337 66
3900 1 3337 3338 3339
3901 1 3338 3339 3340
3902 1 3339 3340 3341
3903 1 3340 3341 3342
3904 1 3341 3342 3343
3905 1 3342 3343 3344
3906 1 3343 3344 3345
3907 1 3344 3345 3346
3908 1 3345 3346 3347
3909 1 3345 3346 3357
3910 1 3347 3346 3357
3911 1 3346 3347 3348
3912 1 3347 3348 3349
3913 1 3348 3349 3350
3914 1 3349 3350 3351
3915 1 3350 3351 3352
3916 1 3351 3352 3353
3917 1 3352 3353 3354
3918 1 3353 3354 3355
3919 1 3354 3355 3356
3920 1 3354 3355 3362
3921 1 3356 3355 3362
3922 1 3355 3356 91
3923 1 3346 3357 3358
3924 1 3357 3358 3359
3925 1 3358 3359 3360
3926 1 3359 3360 3361
3927 1 3355 3362 3363
3928 1 3362 3363 3364
3929 1 3363 3364 3365
3930 1 3364 3365 3366
3931 1 3368 3367 67
3932 1 3367 3368 3369
3933 1 3368 3369 3370
3934 1 3369 3370 3371
3935 1 3370 3371 3372
3936 1 3370 3371 3387
3937 1 3372 3371 3387
3938 1 3371 3372 3373
3939 1 3372 3373 3374
3940 1 3373 3374 3375
3941 1 3374 3375 3376
3942 1 3375 3376 3377
3943 1 3376 3377 3378
3944 1 3377 3378 3379
3945 1 3378 3379 3380
3946 1 3379 3380 3381
3947 1 3380 3381 3382
3948 1 3381 3382 3383
3949 1 3382 3383 3384
3950 1 3383 3384 3385
3951 1 3384 3385 3386
3952 1 3385 3386 68
3953 1 3371 3387 3388
3954 1 3387 3388 3389
3955 1 3388 3389 3390
3956 1 3389 3390 3391
3957 1 3393 3392 67
3958 1 3392 3393 3394
3959 1 3393 3394 3395
3960 1 3394 3395 3396
3961 1 3395 3396 3397
3962 1 3396 3397 3398
3963 1 3397 3398 3399
3964 1 3398 3399 3400
3965 1 3399 3400 3401
3966 1 3400 3401 3402
3967 1 3401 3402 3403
3968 1 3402 3403 3404
3969 1 3403 3404 3405
3970 1 3404 3405 3406
3971 1 3405 3406 3407
3972 1 3406 3407 3408
3973 1 3407 3408 3409
3974 1 3408 3409 3410
3975 1 3409 3410 3411
3976 1 3410 3411 92
3977 1 3413 3412 68
3978 1 3412 3413 3414
3979 1 3413 3414 3415
3980 1 3414 3415 3416
3981 1 3415 3416 3417
3982 1 3416 3417 3418
3983 1 3417 3418 3419
3984 1 3418 3419 3420
3985 1 3419 3420 3421
3986 1 3420 3421 3422
3987 1 3421 3422 3423
3988 1 3422 3423 3424
3989 1 3423 3424 3425
3990 1 3424 3425 3426
3991 1 3425 3426 3427
3992 1 3426 3427 3428
3993 1 3427 3428 3429
3994 1 3428 3429 3430
3995 1 3429 3430 3431
3996 1 3430 3431 69
3997 1 3433 3432 70
3998 1 3432 3433 3434
3999 1 3433 3434 3435
4000 1 3434 3435 3436
4001 1 3435 3436 3437
4002 1 3436 3437 3438
4003 1 3437 3438 3439
4004 1 3438 3439 3440
4005 1 3439 3440 3441
4006 1 3440 3441 3442
4007 1 3441 3442 3443
4008 1 3442 3443 3444
4009 1 3443 3444 3445
4010 1 3444 3445 3446
4011 1 3445 3446 3447
4012 1 3446 3447 3448
4013 1 3447 3448 3449
4014 1 3448 3449 3450
4015 1 3449 3450 3451
4016 1 3449 3450 3452
4017 1 3451 3450 3452
4018 1 3450 3451 71
4019 1 3450 3452 3453
4020 1 3452 3453 3454
4021 1 3453 3454 3455
4022 1 3454 3455 3456
4023 1 3458 3457 70
4024 1 3457 3458 3459
4025 1 3458 3459 3460
4026 1 3459 3460 3461
4027 1 3460 3461 3462
4028 1 3461 3462 3463
4029 1 3462 3463 3464
4030 1 3463 3464 3465
4031 1 3464 3465 3466
4032 1 3465 3466 3467
4033 1 3466 3467 3468
4034 1 3467 3468 3469
4035 1 3468 3469 3470
4036 1 3469 3470 3471
4037 1 3470 3471 3472
4038 1 3471 3472 3473
4039 1 3472 3473 3474
4040 1 3473 3474 3475
4041 1 3474 3475 3476
4042 1 3475 3476 95
4043 1 3478 3477 71
4044 1 3477 3478 3479
4045 1 3477 3478 3497
4046 1 3479 3478 3497
4047 1 3478 3479 3480
4048 1 3479 3480 3481
4049 1 3480 3481 3482
4050 1 3481 3482 3483
4051 1 3482 3483 3484
4052 1 3483 3484 3485
4053 1 3484 3485 3486
4054 1 3485 3486 3487
4055 1 3486 3487 3488
4056 1 3487 3488 3489
4057 1 3488 3489 3490
4058 1 3489 3490 3491
4059 1 3490 3491 3492
4060 1 3491 3492 3493
4061 1 3492 3493 3494
4062 1 3493 3494 3495
4063 1 3494 3495 3496
4064 1 3495 3496 96
4065 1 3478 3497 3498
4066 1 3497 3498 3499
4067 1 3498 3499 3500
4068 1 3499 3500 3501
4069 1 3503 3502 72
4070 1 3502 3503 3504
4071 1 3503 3504 3505
4072 1 3504 3505 3506
4073 1 3505 3506 3507
4074 1 3506 3507 3508
4075 1 3506 3507 3522
4076 1 3508 3507 3522
4077 1 3507 3508 3509
4078 1 3508 3509 3510
4079 1 3509 3510 3511
4080 1 3510 3511 3512
4081 1 3511 3512 3513
4082 1 3512 3513 3514
4083 1 3513 3514 3515
4084 1 3514 3515 3516
4085 1 3515 3516 3517
4086 1 3516 3517 3518
4087 1 3517 3518 3519
4088 1 3518 3519 3520
4089 1 3519 3520 3521
4090 1 3520 3521 73
4091 1 3507 3522 3523
4092 1 3522 3523 3524
4093 1 3523 3524 3525
4094 1 3524 3525 3526
4095 1 3528 3527 73
4096 1 3527 3528 3529
4097 1 3528 3529 3530
4098 1 3529 3530 3531
4099 1 3530 3531 3532
4100 1 3531 3532 3533
4101 1 3532 3533 3534
4102 1 3533 3534 3535
4103 1 3533 3534 3547
4104 1 3535 3534 3547
4105 1 3534 3535 3536
4106 1 3535 3536 3537
4107 1 3536 3537 3538
4108 1 3537 3538 3539
4109 1 3538 3539 3540
4110 1 3539 3540 3541
4111 1 3540 3541 3542
4112 1 3541 3542 3543
4113 1 3542 3543 3544
4114 1 3543 3544 3545
4115 1 3544 3545 3546
4116 1 3545 3546 98
4117 1 3534 3547 3548
4118 1 3547 3548 3549
4119 1 3548 3549 3550
4120 1 3549 3550 3551
4121 1 3553 3552 73
4122 1 3552 3553 3554
4123 1 3553 3554 3555
4124 1 3554 3555 3556
4125 1 3555 3556 3557
4126 1 3556 3557 3558
4127 1 3557 3558 3559
4128 1 3558 3559 3560
4129 1 3559 3560 3561
4130 1 3559 3560 3572
4131 1 3561 3560 3572
4132 1 3560 3561 3562
4133 1 3561 3562 3563
4134 1 3561 3562 3577
4135 1 3563 3562 3577
4136 1 3562 3563 3564
4137 1 3563 3564 3565
4138 1 3564 3565 3566
4139 1 3565 3566 3567
4140 1 3566 3567 3568
4141 1 3567 3568 3569
4142 1 3568 3569 3570
4143 1 3569 3570 3571
4144 1 3570 3571 93
4145 1 3560 3572 3573
4146 1 3572 3573 3574
4147 1 3573 3574 3575
4148 1 3574 3575 3576
4149 1 3562 3577 3578
4150 1 3577 3578 3579
4151 1 3578 3579 3580
4152 1 3579 3580 3581
4153 1 3583 3582 74
4154 1 3583 3582 3602
4155 1 74 3582 3602
4156 1 3582 3583 3584
4157 1 3583 3584 3585
4158 1 3584 3585 3586
4159 1 3585 3586 3587
4160 1 3586 3587 3588
4161 1 3587 3588 3589
4162 1 3588 3589 3590
4163 1 3588 3589 3607
4164 1 3590 3589 3607
4165 1 3589 3590 3591
4166 1 3590 3591 3592
4167 1 3591 3592 3593
4168 1 3591 3592 3612
4169 1 3593 3592 3612
4170 1 3592 3593 3594
4171 1 3593 3594 3595
4172 1 3594 3595 3596
4173 1 3595 3596 3597
4174 1 3596 3597 3598
4175 1 3597 3598 3599
4176 1 3597 3598 3617
4177 1 3599 3598 3617
4178 1 3598 3599 3600
4179 1 3599 3600 3601
4180 1 3600 3601 75
4181 1 3582 3602 3603
4182 1 3602 3603 3604
4183 1 3603 3604 3605
4184 1 3604 3605 3606
4185 1 3589 3607 3608
4186 1 3607 3608 3609
4187 1 3608 3609 3610
4188 1 3609 3610 3611
4189 1 3592 3612 3613
4190 1 3612 3613 3614
4191 1 3613 3614 3615
4192 1 3614 3615 3616
4193 1 3598 3617 3618
4194 1 3617 3618 3619
4195 1 3618 3619 3620
4196 1 3619 3620 3621
4197 1 3623 3622 74
4198 1 3622 3623 3624
4199 1 3622 3623 3642
4200 1 3624 3623 3642
4201 1 3623 3624 3625
4202 1 3624 3625 3626
4203 1 3625 3626 3627
4204 1 3626 3627 3628
4205 1 3627 3628 3629
4206 1 3628 3629 3630
4207 1 3629 3630 3631
4208 1 3630 3631 3632
4209 1 3631 3632 3633
4210 1 3632 3633 3634
4211 1 3632 3633 3647
4212 1 3634 3633 3647
4213 1 3633 3634 3635
4214 1 3634 3635 3636
4215 1 3635 3636 3637
4216 1 3636 3637 3638
4217 1 3637 3638 3639
4218 1 3638 3639 3640
4219 1 3639 3640 3641
4220 1 3640 3641 99
4221 1 3623 3642 3643
4222 1 3642 3643 3644
4223 1 3643 3644 3645
4224 1 3644 3645 3646
4225 1 3633 3647 3648
4226 1 3647 3648 3649
4227 1 3648 3649 3650
4228 1 3649 3650 3651
4229 1 3653 3652 74
4230 1 3652 3653 3654
4231 1 3653 3654 3655
4232 1 3654 3655 3656
4233 1 3655 3656 3657
4234 1 3656 3657 3658
4235 1 3657 3658 3659
4236 1 3658 3659 3660
4237 1 3659 3660 3661
4238 1 3660 3661 3662
4239 1 3661 3662 3663
4240 1 3662 3663 3664
4241 1 3663 3664 3665
4242 1 3664 3665 3666
4243 1 3665 3666 3667
4244 1 3666 3667 3668
4245 1 3667 3668 3669
4246 1 3668 3669 3670
4247 1 3669 3670 3671
4248 1 3670 3671 94
4249 1 3673 3672 75
4250 1 3672 3673 3674
4251 1 3673 3674 3675
4252 1 3674 3675 3676
4253 1 3675 3676 3677
4254 1 3676 3677 3678
4255 1 3677 3678 3679
4256 1 3678 3679 3680
4257 1 3679 3680 3681
4258 1 3680 3681 3682
4259 1 3681 3682 3683
4260 1 3682 3683 3684
4261 1 3683 3684 3685
4262 1 3684 3685 3686
4263 1 3685 3686 3687
4264 1 3686 3687 3688
4265 1 3687 3688 3689
4266 1 3688 3689 3690
4267 1 3689 3690 3691
4268 1 3690 3691 80
4269 1 3693 3692 75
4270 1 3692 3693 3694
4271 1 3693 3694 3695
4272 1 3694 3695 3696
4273 1 3695 3696 3697
4274 1 3696 3697 3698
4275 1 3697 3698 3699
4276 1 3698 3699 3700
4277 1 3699 3700 3701
4278 1 3700 3701 3702
4279 1 3701 3702 3703
4280 1 3702 3703 3704
4281 1 3703 3704 3705
4282 1 3704 3705 3706
4283 1 3705 3706 3707
4284 1 3706 3707 3708
4285 1 3707 3708 3709
4286 1 3708 3709 3710
4287 1 3709 3710 3711
4288 1 3710 3711 100
4289 1 3713 3712 76
4290 1 3712 3713 3714
4291 1 3713 3714 3715
4292 1 3714 3715 3716
4293 1 3715 3716 3717
4294 1 3716 3717 3718
4295 1 3717 3718 3719
4296 1 3718 3719 3720
4297 1 3719 3720 3721
4298 1 3720 3721 3722
4299 1 3721 3722 3723
4300 1 3722 3723 3724
4301 1 3723 3724 3725
4302 1 3724 3725 3726
4303 1 3725 3726 3727
4304 1 3726 3727 3728
4305 1 3727 3728 3729
4306 1 3728 3729 3730
4307 1 3729 3730 3731
4308 1 3730 3731 101
4309 1 3733 3732 76
4310 1 3732 3733 3734
4311 1 3733 3734 3735
4312 1 3734 3735 3736
4313 1 3735 3736 3737
4314 1 3736 3737 3738
4315 1 3737 3738 3739
4316 1 3738 3739 3740
4317 1 3739 3740 3741
4318 1 3740 3741 3742
4319 1 3740 3741 3752
4320 1 3742 3741 3752
4321 1 3741 3742 3743
4322 1 3742 3743 3744
4323 1 3743 3744 3745
4324 1 3744 3745 3746
4325 1 3745 3746 3747
4326 1 3746 3747 3748
4327 1 3747 3748 3749
4328 1 3748 3749 3750
4329 1 3749 3750 3751
4330 1 3750 3751 96
4331 1 3741 3752 3753
4332 1 3752 3753 3754
4333 1 3753 3754 3755
4334 1 3754 3755 3756
4335 1 3758 3757 77
4336 1 3757 3758 3759
4337 1 3758 3759 3760
4338 1 3759 3760 3761
4339 1 3760 3761 3762
4340 1 3761 3762 3763
4341 1 3761 3762 3777
4342 1 3763 3762 3777
4343 1 3762 3763 3764
4344 1 3763 3764 3765
4345 1 3764 3765 3766
4346 1 3765 3766 3767
4347 1 3766 3767 3768
4348 1 3767 3768 3769
4349 1 3768 3769 3770
4350 1 3769 3770 3771
4351 1 3770 3771 3772
4352 1 3771 3772 3773
4353 1 3772 3773 3774
4354 1 3773 3774 3775
4355 1 3774 3775 3776
4356 1 3775 3776 78
4357 1 3762 3777 3778
4358 1 3777 3778 3779
4359 1 3778 3779 3780
4360 1 3779 3780 3781
4361 1 3783 3782 77
4362 1 3782 3783 3784
4363 1 3783 3784 3785
4364 1 3784 3785 3786
4365 1 3785 3786 3787
4366 1 3786 3787 3788
4367 1 3787 3788 3789
4368 1 3788 3789 3790
4369 1 3789 3790 3791
4370 1 3789 3790 3802
4371 1 3791 3790 3802
4372 1 3790 3791 3792
4373 1 3791 3792 3793
4374 1 3792 3793 3794
4375 1 3793 3794 3795
4376 1 3794 3795 3796
4377 1 3795 3796 3797
4378 1 3796 3797 3798
4379 1 3797 3798 3799
4380 1 3797 3798 3807
4381 1 3799 3798 3807
4382 1 3798 3799 3800
4383 1 3799 3800 3801
4384 1 3800 3801 102
4385 1 3790 3802 3803
4386 1 3802 3803 3804
4387 1 3803 3804 3805
4388 1 3804 3805 3806
4389 1 3798 3807 3808
4390 1 3807 3808 3809
4391 1 3808 3809 3810
4392 1 3809 3810 3811
4393 1 3813 3812 78
4394 1 3812 3813 3814
4395 1 3813 3814 3815
4396 1 3814 3815 3816
4397 1 3815 3816 3817
4398 1 3816 3817 3818
4399 1 3817 3818 3819
4400 1 3818 3819 3820
4401 1 3819 3820 3821
4402 1 3820 3821 3822
4403 1 3821 3822 3823
4404 1 3822 3823 3824
4405 1 3822 3823 3832
4406 1 3824 3823 3832
4407 1 3823 3824 3825
4408 1 3824 3825 3826
4409 1 3825 3826 3827
4410 1 3826 3827 3828
4411 1 3827 3828 3829
4412 1 3828 3829 3830
4413 1 3829 3830 3831
4414 1 3830 3831 79
4415 1 3823 3832 3833
4416 1 3832 3833 3834
4417 1 3833 3834 3835
4418 1 3834 3835 3836
4419 1 3838 3837 78
4420 1 3838 3837 3857
4421 1 78 3837 3857
4422 1 3837 3838 3839
4423 1 3838 3839 3840
4424 1 3839 3840 3841
4425 1 3840 3841 3842
4426 1 3840 3841 3862
4427 1 3842 3841 3862
4428 1 3841 3842 3843
4429 1 3842 3843 3844
4430 1 3843 3844 3845
4431 1 3844 3845 3846
4432 1 3845 3846 3847
4433 1 3846 3847 3848
4434 1 3847 3848 3849
4435 1 3848 3849 3850
4436 1 3849 3850 3851
4437 1 3850 3851 3852
4438 1 3851 3852 3853
4439 1 3852 3853 3854
4440 1 3853 3854 3855
4441 1 3854 3855 3856
4442 1 3855 3856 103
4443 1 3837 3857 3858
4444 1 3857 3858 3859
4445 1 3858 3859 3860
4446 1 3859 3860 3861
4447 1 3841 3862 3863
4448 1 3862 3863 3864
4449 1 3863 3864 3865
4450 1 3864 3865 3866
4451 1 3868 3867 79
4452 1 3867 3868 3869
4453 1 3868 3869 3870
4454 1 3869 3870 3871
4455 1 3870 3871 3872
4456 1 3871 3872 3873
4457 1 3872 3873 3874
4458 1 3873 3874 3875
4459 1 3874 3875 3876
4460 1 3875 3876 3877
4461 1 3876 3877 3878
4462 1 3877 3878 3879
4463 1 3878 3879 3880
4464 1 3879 3880 3881
4465 1 3880 3881 3882
4466 1 3881 3882 3883
4467 1 3882 3883 3884
4468 1 3883 3884 3885
4469 1 3884 3885 3886
4470 1 3885 3886 80
4471 1 3888 3887 79
4472 1 3887 3888 3889
4473 1 3887 3888 3907
4474 1 3889 3888 3907
4475 1 3888 3889 3890
4476 1 3889 3890 3891
4477 1 3890 3891 3892
4478 1 3891 3892 3893
4479 1 3891 3892 3912
4480 1 3893 3892 3912
4481 1 3892 3893 3894
4482 1 3893 3894 3895
4483 1 3894 3895 3896
4484 1 3895 3896 3897
4485 1 3896 3897 3898
4486 1 3897 3898 3899
4487 1 3898 3899 3900
4488 1 3899 3900 3901
4489 1 3900 3901 3902
4490 1 3901 3902 3903
4491 1 3902 3903 3904
4492 1 3903 3904 3905
4493 1 3904 3905 3906
4494 1 3905 3906 84
4495 1 3888 3907 3908
4496 1 3907 3908 3909
4497 1 3908 3909 3910
4498 1 3909 3910 3911
4499 1 3892 3912 3913
4500 1 3912 3913 3914
4501 1 3913 3914 3915
4502 1 3914 3915 3916
4503 1 3918 3917 79
4504 1 3917 3918 3919
4505 1 3918 3919 3920
4506 1 3919 3920 3921
4507 1 3920 3921 3922
4508 1 3921 3922 3923
4509 1 3922 3923 3924
4510 1 3923 3924 3925
4511 1 3924 3925 3926
4512 1 3925 3926 3927
4513 1 3926 3927 3928
4514 1 3926 3927 3937
4515 1 3928 3927 3937
4516 1 3927 3928 3929
4517 1 3928 3929 3930
4518 1 3929 3930 3931
4519 1 3930 3931 3932
4520 1 3931 3932 3933
4521 1 3932 3933 3934
4522 1 3933 3934 3935
4523 1 3934 3935 3936
4524 1 3935 3936 104
4525 1 3927 3937 3938
4526 1 3937 3938 3939
4527 1 3938 3939 3940
4528 1 3939 3940 3941
4529 1 3943 3942 80
4530 1 3942 3943 3944
4531 1 3943 3944 3945
4532 1 3944 3945 3946
4533 1 3945 3946 3947
4534 1 3946 3947 3948
4535 1 3947 3948 3949
4536 1 3948 3949 3950
4537 1 3949 3950 3951
4538 1 3950 3951 3952
4539 1 3951 3952 3953
4540 1 3951 3952 3962
4541 1 3953 3952 3962
4542 1 3952 3953 3954
4543 1 3953 3954 3955
4544 1 3954 3955 3956
4545 1 3955 3956 3957
4546 1 3956 3957 3958
4547 1 3957 3958 3959
4548 1 3958 3959 3960
4549 1 3959 3960 3961
4550 1 3960 3961 85
4551 1 3952 3962 3963
4552 1 3962 3963 3964
4553 1 3963 3964 3965
4554 1 3964 3965 3966
4555 1 3968 3967 81
4556 1 3967 3968 3969
4557 1 3968 3969 3970
4558 1 3969 3970 3971
4559 1 3970 3971 3972
4560 1 3971 3972 3973
4561 1 3972 3973 3974
4562 1 3973 3974 3975
4563 1 3974 3975 3976
4564 1 3975 3976 3977
4565 1 3976 3977 3978
4566 1 3977 3978 3979
4567 1 3978 3979 3980
4568 1 3979 3980 3981
4569 1 3980 3981 3982
4570 1 3981 3982 3983
4571 1 3981 3982 3987
4572 1 3983 3982 3987
4573 1 3982 3983 3984
4574 1 3983 3984 3985
4575 1 3984 3985 3986
4576 1 3985 3986 86
4577 1 3982 3987 3988
4578 1 3987 3988 3989
4579 1 3988 3989 3990
4580 1 3989 3990 3991
4581 1 3993 3992 81
4582 1 3992 3993 3994
4583 1 3993 3994 3995
4584 1 3994 3995 3996
4585 1 3995 3996 3997
4586 1 3996 3997 3998
4587 1 3997 3998 3999
4588 1 3998 3999 4000
4589 1 3999 4000 4001
4590 1 4000 4001 4002
4591 1 4001 4002 4003
4592 1 4002 4003 4004
4593 1 4003 4004 4005
4594 1 4004 4005 4006
4595 1 4005 4006 4007
4596 1 4006 4007 4008
4597 1 4007 4008 4009
4598 1 4008 4009 4010
4599 1 4009 4010 4011
4600 1 4010 4011 106
4601 1 4013 4012 82
4602 1 4012 4013 4014
4603 1 4013 4014 4015
4604 1 4014 4015 4016
4605 1 4015 4016 4017
4606 1 4015 4016 4032
4607 1 4017 4016 4032
4608 1 4016 4017 4018
4609 1 4017 4018 4019
4610 1 4018 4019 4020
4611 1 4019 4020 4021
4612 1 4020 4021 4022
4613 1 4021 4022 4023
4614 1 4021 4022 4037
4615 1 4023 4022 4037
4616 1 4022 4023 4024
4617 1 4023 4024 4025
4618 1 4024 4025 4026
4619 1 4025 4026 4027
4620 1 4026 4027 4028
4621 1 4027 4028 4029
4622 1 4028 4029 4030
4623 1 4029 4030 4031
4624 1 4030 4031 87
4625 1 4016 4032 4033
4626 1 4032 4033 4034
4627 1 4033 4034 4035
4628 1 4034 4035 4036
4629 1 4022 4037 4038
4630 1 4037 4038 4039
4631 1 4038 4039 4040
4632 1 4039 4040 4041
4633 1 4043 4042 82
4634 1 4042 4043 4044
4635 1 4043 4044 4045
4636 1 4044 4045 4046
4637 1 4045 4046 4047
4638 1 4046 4047 4048
4639 1 4047 4048 4049
4640 1 4048 4049 4050
4641 1 4049 4050 4051
4642 1 4050 4051 4052
4643 1 4051 4052 4053
4644 1 4052 4053 4054
4645 1 4053 4054 4055
4646 1 4054 4055 4056
4647 1 4055 4056 4057
4648 1 4056 4057 4058
4649 1 4057 4058 4059
4650 1 4058 4059 4060
4651 1 4059 4060 4061
4652 1 4060 4061 107
4653 1 4063 4062 82
4654 1 4062 4063 4064
4655 1 4063 4064 4065
4656 1 4063 4064 4082
4657 1 4065 4064 4082
4658 1 4064 4065 4066
4659 1 4065 4066 4067
4660 1 4065 4066 4087
4661 1 4067 4066 4087
4662 1 4066 4067 4068
4663 1 4067 4068 4069
4664 1 4068 4069 4070
4665 1 4069 4070 4071
4666 1 4070 4071 4072
4667 1 4071 4072 4073
4668 1 4072 4073 4074
4669 1 4073 4074 4075
4670 1 4073 4074 4092
4671 1 4075 4074 4092
4672 1 4074 4075 4076
4673 1 4075 4076 4077
4674 1 4075 4076 4097
4675 1 4077 4076 4097
4676 1 4076 4077 4078
4677 1 4077 4078 4079
4678 1 4078 4079 4080
4679 1 4079 4080 4081
4680 1 4080 4081 86
4681 1 4064 4082 4083
4682 1 4082 4083 4084
4683 1 4083 4084 4085
4684 1 4084 4085 4086
4685 1 4066 4087 4088
4686 1 4087 4088 4089
4687 1 4088 4089 4090
4688 1 4089 4090 4091
4689 1 4074 4092 4093
4690 1 4092 4093 4094
4691 1 4093 4094 4095
4692 1 4094 4095 4096
4693 1 4076 4097 4098
4694 1 4097 4098 4099
4695 1 4098 4099 4100
4696 1 4099 4100 4101
4697 1 4103 4102 83
4698 1 4102 4103 4104
4699 1 4103 4104 4105
4700 1 4104 4105 4106
4701 1 4105 4106 4107
4702 1 4106 4107 4108
4703 1 4107 4108 4109
4704 1 4108 4109 4110
4705 1 4108 4109 4122
4706 1 4110 4109 4122
4707 1 4109 4110 4111
4708 1 4110 4111 4112
4709 1 4111 4112 4113
4710 1 4112 4113 4114
4711 1 4113 4114 4115
4712 1 4114 4115 4116
4713 1 4115 4116 4117
4714 1 4116 4117 4118
4715 1 4117 4118 4119
4716 1 4118 4119 4120
4717 1 4119 4120 4121
4718 1 4120 4121 84
4719 1 4109 4122 4123
4720 1 4122 4123 4124
4721 1 4123 4124 4125
4722 1 4124 4125 4126
4723 1 4128 4127 83
4724 1 4127 4128 4129
4725 1 4128 4129 4130
4726 1 4129 4130 4131
4727 1 4130 4131 4132
4728 1 4131 4132 4133
4729 1 4132 4133 4134
4730 1 4133 4134 4135
4731 1 4134 4135 4136
4732 1 4135 4136 4137
4733 1 4136 4137 4138
4734 1 4137 4138 4139
4735 1 4138 4139 4140
4736 1 4139 4140 4141
4737 1 4140 4141 4142
4738 1 4141 4142 4143
4739 1 4142 4143 4144
4740 1 4143 4144 4145
4741 1 4144 4145 4146
4742 1 4145 4146 108
4743 1 4148 4147 84
4744 1 4147 4148 4149
4745 1 4148 4149 4150
4746 1 4148 4149 4167
4747 1 4150 4149 4167
4748 1 4149 4150 4151
4749 1 4150 4151 4152
4750 1 4151 4152 4153
4751 1 4152 4153 4154
4752 1 4153 4154 4155
4753 1 4154 4155 4156
4754 1 4155 4156 4157
4755 1 4156 4157 4158
4756 1 4157 4158 4159
4757 1 4158 4159 4160
4758 1 4159 4160 4161
4759 1 4160 4161 4162
4760 1 4161 4162 4163
4761 1 4162 4163 4164
4762 1 4163 4164 4165
4763 1 4164 4165 4166
4764 1 4165 4166 89
4765 1 4149 4167 4168
4766 1 4167 4168 4169
4767 1 4168 4169 4170
4768 1 4169 4170 4171
4769 1 4173 4172 85
4770 1 4172 4173 4174
4771 1 4173 4174 4175
4772 1 4174 4175 4176
4773 1 4175 4176 4177
4774 1 4176 4177 4178
4775 1 4176 4177 4192
4776 1 4178 4177 4192
4777 1 4177 4178 4179
4778 1 4178 4179 4180
4779 1 4179 4180 4181
4780 1 4180 4181 4182
4781 1 4181 4182 4183
4782 1 4182 4183 4184
4783 1 4183 4184 4185
4784 1 4184 4185 4186
4785 1 4185 4186 4187
4786 1 4186 4187 4188
4787 1 4187 4188 4189
4788 1 4188 4189 4190
4789 1 4189 4190 4191
4790 1 4190 4191 86
4791 1 4177 4192 4193
4792 1 4192 4193 4194
4793 1 4193 4194 4195
4794 1 4194 4195 4196
4795 1 4198 4197 85
4796 1 4197 4198 4199
4797 1 4198 4199 4200
4798 1 4198 4199 4217
4799 1 4200 4199 4217
4800 1 4199 4200 4201
4801 1 4200 4201 4202
4802 1 4201 4202 4203
4803 1 4202 4203 4204
4804 1 4203 4204 4205
4805 1 4204 4205 4206
4806 1 4205 4206 4207
4807 1 4206 4207 4208
4808 1 4207 4208 4209
4809 1 4208 4209 4210
4810 1 4209 4210 4211
4811 1 4210 4211 4212
4812 1 4211 4212 4213
4813 1 4212 4213 4214
4814 1 4213 4214 4215
4815 1 4214 4215 4216
4816 1 4215 4216 90
4817 1 4199 4217 4218
4818 1 4217 4218 4219
4819 1 4218 4219 4220
4820 1 4219 4220 4221
4821 1 4223 4222 86
4822 1 4222 4223 4224
4823 1 4223 4224 4225
4824 1 4223 4224 4242
4825 1 4225 4224 4242
4826 1 4224 4225 4226
4827 1 4225 4226 4227
4828 1 4226 4227 4228
4829 1 4227 4228 4229
4830 1 4228 4229 4230
4831 1 4229 4230 4231
4832 1 4230 4231 4232
4833 1 4231 4232 4233
4834 1 4232 4233 4234
4835 1 4233 4234 4235
4836 1 4234 4235 4236
4837 1 4235 4236 4237
4838 1 4236 4237 4238
4839 1 4236 4237 4247
4840 1 4238 4237 4247
4841 1 4237 4238 4239
4842 1 4238 4239 4240
4843 1 4239 4240 4241
4844 1 4240 4241 111
4845 1 4224 4242 4243
4846 1 4242 4243 4244
4847 1 4243 4244 4245
4848 1 4244 4245 4246
4849 1 4237 4247 4248
4850 1 4247 4248 4249
4851 1 4248 4249 4250
4852 1 4249 4250 4251
4853 1 4253 4252 87
4854 1 4252 4253 4254
4855 1 4253 4254 4255
4856 1 4254 4255 4256
4857 1 4255 4256 4257
4858 1 4256 4257 4258
4859 1 4257 4258 4259
4860 1 4257 4258 4272
4861 1 4259 4258 4272
4862 1 4258 4259 4260
4863 1 4259 4260 4261
4864 1 4260 4261 4262
4865 1 4261 4262 4263
4866 1 4262 4263 4264
4867 1 4263 4264 4265
4868 1 4264 4265 4266
4869 1 4265 4266 4267
4870 1 4265 4266 4277
4871 1 4267 4266 4277
4872 1 4266 4267 4268
4873 1 4267 4268 4269
4874 1 4268 4269 4270
4875 1 4269 4270 4271
4876 1 4270 4271 88
4877 1 4258 4272 4273
4878 1 4272 4273 4274
4879 1 4273 4274 4275
4880 1 4274 4275 4276
4881 1 4266 4277 4278
4882 1 4277 4278 4279
4883 1 4278 4279 4280
4884 1 4279 4280 4281
4885 1 4283 4282 87
4886 1 4282 4283 4284
4887 1 4283 4284 4285
4888 1 4284 4285 4286
4889 1 4285 4286 4287
4890 1 4286 4287 4288
4891 1 4287 4288 4289
4892 1 4288 4289 4290
4893 1 4289 4290 4291
4894 1 4290 4291 4292
4895 1 4291 4292 4293
4896 1 4292 4293 4294
4897 1 4293 4294 4295
4898 1 4294 4295 4296
4899 1 4295 4296 4297
4900 1 4296 4297 4298
4901 1 4297 4298 4299
4902 1 4298 4299 4300
4903 1 4299 4300 4301
4904 1 4300 4301 91
4905 1 4303 4302 88
4906 1 4302 4303 4304
4907 1 4303 4304 4305
4908 1 4304 4305 4306
4909 1 4305 4306 4307
4910 1 4306 4307 4308
4911 1 4307 4308 4309
4912 1 4308 4309 4310
4913 1 4309 4310 4311
4914 1 4310 4311 4312
4915 1 4311 4312 4313
4916 1 4312 4313 4314
4917 1 4313 4314 4315
4918 1 4314 4315 4316
4919 1 4315 4316 4317
4920 1 4316 4317 4318
4921 1 4317 4318 4319
4922 1 4318 4319 4320
4923 1 4319 4320 4321
4924 1 4320 4321 93
4925 1 4323 4322 88
4926 1 4322 4323 4324
4927 1 4323 4324 4325
4928 1 4324 4325 4326
4929 1 4325 4326 4327
4930 1 4326 4327 4328
4931 1 4327 4328 4329
4932 1 4328 4329 4330
4933 1 4329 4330 4331
4934 1 4330 4331 4332
4935 1 4331 4332 4333
4936 1 4332 4333 4334
4937 1 4333 4334 4335
4938 1 4334 4335 4336
4939 1 4335 4336 4337
4940 1 4336 4337 4338
4941 1 4337 4338 4339
4942 1 4338 4339 4340
4943 1 4339 4340 4341
4944 1 4340 4341 113
4945 1 4343 4342 89
4946 1 4342 4343 4344
4947 1 4343 4344 4345
4948 1 4344 4345 4346
4949 1 4345 4346 4347
4950 1 4346 4347 4348
4951 1 4346 4347 4362
4952 1 4348 4347 4362
4953 1 4347 4348 4349
4954 1 4347 4348 4367
4955 1 4349 4348 4367
4956 1 4348 4349 4350
4957 1 4349 4350 4351
4958 1 4350 4351 4352
4959 1 4351 4352 4353
4960 1 4352 4353 4354
4961 1 4353 4354 4355
4962 1 4354 4355 4356
4963 1 4355 4356 4357
4964 1 4356 4357 4358
4965 1 4357 4358 4359
4966 1 4358 4359 4360
4967 1 4359 4360 4361
4968 1 4360 4361 114
4969 1 4347 4362 4363
4970 1 4362 4363 4364
4971 1 4363 4364 4365
4972 1 4364 4365 4366
4973 1 4348 4367 4368
4974 1 4367 4368 4369
4975 1 4368 4369 4370
4976 1 4369 4370 4371
4977 1 4373 4372 90
4978 1 4372 4373 4374
4979 1 4373 4374 4375
4980 1 4374 4375 4376
4981 1 4375 4376 4377
4982 1 4375 4376 4392
4983 1 4377 4376 4392
4984 1 4376 4377 4378
4985 1 4377 4378 4379
4986 1 4378 4379 4380
4987 1 4379 4380 4381
4988 1 4379 4380 4397
4989 1 4381 4380 4397
4990 1 4380 4381 4382
4991 1 4381 4382 4383
4992 1 4382 4383 4384
4993 1 4383 4384 4385
4994 1 4384 4385 4386
4995 1 4385 4386 4387
4996 1 4386 4387 4388
4997 1 4386 4387 4402
4998 1 4388 4387 4402
4999 1 4387 4388 4389
5000 1 4388 4389 4390
5001 1 4389 4390 4391
5002 1 4390 4391 91
5003 1 4376 4392 4393
5004 1 4392 4393 4394
5005 1 4393 4394 4395
5006 1 4394 4395 4396
5007 1 4380 4397 4398
5008 1 4397 4398 4399
5009 1 4398 4399 4400
5010 1 4399 4400 4401
5011 1 4387 4402 4403
5012 1 4402 4403 4404
5013 1 4403 4404 4405
5014 1 4404 4405 4406
5015 1 4408 4407 90
5016 1 4407 4408 4409
5017 1 4408 4409 4410
5018 1 4409 4410 4411
5019 1 4410 4411 4412
5020 1 4411 4412 4413
5021 1 4412 4413 4414
5022 1 4413 4414 4415
5023 1 4414 4415 4416
5024 1 4415 4416 4417
5025 1 4416 4417 4418
5026 1 4417 4418 4419
5027 1 4418 4419 4420
5028 1 4419 4420 4421
5029 1 4420 4421 4422
5030 1 4421 4422 4423
5031 1 4422 4423 4424
5032 1 4423 4424 4425
5033 1 4424 4425 4426
5034 1 4425 4426 95
5035 1 4428 4427 90
5036 1 4427 4428 4429
5037 1 4427 4428 4447
5038 1 4429 4428 4447
5039 1 4428 4429 4430
5040 1 4429 4430 4431
5041 1 4429 4430 4452
5042 1 4431 4430 4452
5043 1 4430 4431 4432
5044 1 4431 4432 4433
5045 1 4432 4433 4434
5046 1 4433 4434 4435
5047 1 4434 4435 4436
5048 1 4435 4436 4437
5049 1 4436 4437 4438
5050 1 4436 4437 4457
5051 1 4438 4437 4457
5052 1 4437 4438 4439
5053 1 4438 4439 4440
5054 1 4439 4440 4441
5055 1 4440 4441 4442
5056 1 4441 4442 4443
5057 1 4442 4443 4444
5058 1 4443 4444 4445
5059 1 4444 4445 4446
5060 1 4445 4446 115
5061 1 4428 4447 4448
5062 1 4447 4448 4449
5063 1 4448 4449 4450
5064 1 4449 4450 4451
5065 1 4430 4452 4453
5066 1 4452 4453 4454
5067 1 4453 4454 4455
5068 1 4454 4455 4456
5069 1 4437 4457 4458
5070 1 4457 4458 4459
5071 1 4458 4459 4460
5072 1 4459 4460 4461
5073 1 4463 4462 91
5074 1 4462 4463 4464
5075 1 4462 4463 4482
5076 1 4464 4463 4482
5077 1 4463 4464 4465
5078 1 4464 4465 4466
5079 1 4465 4466 4467
5080 1 4466 4467 4468
5081 1 4467 4468 4469
5082 1 4467 4468 4487
5083 1 4469 4468 4487
5084 1 4468 4469 4470
5085 1 4469 4470 4471
5086 1 4469 4470 4492
5087 1 4471 4470 4492
5088 1 4470 4471 4472
5089 1 4470 4471 4497
5090 1 4472 4471 4497
5091 1 4471 4472 4473
5092 1 4472 4473 4474
5093 1 4473 4474 4475
5094 1 4474 4475 4476
5095 1 4475 4476 4477
5096 1 4476 4477 4478
5097 1 4477 4478 4479
5098 1 4478 4479 4480
5099 1 4479 4480 4481
5100 1 4480 4481 116
5101 1 4463 4482 4483
5102 1 4482 4483 4484
5103 1 4483 4484 4485
5104 1 4484 4485 4486
5105 1 4468 4487 4488
5106 1 4487 4488 4489
5107 1 4488 4489 4490
5108 1 4489 4490 4491
5109 1 4470 4492 4493
5110 1 4492 4493 4494
5111 1 4493 4494 4495
5112 1 4494 4495 4496
5113 1 4471 4497 4498
5114 1 4497 4498 4499
5115 1 4498 4499 4500
5116 1 4499 4500 4501
5117 1 4503 4502 92
5118 1 4502 4503 4504
5119 1 4503 4504 4505
5120 1 4504 4505 4506
5121 1 4505 4506 4507
5122 1 4506 4507 4508
5123 1 4507 4508 4509
5124 1 4508 4509 4510
5125 1 4509 4510 4511
5126 1 4510 4511 4512
5127 1 4511 4512 4513
5128 1 4512 4513 4514
5129 1 4513 4514 4515
5130 1 4514 4515 4516
5131 1 4515 4516 4517
5132 1 4516 4517 4518
5133 1 4517 4518 4519
5134 1 4518 4519 4520
5135 1 4519 4520 4521
5136 1 4520 4521 93
5137 1 4523 4522 92
5138 1 4522 4523 4524
5139 1 4523 4524 4525
5140 1 4524 4525 4526
5141 1 4525 4526 4527
5142 1 4526 4527 4528
5143 1 4526 4527 4542
5144 1 4528 4527 4542
5145 1 4527 4528 4529
5146 1 4528 4529 4530
5147 1 4529 4530 4531
5148 1 4530 4531 4532
5149 1 4531 4532 4533
5150 1 4532 4533 4534
5151 1 4533 4534 4535
5152 1 4534 4535 4536
5153 1 4535 4536 4537
5154 1 4536 4537 4538
5155 1 4537 4538 4539
5156 1 4538 4539 4540
5157 1 4538 4539 4547
5158 1 4540 4539 4547
5159 1 4539 4540 4541
5160 1 4540 4541 117
5161 1 4527 4542 4543
5162 1 4542 4543 4544
5163 1 4543 4544 4545
5164 1 4544 4545 4546
5165 1 4539 4547 4548
5166 1 4547 4548 4549
5167 1 4548 4549 4550
5168 1 4549 4550 4551
5169 1 4553 4552 92
5170 1 4552 4553 4554
5171 1 4553 4554 4555
5172 1 4554 4555 4556
5173 1 4555 4556 4557
5174 1 4556 4557 4558
5175 1 4556 4557 4572
5176 1 4558 4557 4572
5177 1 4557 4558 4559
5178 1 4558 4559 4560
5179 1 4559 4560 4561
5180 1 4560 4561 4562
5181 1 4560 4561 4577
5182 1 4562 4561 4577
5183 1 4561 4562 4563
5184 1 4562 4563 4564
5185 1 4563 4564 4565
5186 1 4564 4565 4566
5187 1 4565 4566 4567
5188 1 4566 4567 4568
5189 1 4567 4568 4569
5190 1 4568 4569 4570
5191 1 4569 4570 4571
5192 1 4570 4571 96
5193 1 4557 4572 4573
5194 1 4572 4573 4574
5195 1 4573 4574 4575
5196 1 4574 4575 4576
5197 1 4561 4577 4578
5198 1 4577 4578 4579
5199 1 4578 4579 4580
5200 1 4579 4580 4581
5201 1 4583 4582 93
5202 1 4582 4583 4584
5203 1 4583 4584 4585
5204 1 4584 4585 4586
5205 1 4585 4586 4587
5206 1 4586 4587 4588
5207 1 4587 4588 4589
5208 1 4587 4588 4602
5209 1 4589 4588 4602
5210 1 4588 4589 4590
5211 1 4589 4590 4591
5212 1 4590 4591 4592
5213 1 4591 4592 4593
5214 1 4592 4593 4594
5215 1 4593 4594 4595
5216 1 4594 4595 4596
5217 1 4595 4596 4597
5218 1 4596 4597 4598
5219 1 4597 4598 4599
5220 1 4598 4599 4600
5221 1 4599 4600 4601
5222 1 4599 4600 4607
5223 1 4601 4600 4607
5224 1 4600 4601 118
5225 1 4588 4602 4603
5226 1 4602 4603 4604
5227 1 4603 4604 4605
5228 1 4604 4605 4606
5229 1 4600 4607 4608
5230 1 4607 4608 4609
5231 1 4608 4609 4610
5232 1 4609 4610 4611
5233 1 4613 4612 94
5234 1 4612 4613 4614
5235 1 4613 4614 4615
5236 1 4614 4615 4616
5237 1 4615 4616 4617
5238 1 4616 4617 4618
5239 1 4617 4618 4619
5240 1 4618 4619 4620
5241 1 4619 4620 4621
5242 1 4620 4621 4622
5243 1 4621 4622 4623
5244 1 4622 4623 4624
5245 1 4623 4624 4625
5246 1 4624 4625 4626
5247 1 4625 4626 4627
5248 1 4626 4627 4628
5249 1 4627 4628 4629
5250 1 4628 4629 4630
5251 1 4629 4630 4631
5252 1 4629 4630 4632
5253 1 4631 4630 4632
5254 1 4630 4631 95
5255 1 4630 4632 4633
5256 1 4632 4633 4634
5257 1 4633 4634 4635
5258 1 4634 4635 4636
5259 1 4638 4637 94
5260 1 4637 4638 4639
5261 1 4638 4639 4640
5262 1 4639 4640 4641
5263 1 4640 4641 4642
5264 1 4641 4642 4643
5265 1 4642 4643 4644
5266 1 4643 4644 4645
5267 1 4644 4645 4646
5268 1 4645 4646 4647
5269 1 4646 4647 4648
5270 1 4647 4648 4649
5271 1 4648 4649 4650
5272 1 4649 4650 4651
5273 1 4650 4651 4652
5274 1 4651 4652 4653
5275 1 4652 4653 4654
5276 1 4652 4653 4657
5277 1 4654 4653 4657
5278 1 4653 4654 4655
5279 1 4654 4655 4656
5280 1 4655 4656 119
5281 1 4653 4657 4658
5282 1 4657 4658 4659
5283 1 4658 4659 4660
5284 1 4659 4660 4661
5285 1 4663 4662 95
5286 1 4662 4663 4664
5287 1 4663 4664 4665
5288 1 4664 4665 4666
5289 1 4665 4666 4667
5290 1 4666 4667 4668
5291 1 4667 4668 4669
5292 1 4668 4669 4670
5293 1 4669 4670 4671
5294 1 4670 4671 4672
5295 1 4671 4672 4673
5296 1 4672 4673 4674
5297 1 4673 4674 4675
5298 1 4674 4675 4676
5299 1 4675 4676 4677
5300 1 4676 4677 4678
5301 1 4677 4678 4679
5302 1 4678 4679 4680
5303 1 4679 4680 4681
5304 1 4680 4681 120
5305 1 4680 4681 4682
5306 1 120 4681 4682
5307 1 4681 4682 4683
5308 1 4682 4683 4684
5309 1 4683 4684 4685
5310 1 4684 4685 4686
5311 1 4688 4687 97
5312 1 4687 4688 4689
5313 1 4688 4689 4690
5314 1 4689 4690 4691
5315 1 4690 4691 4692
5316 1 4691 4692 4693
5317 1 4692 4693 4694
5318 1 4693 4694 4695
5319 1 4694 4695 4696
5320 1 4695 4696 4697
5321 1 4695 4696 4707
5322 1 4697 4696 4707
5323 1 4696 4697 4698
5324 1 4697 4698 4699
5325 1 4698 4699 4700
5326 1 4699 4700 4701
5327 1 4700 4701 4702
5328 1 4701 4702 4703
5329 1 4702 4703 4704
5330 1 4703 4704 4705
5331 1 4704 4705 4706
5332 1 4705 4706 98
5333 1 4696 4707 4708
5334 1 4707 4708 4709
5335 1 4708 4709 4710
5336 1 4709 4710 4711
5337 1 4713 4712 97
5338 1 4712 4713 4714
5339 1 4713 4714 4715
5340 1 4714 4715 4716
5341 1 4715 4716 4717
5342 1 4716 4717 4718
5343 1 4717 4718 4719
5344 1 4718 4719 4720
5345 1 4719 4720 4721
5346 1 4720 4721 4722
5347 1 4721 4722 4723
5348 1 4721 4722 4732
5349 1 4723 4722 4732
5350 1 4722 4723 4724
5351 1 4722 4723 4737
5352 1 4724 4723 4737
5353 1 4723 4724 4725
5354 1 4724 4725 4726
5355 1 4725 4726 4727
5356 1 4726 4727 4728
5357 1 4727 4728 4729
5358 1 4728 4729 4730
5359 1 4729 4730 4731
5360 1 4730 4731 101
5361 1 4722 4732 4733
5362 1 4732 4733 4734
5363 1 4733 4734 4735
5364 1 4734 4735 4736
5365 1 4723 4737 4738
5366 1 4737 4738 4739
5367 1 4738 4739 4740
5368 1 4739 4740 4741
5369 1 4743 4742 97
5370 1 4742 4743 4744
5371 1 4743 4744 4745
5372 1 4744 4745 4746
5373 1 4745 4746 4747
5374 1 4746 4747 4748
5375 1 4747 4748 4749
5376 1 4748 4749 4750
5377 1 4749 4750 4751
5378 1 4750 4751 4752
5379 1 4751 4752 4753
5380 1 4752 4753 4754
5381 1 4753 4754 4755
5382 1 4754 4755 4756
5383 1 4755 4756 4757
5384 1 4756 4757 4758
5385 1 4757 4758 4759
5386 1 4758 4759 4760
5387 1 4759 4760 4761
5388 1 4760 4761 117
5389 1 4763 4762 98
5390 1 4762 4763 4764
5391 1 4763 4764 4765
5392 1 4764 4765 4766
5393 1 4764 4765 4782
5394 1 4766 4765 4782
5395 1 4765 4766 4767
5396 1 4766 4767 4768
5397 1 4767 4768 4769
5398 1 4768 4769 4770
5399 1 4769 4770 4771
5400 1 4770 4771 4772
5401 1 4771 4772 4773
5402 1 4772 4773 4774
5403 1 4773 4774 4775
5404 1 4774 4775 4776
5405 1 4775 4776 4777
5406 1 4776 4777 4778
5407 1 4776 4777 4787
5408 1 4778 4777 4787
5409 1 4777 4778 4779
5410 1 4778 4779 4780
5411 1 4779 4780 4781
5412 1 4780 4781 103
5413 1 4765 4782 4783
5414 1 4782 4783 4784
5415 1 4783 4784 4785
5416 1 4784 4785 4786
5417 1 4777 4787 4788
5418 1 4787 4788 4789
5419 1 4788 4789 4790
5420 1 4789 4790 4791
5421 1 4793 4792 98
5422 1 4792 4793 4794
5423 1 4793 4794 4795
5424 1 4794 4795 4796
5425 1 4795 4796 4797
5426 1 4796 4797 4798
5427 1 4797 4798 4799
5428 1 4798 4799 4800
5429 1 4799 4800 4801
5430 1 4800 4801 4802
5431 1 4801 4802 4803
5432 1 4802 4803 4804
5433 1 4802 4803 4812
5434 1 4804 4803 4812
5435 1 4803 4804 4805
5436 1 4804 4805 4806
5437 1 4804 4805 4817
5438 1 4806 4805 4817
5439 1 4805 4806 4807
5440 1 4806 4807 4808
5441 1 4807 4808 4809
5442 1 4808 4809 4810
5443 1 4809 4810 4811
5444 1 4810 4811 118
5445 1 4803 4812 4813
5446 1 4812 4813 4814
5447 1 4813 4814 4815
5448 1 4814 4815 4816
5449 1 4805 4817 4818
5450 1 4817 4818 4819
5451 1 4818 4819 4820
5452 1 4819 4820 4821
5453 1 4823 4822 99
5454 1 4822 4823 4824
5455 1 4823 4824 4825
5456 1 4824 4825 4826
5457 1 4825 4826 4827
5458 1 4826 4827 4828
5459 1 4827 4828 4829
5460 1 4828 4829 4830
5461 1 4829 4830 4831
5462 1 4830 4831 4832
5463 1 4831 4832 4833
5464 1 4832 4833 4834
5465 1 4833 4834 4835
5466 1 4834 4835 4836
5467 1 4835 4836 4837
5468 1 4836 4837 4838
5469 1 4837 4838 4839
5470 1 4838 4839 4840
5471 1 4839 4840 4841
5472 1 4840 4841 100
5473 1 4843 4842 99
5474 1 4842 4843 4844
5475 1 4843 4844 4845
5476 1 4844 4845 4846
5477 1 4845 4846 4847
5478 1 4846 4847 4848
5479 1 4847 4848 4849
5480 1 4848 4849 4850
5481 1 4849 4850 4851
5482 1 4850 4851 4852
5483 1 4851 4852 4853
5484 1 4852 4853 4854
5485 1 4853 4854 4855
5486 1 4854 4855 4856
5487 1 4855 4856 4857
5488 1 4856 4857 4858
5489 1 4856 4857 4862
5490 1 4858 4857 4862
5491 1 4857 4858 4859
5492 1 4858 4859 4860
5493 1 4859 4860 4861
5494 1 4859 4860 4867
5495 1 4861 4860 4867
5496 1 4860 4861 104
5497 1 4857 4862 4863
5498 1 4862 4863 4864
5499 1 4863 4864 4865
5500 1 4864 4865 4866
5501 1 4860 4867 4868
5502 1 4867 4868 4869
5503 1 4868 4869 4870
5504 1 4869 4870 4871
5505 1 4873 4872 100
5506 1 4873 4872 4892
5507 1 100 4872 4892
5508 1 4872 4873 4874
5509 1 4873 4874 4875
5510 1 4874 4875 4876
5511 1 4875 4876 4877
5512 1 4876 4877 4878
5513 1 4877 4878 4879
5514 1 4878 4879 4880
5515 1 4879 4880 4881
5516 1 4879 4880 4897
5517 1 4881 4880 4897
5518 1 4880 4881 4882
5519 1 4881 4882 4883
5520 1 4882 4883 4884
5521 1 4883 4884 4885
5522 1 4884 4885 4886
5523 1 4885 4886 4887
5524 1 4886 4887 4888
5525 1 4887 4888 4889
5526 1 4887 4888 4902
5527 1 4889 4888 4902
5528 1 4888 4889 4890
5529 1 4889 4890 4891
5530 1 4890 4891 101
5531 1 4872 4892 4893
5532 1 4892 4893 4894
5533 1 4893 4894 4895
5534 1 4894 4895 4896
5535 1 4880 4897 4898
5536 1 4897 4898 4899
5537 1 4898 4899 4900
5538 1 4899 4900 4901
5539 1 4888 4902 4903
5540 1 4902 4903 4904
5541 1 4903 4904 4905
5542 1 4904 4905 4906
5543 1 4908 4907 100
5544 1 4907 4908 4909
5545 1 4908 4909 4910
5546 1 4909 4910 4911
5547 1 4910 4911 4912
5548 1 4911 4912 4913
5549 1 4912 4913 4914
5550 1 4913 4914 4915
5551 1 4914 4915 4916
5552 1 4915 4916 4917
5553 1 4916 4917 4918
5554 1 4917 4918 4919
5555 1 4918 4919 4920
5556 1 4919 4920 4921
5557 1 4920 4921 4922
5558 1 4921 4922 4923
5559 1 4922 4923 4924
5560 1 4923 4924 4925
5561 1 4924 4925 4926
5562 1 4925 4926 105
5563 1 4928 4927 101
5564 1 4927 4928 4929
5565 1 4928 4929 4930
5566 1 4929 4930 4931
5567 1 4930 4931 4932
5568 1 4931 4932 4933
5569 1 4932 4933 4934
5570 1 4933 4934 4935
5571 1 4934 4935 4936
5572 1 4935 4936 4937
5573 1 4936 4937 4938
5574 1 4937 4938 4939
5575 1 4938 4939 4940
5576 1 4939 4940 4941
5577 1 4940 4941 4942
5578 1 4941 4942 4943
5579 1 4942 4943 4944
5580 1 4943 4944 4945
5581 1 4944 4945 4946
5582 1 4945 4946 121
5583 1 4948 4947 102
5584 1 4947 4948 4949
5585 1 4948 4949 4950
5586 1 4949 4950 4951
5587 1 4950 4951 4952
5588 1 4951 4952 4953
5589 1 4952 4953 4954
5590 1 4953 4954 4955
5591 1 4954 4955 4956
5592 1 4955 4956 4957
5593 1 4956 4957 4958
5594 1 4957 4958 4959
5595 1 4958 4959 4960
5596 1 4959 4960 4961
5597 1 4960 4961 4962
5598 1 4961 4962 4963
5599 1 4962 4963 4964
5600 1 4962 4963 4967
5601 1 4964 4963 4967
5602 1 4963 4964 4965
5603 1 4964 4965 4966
5604 1 4965 4966 107
5605 1 4963 4967 4968
5606 1 4967 4968 4969
5607 1 4968 4969 4970
5608 1 4969 4970 4971
5609 1 4973 4972 102
5610 1 4972 4973 4974
5611 1 4973 4974 4975
5612 1 4974 4975 4976
5613 1 4975 4976 4977
5614 1 4976 4977 4978
5615 1 4977 4978 4979
5616 1 4978 4979 4980
5617 1 4979 4980 4981
5618 1 4980 4981 4982
5619 1 4981 4982 4983
5620 1 4982 4983 4984
5621 1 4983 4984 4985
5622 1 4984 4985 4986
5623 1 4985 4986 4987
5624 1 4986 4987 4988
5625 1 4987 4988 4989
5626 1 4988 4989 4990
5627 1 4989 4990 4991
5628 1 4990 4991 106
5629 1 4993 4992 103
5630 1 4992 4993 4994
5631 1 4993 4994 4995
5632 1 4994 4995 4996
5633 1 4995 4996 4997
5634 1 4996 4997 4998
5635 1 4997 4998 4999
5636 1 4998 4999 5000
5637 1 4999 5000 5001
5638 1 5000 5001 5002
5639 1 5001 5002 5003
5640 1 5002 5003 5004
5641 1 5003 5004 5005
5642 1 5004 5005 5006
5643 1 5005 5006 5007
5644 1 5006 5007 5008
5645 1 5007 5008 5009
5646 1 5008 5009 5010
5647 1 5009 5010 5011
5648 1 5010 5011 108
5649 1 5013 5012 104
5650 1 5012 5013 5014
5651 1 5013 5014 5015
5652 1 5014 5015 5016
5653 1 5015 5016 5017
5654 1 5016 5017 5018
5655 1 5017 5018 5019
5656 1 5018 5019 5020
5657 1 5019 5020 5021
5658 1 5020 5021 5022
5659 1 5021 5022 5023
5660 1 5022 5023 5024
5661 1 5023 5024 5025
5662 1 5024 5025 5026
5663 1 5025 5026 5027
5664 1 5026 5027 5028
5665 1 5027 5028 5029
5666 1 5028 5029 5030
5667 1 5029 5030 5031
5668 1 5030 5031 109
5669 1 5033 5032 105
5670 1 5032 5033 5034
5671 1 5033 5034 5035
5672 1 5034 5035 5036
5673 1 5034 5035 5052
5674 1 5036 5035 5052
5675 1 5035 5036 5037
5676 1 5036 5037 5038
5677 1 5037 5038 5039
5678 1 5038 5039 5040
5679 1 5039 5040 5041
5680 1 5040 5041 5042
5681 1 5040 5041 5057
5682 1 5042 5041 5057
5683 1 5041 5042 5043
5684 1 5042 5043 5044
5685 1 5043 5044 5045
5686 1 5044 5045 5046
5687 1 5045 5046 5047
5688 1 5046 5047 5048
5689 1 5047 5048 5049
5690 1 5048 5049 5050
5691 1 5049 5050 5051
5692 1 5050 5051 110
5693 1 5035 5052 5053
5694 1 5052 5053 5054
5695 1 5053 5054 5055
5696 1 5054 5055 5056
5697 1 5041 5057 5058
5698 1 5057 5058 5059
5699 1 5058 5059 5060
5700 1 5059 5060 5061
5701 1 5063 5062 106
5702 1 5063 5062 5082
5703 1 106 5062 5082
5704 1 5062 5063 5064
5705 1 5063 5064 5065
5706 1 5063 5064 5087
5707 1 5065 5064 5087
5708 1 5064 5065 5066
5709 1 5065 5066 5067
5710 1 5066 5067 5068
5711 1 5067 5068 5069
5712 1 5067 5068 5092
5713 1 5069 5068 5092
5714 1 5068 5069 5070
5715 1 5069 5070 5071
5716 1 5070 5071 5072
5717 1 5071 5072 5073
5718 1 5072 5073 5074
5719 1 5073 5074 5075
5720 1 5074 5075 5076
5721 1 5075 5076 5077
5722 1 5076 5077 5078
5723 1 5077 5078 5079
5724 1 5078 5079 5080
5725 1 5079 5080 5081
5726 1 5080 5081 111
5727 1 5062 5082 5083
5728 1 5082 5083 5084
5729 1 5083 5084 5085
5730 1 5084 5085 5086
5731 1 5064 5087 5088
5732 1 5087 5088 5089
5733 1 5088 5089 5090
5734 1 5089 5090 5091
5735 1 5068 5092 5093
5736 1 5092 5093 5094
5737 1 5093 5094 5095
5738 1 5094 5095 5096
5739 1 5098 5097 107
5740 1 5097 5098 5099
5741 1 5098 5099 5100
5742 1 5099 5100 5101
5743 1 5100 5101 5102
5744 1 5101 5102 5103
5745 1 5102 5103 5104
5746 1 5103 5104 5105
5747 1 5104 5105 5106
5748 1 5105 5106 5107
5749 1 5106 5107 5108
5750 1 5107 5108 5109
5751 1 5108 5109 5110
5752 1 5109 5110 5111
5753 1 5110 5111 5112
5754 1 5111 5112 5113
5755 1 5112 5113 5114
5756 1 5113 5114 5115
5757 1 5114 5115 5116
5758 1 5115 5116 108
5759 1 5115 5116 5117
5760 1 108 5116 5117
5761 1 5116 5117 5118
5762 1 5117 5118 5119
5763 1 5118 5119 5120
5764 1 5119 5120 5121
5765 1 5123 5122 107
5766 1 5122 5123 5124
5767 1 5123 5124 5125
5768 1 5124 5125 5126
5769 1 5125 5126 5127
5770 1 5126 5127 5128
5771 1 5127 5128 5129
5772 1 5128 5129 5130
5773 1 5129 5130 5131
5774 1 5129 5130 5142
5775 1 5131 5130 5142
5776 1 5130 5131 5132
5777 1 5131 5132 5133
5778 1 5132 5133 5134
5779 1 5133 5134 5135
5780 1 5134 5135 5136
5781 1 5135 5136 5137
5782 1 5136 5137 5138
5783 1 5137 5138 5139
5784 1 5138 5139 5140
5785 1 5139 5140 5141
5786 1 5140 5141 112
5787 1 5130 5142 5143
5788 1 5142 5143 5144
5789 1 5143 5144 5145
5790 1 5144 5145 5146
5791 1 5148 5147 108
5792 1 5147 5148 5149
5793 1 5148 5149 5150
5794 1 5149 5150 5151
5795 1 5150 5151 5152
5796 1 5151 5152 5153
5797 1 5152 5153 5154
5798 1 5153 5154 5155
5799 1 5154 5155 5156
5800 1 5154 5155 5167
5801 1 5156 5155 5167
5802 1 5155 5156 5157
5803 1 5156 5157 5158
5804 1 5157 5158 5159
5805 1 5158 5159 5160
5806 1 5159 5160 5161
5807 1 5160 5161 5162
5808 1 5161 5162 5163
5809 1 5162 5163 5164
5810 1 5163 5164 5165
5811 1 5164 5165 5166
5812 1 5164 5165 5172
5813 1 5166 5165 5172
5814 1 5165 5166 109
5815 1 5155 5167 5168
5816 1 5167 5168 5169
5817 1 5168 5169 5170
5818 1 5169 5170 5171
5819 1 5165 5172 5173
5820 1 5172 5173 5174
5821 1 5173 5174 5175
5822 1 5174 5175 5176
5823 1 5178 5177 109
5824 1 5177 5178 5179
5825 1 5178 5179 5180
5826 1 5179 5180 5181
5827 1 5180 5181 5182
5828 1 5181 5182 5183
5829 1 5182 5183 5184
5830 1 5183 5184 5185
5831 1 5184 5185 5186
5832 1 5185 5186 5187
5833 1 5186 5187 5188
5834 1 5187 5188 5189
5835 1 5188 5189 5190
5836 1 5189 5190 5191
5837 1 5190 5191 5192
5838 1 5191 5192 5193
5839 1 5192 5193 5194
5840 1 5193 5194 5195
5841 1 5194 5195 5196
5842 1 5195 5196 114
5843 1 5198 5197 110
5844 1 5197 5198 5199
5845 1 5198 5199 5200
5846 1 5199 5200 5201
5847 1 5200 5201 5202
5848 1 5201 5202 5203
5849 1 5202 5203 5204
5850 1 5202 5203 5217
5851 1 5204 5203 5217
5852 1 5203 5204 5205
5853 1 5204 5205 5206
5854 1 5205 5206 5207
5855 1 5206 5207 5208
5856 1 5206 5207 5222
5857 1 5208 5207 5222
5858 1 5207 5208 5209
5859 1 5208 5209 5210
5860 1 5209 5210 5211
5861 1 5210 5211 5212
5862 1 5211 5212 5213
5863 1 5212 5213 5214
5864 1 5213 5214 5215
5865 1 5214 5215 5216
5866 1 5215 5216 111
5867 1 5203 5217 5218
5868 1 5217 5218 5219
5869 1 5218 5219 5220
5870 1 5219 5220 5221
5871 1 5207 5222 5223
5872 1 5222 5223 5224
5873 1 5223 5224 5225
5874 1 5224 5225 5226
5875 1 5228 5227 110
5876 1 5227 5228 5229
5877 1 5228 5229 5230
5878 1 5229 5230 5231
5879 1 5230 5231 5232
5880 1 5231 5232 5233
5881 1 5232 5233 5234
5882 1 5233 5234 5235
5883 1 5234 5235 5236
5884 1 5235 5236 5237
5885 1 5236 5237 5238
5886 1 5237 5238 5239
5887 1 5238 5239 5240
5888 1 5239 5240 5241
5889 1 5240 5241 5242
5890 1 5241 5242 5243
5891 1 5241 5242 5247
5892 1 5243 5242 5247
5893 1 5242 5243 5244
5894 1 5243 5244 5245
5895 1 5244 5245 5246
5896 1 5245 5246 115
5897 1 5242 5247 5248
5898 1 5247 5248 5249
5899 1 5248 5249 5250
5900 1 5249 5250 5251
5901 1 5253 5252 111
5902 1 5252 5253 5254
5903 1 5253 5254 5255
5904 1 5254 5255 5256
5905 1 5255 5256 5257
5906 1 5256 5257 5258
5907 1 5257 5258 5259
5908 1 5258 5259 5260
5909 1 5259 5260 5261
5910 1 5260 5261 5262
5911 1 5261 5262 5263
5912 1 5262 5263 5264
5913 1 5263 5264 5265
5914 1 5264 5265 5266
5915 1 5265 5266 5267
5916 1 5266 5267 5268
5917 1 5267 5268 5269
5918 1 5268 5269 5270
5919 1 5269 5270 5271
5920 1 5270 5271 116
5921 1 5273 5272 113
5922 1 5272 5273 5274
5923 1 5272 5273 5292
5924 1 5274 5273 5292
5925 1 5273 5274 5275
5926 1 5274 5275 5276
5927 1 5275 5276 5277
5928 1 5276 5277 5278
5929 1 5277 5278 5279
5930 1 5278 5279 5280
5931 1 5279 5280 5281
5932 1 5280 5281 5282
5933 1 5281 5282 5283
5934 1 5282 5283 5284
5935 1 5283 5284 5285
5936 1 5284 5285 5286
5937 1 5285 5286 5287
5938 1 5286 5287 5288
5939 1 5287 5288 5289
5940 1 5288 5289 5290
5941 1 5289 5290 5291
5942 1 5290 5291 114
5943 1 5273 5292 5293
5944 1 5292 5293 5294
5945 1 5293 5294 5295
5946 1 5294 5295 5296
5947 1 5298 5297 113
5948 1 5297 5298 5299
5949 1 5298 5299 5300
5950 1 5299 5300 5301
5951 1 5300 5301 5302
5952 1 5301 5302 5303
5953 1 5302 5303 5304
5954 1 5303 5304 5305
5955 1 5304 5305 5306
5956 1 5305 5306 5307
5957 1 5306 5307 5308
5958 1 5307 5308 5309
5959 1 5308 5309 5310
5960 1 5309 5310 5311
5961 1 5310 5311 5312
5962 1 5311 5312 5313
5963 1 5312 5313 5314
5964 1 5313 5314 5315
5965 1 5314 5315 5316
5966 1 5315 5316 118
5967 1 5318 5317 114
5968 1 5317 5318 5319
5969 1 5318 5319 5320
5970 1 5319 5320 5321
5971 1 5320 5321 5322
5972 1 5321 5322 5323
5973 1 5322 5323 5324
5974 1 5323 5324 5325
5975 1 5324 5325 5326
5976 1 5325 5326 5327
5977 1 5326 5327 5328
5978 1 5327 5328 5329
5979 1 5328 5329 5330
5980 1 5329 5330 5331
5981 1 5330 5331 5332
5982 1 5331 5332 5333
5983 1 5332 5333 5334
5984 1 5333 5334 5335
5985 1 5334 5335 5336
5986 1 5335 5336 119
5987 1 5338 5337 115
5988 1 5337 5338 5339
5989 1 5338 5339 5340
5990 1 5339 5340 5341
5991 1 5340 5341 5342
5992 1 5341 5342 5343
5993 1 5341 5342 5357
5994 1 5343 5342 5357
5995 1 5342 5343 5344
5996 1 5343 5344 5345
5997 1 5344 5345 5346
5998 1 5345 5346 5347
5999 1 5346 5347 5348
6000 1 5347 5348 5349
6001 1 5348 5349 5350
6002 1 5349 5350 5351
6003 1 5350 5351 5352
6004 1 5351 5352 5353
6005 1 5352 5353 5354
6006 1 5353 5354 5355
6007 1 5354 5355 5356
6008 1 5355 5356 120
6009 1 5342 5357 5358
6010 1 5357 5358 5359
6011 1 5358 5359 5360
6012 1 5359 5360 5361
6013 1 5363 5362 117
6014 1 5362 5363 5364
6015 1 5363 5364 5365
6016 1 5364 5365 5366
6017 1 5365 5366 5367
6018 1 5365 5366 5382
6019 1 5367 5366 5382
6020 1 5366 5367 5368
6021 1 5367 5368 5369
6022 1 5368 5369 5370
6023 1 5369 5370 5371
6024 1 5370 5371 5372
6025 1 5371 5372 5373
6026 1 5371 5372 5387
6027 1 5373 5372 5387
6028 1 5372 5373 5374
6029 1 5373 5374 5375
6030 1 5374 5375 5376
6031 1 5375 5376 5377
6032 1 5376 5377 5378
6033 1 5377 5378 5379
6034 1 5378 5379 5380
6035 1 5379 5380 5381
6036 1 5380 5381 118
6037 1 5366 5382 5383
6038 1 5382 5383 5384
6039 1 5383 5384 5385
6040 1 5384 5385 5386
6041 1 5372 5387 5388
6042 1 5387 5388 5389
6043 1 5388 5389 5390
6044 1 5389 5390 5391
6045 1 5393 5392 119
6046 1 5392 5393 5394
6047 1 5393 5394 5395
6048 1 5394 5395 5396
6049 1 5395 5396 5397
6050 1 5396 5397 5398
6051 1 5397 5398 5399
6052 1 5398 5399 5400
6053 1 5399 5400 5401
6054 1 5400 5401 5402
6055 1 5401 5402 5403
6056 1 5402 5403 5404
6057 1 5403 5404 5405
6058 1 5404 5405 5406
6059 1 5405 5406 5407
6060 1 5406 5407 5408
6061 1 5407 5408 5409
6062 1 5407 5408 5412
6063 1 5409 5408 5412
6064 1 5408 5409 5410
6065 1 5409 5410 5411
6066 1 5410 5411 120
6067 1 5408 5412 5413
6068 1 5412 5413 5414
6069 1 5413 5414 5415
6070 1 5414 5415 5416
6071 1 5418 5417 120
6072 1 5417 5418 5419
6073 1 5418 5419 5420
6074 1 5418 5419 5437
6075 1 5420 5419 5437
6076 1 5419 5420 5421
6077 1 5420 5421 5422
6078 1 5421 5422 5423
6079 1 5422 5423 5424
6080 1 5423 5424 5425
6081 1 5424 5425 5426
6082 1 5425 5426 5427
6083 1 5426 5427 5428
6084 1 5426 5427 5442
6085 1 5428 5427 5442
6086 1 5427 5428 5429
6087 1 5428 5429 5430
6088 1 5429 5430 5431
6089 1 5430 5431 5432
6090 1 5431 5432 5433
6091 1 5432 5433 5434
6092 1 5433 5434 5435
6093 1 5434 5435 5436
6094 1 5435 5436 121
6095 1 5419 5437 5438
6096 1 5437 5438 5439
6097 1 5438 5439 5440
6098 1 5439 5440 5441
6099 1 5427 5442 5443
6100 1 5442 5443 5444
6101 1 5443 5444 5445
6102 1 5444 5445 5446
