LAMMPS data file (Kremer-Grest CG)

8684 atoms
8773 bonds
10002 angles

2 atom types
1 bond types
1 angle types

-50.0000 50.0000 xlo xhi
-50.0000 50.0000 ylo yhi
-50.0000 50.0000 zlo zhi

Masses

1 1.0 # A
2 1.0 # B

Pair Coeffs

1 1.0 1.0 2.5
2 1.0 1.0 2.5

Bond Coeffs

1 466.1 0.97

Angle Coeffs

1 466.1 180.0

Atoms # full

1 1 1 0.0 0.0 0.0 0.0
2 1 1 0.0 0.0 0.0 0.0
3 1 1 0.0 0.0 0.0 0.0
4 1 1 0.0 0.0 0.0 0.0
5 1 1 0.0 0.0 0.0 0.0
6 1 1 0.0 0.0 0.0 0.0
7 1 1 0.0 0.0 0.0 0.0
8 1 1 0.0 0.0 0.0 0.0
9 1 1 0.0 0.0 0.0 0.0
10 1 1 0.0 0.0 0.0 0.0
11 1 1 0.0 0.0 0.0 0.0
12 1 1 0.0 0.0 0.0 0.0
13 1 1 0.0 0.0 0.0 0.0
14 1 1 0.0 0.0 0.0 0.0
15 1 1 0.0 0.0 0.0 0.0
16 1 1 0.0 0.0 0.0 0.0
17 1 1 0.0 0.0 0.0 0.0
18 1 1 0.0 0.0 0.0 0.0
19 1 1 0.0 0.0 0.0 0.0
20 1 1 0.0 0.0 0.0 0.0
21 1 1 0.0 0.0 0.0 0.0
22 1 1 0.0 0.0 0.0 0.0
23 1 1 0.0 0.0 0.0 0.0
24 1 1 0.0 0.0 0.0 0.0
25 1 1 0.0 0.0 0.0 0.0
26 1 1 0.0 0.0 0.0 0.0
27 1 1 0.0 0.0 0.0 0.0
28 1 1 0.0 0.0 0.0 0.0
29 1 1 0.0 0.0 0.0 0.0
30 1 1 0.0 0.0 0.0 0.0
31 1 1 0.0 0.0 0.0 0.0
32 1 1 0.0 0.0 0.0 0.0
33 1 1 0.0 0.0 0.0 0.0
34 1 1 0.0 0.0 0.0 0.0
35 1 1 0.0 0.0 0.0 0.0
36 1 1 0.0 0.0 0.0 0.0
37 1 1 0.0 0.0 0.0 0.0
38 1 1 0.0 0.0 0.0 0.0
39 1 1 0.0 0.0 0.0 0.0
40 1 1 0.0 0.0 0.0 0.0
41 1 1 0.0 0.0 0.0 0.0
42 1 1 0.0 0.0 0.0 0.0
43 1 1 0.0 0.0 0.0 0.0
44 1 1 0.0 0.0 0.0 0.0
45 1 1 0.0 0.0 0.0 0.0
46 1 1 0.0 0.0 0.0 0.0
47 1 1 0.0 0.0 0.0 0.0
48 1 1 0.0 0.0 0.0 0.0
49 1 1 0.0 0.0 0.0 0.0
50 1 1 0.0 0.0 0.0 0.0
51 1 1 0.0 0.0 0.0 0.0
52 1 1 0.0 0.0 0.0 0.0
53 1 1 0.0 0.0 0.0 0.0
54 1 1 0.0 0.0 0.0 0.0
55 1 1 0.0 0.0 0.0 0.0
56 1 1 0.0 0.0 0.0 0.0
57 1 1 0.0 0.0 0.0 0.0
58 1 1 0.0 0.0 0.0 0.0
59 1 1 0.0 0.0 0.0 0.0
60 1 1 0.0 0.0 0.0 0.0
61 1 1 0.0 0.0 0.0 0.0
62 1 1 0.0 0.0 0.0 0.0
63 1 1 0.0 0.0 0.0 0.0
64 1 1 0.0 0.0 0.0 0.0
65 1 1 0.0 0.0 0.0 0.0
66 1 1 0.0 0.0 0.0 0.0
67 1 1 0.0 0.0 0.0 0.0
68 1 1 0.0 0.0 0.0 0.0
69 1 1 0.0 0.0 0.0 0.0
70 1 1 0.0 0.0 0.0 0.0
71 1 1 0.0 0.0 0.0 0.0
72 1 1 0.0 0.0 0.0 0.0
73 1 1 0.0 0.0 0.0 0.0
74 1 1 0.0 0.0 0.0 0.0
75 1 1 0.0 0.0 0.0 0.0
76 1 1 0.0 0.0 0.0 0.0
77 1 1 0.0 0.0 0.0 0.0
78 1 1 0.0 0.0 0.0 0.0
79 1 1 0.0 0.0 0.0 0.0
80 1 1 0.0 0.0 0.0 0.0
81 1 1 0.0 0.0 0.0 0.0
82 1 1 0.0 0.0 0.0 0.0
83 1 1 0.0 0.0 0.0 0.0
84 1 1 0.0 0.0 0.0 0.0
85 1 1 0.0 0.0 0.0 0.0
86 1 1 0.0 0.0 0.0 0.0
87 1 1 0.0 0.0 0.0 0.0
88 1 1 0.0 0.0 0.0 0.0
89 1 1 0.0 0.0 0.0 0.0
90 1 1 0.0 0.0 0.0 0.0
91 1 1 0.0 0.0 0.0 0.0
92 1 1 0.0 0.0 0.0 0.0
93 1 1 0.0 0.0 0.0 0.0
94 1 1 0.0 0.0 0.0 0.0
95 1 1 0.0 0.0 0.0 0.0
96 1 1 0.0 0.0 0.0 0.0
97 1 1 0.0 0.0 0.0 0.0
98 1 1 0.0 0.0 0.0 0.0
99 1 1 0.0 0.0 0.0 0.0
100 1 1 0.0 0.0 0.0 0.0
101 1 1 0.0 0.0 0.0 0.0
102 1 1 0.0 0.0 0.0 0.0
103 1 1 0.0 0.0 0.0 0.0
104 1 1 0.0 0.0 0.0 0.0
105 1 1 0.0 0.0 0.0 0.0
106 1 1 0.0 0.0 0.0 0.0
107 1 1 0.0 0.0 0.0 0.0
108 1 1 0.0 0.0 0.0 0.0
109 1 1 0.0 0.0 0.0 0.0
110 1 1 0.0 0.0 0.0 0.0
111 1 1 0.0 0.0 0.0 0.0
112 1 1 0.0 0.0 0.0 0.0
113 1 1 0.0 0.0 0.0 0.0
114 1 1 0.0 0.0 0.0 0.0
115 1 1 0.0 0.0 0.0 0.0
116 1 1 0.0 0.0 0.0 0.0
117 1 1 0.0 0.0 0.0 0.0
118 1 1 0.0 0.0 0.0 0.0
119 1 1 0.0 0.0 0.0 0.0
120 1 1 0.0 0.0 0.0 0.0
121 1 1 0.0 0.0 0.0 0.0
122 1 1 0.0 0.0 0.0 0.0
123 1 1 0.0 0.0 0.0 0.0
124 1 1 0.0 0.0 0.0 0.0
125 1 1 0.0 0.0 0.0 0.0
126 1 1 0.0 0.0 0.0 0.0
127 1 1 0.0 0.0 0.0 0.0
128 1 1 0.0 0.0 0.0 0.0
129 1 1 0.0 0.0 0.0 0.0
130 1 1 0.0 0.0 0.0 0.0
131 1 1 0.0 0.0 0.0 0.0
132 1 1 0.0 0.0 0.0 0.0
133 1 1 0.0 0.0 0.0 0.0
134 1 1 0.0 0.0 0.0 0.0
135 1 1 0.0 0.0 0.0 0.0
136 1 1 0.0 0.0 0.0 0.0
137 1 1 0.0 0.0 0.0 0.0
138 1 1 0.0 0.0 0.0 0.0
139 1 1 0.0 0.0 0.0 0.0
140 1 2 0.0 0.0 0.0 0.0
141 1 2 0.0 0.0 0.0 0.0
142 1 2 0.0 0.0 0.0 0.0
143 1 2 0.0 0.0 0.0 0.0
144 1 2 0.0 0.0 0.0 0.0
145 1 2 0.0 0.0 0.0 0.0
146 1 2 0.0 0.0 0.0 0.0
147 1 2 0.0 0.0 0.0 0.0
148 1 2 0.0 0.0 0.0 0.0
149 1 2 0.0 0.0 0.0 0.0
150 1 2 0.0 0.0 0.0 0.0
151 1 2 0.0 0.0 0.0 0.0
152 1 2 0.0 0.0 0.0 0.0
153 1 2 0.0 0.0 0.0 0.0
154 1 2 0.0 0.0 0.0 0.0
155 1 2 0.0 0.0 0.0 0.0
156 1 2 0.0 0.0 0.0 0.0
157 1 2 0.0 0.0 0.0 0.0
158 1 2 0.0 0.0 0.0 0.0
159 1 2 0.0 0.0 0.0 0.0
160 1 2 0.0 0.0 0.0 0.0
161 1 2 0.0 0.0 0.0 0.0
162 1 2 0.0 0.0 0.0 0.0
163 1 2 0.0 0.0 0.0 0.0
164 1 2 0.0 0.0 0.0 0.0
165 1 2 0.0 0.0 0.0 0.0
166 1 2 0.0 0.0 0.0 0.0
167 1 2 0.0 0.0 0.0 0.0
168 1 2 0.0 0.0 0.0 0.0
169 1 2 0.0 0.0 0.0 0.0
170 1 2 0.0 0.0 0.0 0.0
171 1 2 0.0 0.0 0.0 0.0
172 1 2 0.0 0.0 0.0 0.0
173 1 2 0.0 0.0 0.0 0.0
174 1 2 0.0 0.0 0.0 0.0
175 1 2 0.0 0.0 0.0 0.0
176 1 2 0.0 0.0 0.0 0.0
177 1 2 0.0 0.0 0.0 0.0
178 1 2 0.0 0.0 0.0 0.0
179 1 2 0.0 0.0 0.0 0.0
180 1 2 0.0 0.0 0.0 0.0
181 1 2 0.0 0.0 0.0 0.0
182 1 2 0.0 0.0 0.0 0.0
183 1 2 0.0 0.0 0.0 0.0
184 1 2 0.0 0.0 0.0 0.0
185 1 2 0.0 0.0 0.0 0.0
186 1 2 0.0 0.0 0.0 0.0
187 1 2 0.0 0.0 0.0 0.0
188 1 2 0.0 0.0 0.0 0.0
189 1 2 0.0 0.0 0.0 0.0
190 1 2 0.0 0.0 0.0 0.0
191 1 2 0.0 0.0 0.0 0.0
192 1 2 0.0 0.0 0.0 0.0
193 1 2 0.0 0.0 0.0 0.0
194 1 2 0.0 0.0 0.0 0.0
195 1 2 0.0 0.0 0.0 0.0
196 1 2 0.0 0.0 0.0 0.0
197 1 2 0.0 0.0 0.0 0.0
198 1 2 0.0 0.0 0.0 0.0
199 1 2 0.0 0.0 0.0 0.0
200 1 2 0.0 0.0 0.0 0.0
201 1 2 0.0 0.0 0.0 0.0
202 1 2 0.0 0.0 0.0 0.0
203 1 2 0.0 0.0 0.0 0.0
204 1 2 0.0 0.0 0.0 0.0
205 1 2 0.0 0.0 0.0 0.0
206 1 2 0.0 0.0 0.0 0.0
207 1 2 0.0 0.0 0.0 0.0
208 1 2 0.0 0.0 0.0 0.0
209 1 2 0.0 0.0 0.0 0.0
210 1 2 0.0 0.0 0.0 0.0
211 1 2 0.0 0.0 0.0 0.0
212 1 2 0.0 0.0 0.0 0.0
213 1 2 0.0 0.0 0.0 0.0
214 1 2 0.0 0.0 0.0 0.0
215 1 2 0.0 0.0 0.0 0.0
216 1 2 0.0 0.0 0.0 0.0
217 1 2 0.0 0.0 0.0 0.0
218 1 2 0.0 0.0 0.0 0.0
219 1 2 0.0 0.0 0.0 0.0
220 1 2 0.0 0.0 0.0 0.0
221 1 2 0.0 0.0 0.0 0.0
222 1 2 0.0 0.0 0.0 0.0
223 1 2 0.0 0.0 0.0 0.0
224 1 2 0.0 0.0 0.0 0.0
225 1 2 0.0 0.0 0.0 0.0
226 1 2 0.0 0.0 0.0 0.0
227 1 2 0.0 0.0 0.0 0.0
228 1 2 0.0 0.0 0.0 0.0
229 1 2 0.0 0.0 0.0 0.0
230 1 2 0.0 0.0 0.0 0.0
231 1 2 0.0 0.0 0.0 0.0
232 1 2 0.0 0.0 0.0 0.0
233 1 2 0.0 0.0 0.0 0.0
234 1 2 0.0 0.0 0.0 0.0
235 1 2 0.0 0.0 0.0 0.0
236 1 2 0.0 0.0 0.0 0.0
237 1 2 0.0 0.0 0.0 0.0
238 1 2 0.0 0.0 0.0 0.0
239 1 2 0.0 0.0 0.0 0.0
240 1 2 0.0 0.0 0.0 0.0
241 1 2 0.0 0.0 0.0 0.0
242 1 2 0.0 0.0 0.0 0.0
243 1 2 0.0 0.0 0.0 0.0
244 1 2 0.0 0.0 0.0 0.0
245 1 2 0.0 0.0 0.0 0.0
246 1 2 0.0 0.0 0.0 0.0
247 1 2 0.0 0.0 0.0 0.0
248 1 2 0.0 0.0 0.0 0.0
249 1 2 0.0 0.0 0.0 0.0
250 1 2 0.0 0.0 0.0 0.0
251 1 2 0.0 0.0 0.0 0.0
252 1 2 0.0 0.0 0.0 0.0
253 1 2 0.0 0.0 0.0 0.0
254 1 2 0.0 0.0 0.0 0.0
255 1 2 0.0 0.0 0.0 0.0
256 1 2 0.0 0.0 0.0 0.0
257 1 2 0.0 0.0 0.0 0.0
258 1 2 0.0 0.0 0.0 0.0
259 1 2 0.0 0.0 0.0 0.0
260 1 2 0.0 0.0 0.0 0.0
261 1 2 0.0 0.0 0.0 0.0
262 1 2 0.0 0.0 0.0 0.0
263 1 2 0.0 0.0 0.0 0.0
264 1 2 0.0 0.0 0.0 0.0
265 1 2 0.0 0.0 0.0 0.0
266 1 2 0.0 0.0 0.0 0.0
267 1 2 0.0 0.0 0.0 0.0
268 1 2 0.0 0.0 0.0 0.0
269 1 2 0.0 0.0 0.0 0.0
270 1 2 0.0 0.0 0.0 0.0
271 1 2 0.0 0.0 0.0 0.0
272 1 2 0.0 0.0 0.0 0.0
273 1 2 0.0 0.0 0.0 0.0
274 1 2 0.0 0.0 0.0 0.0
275 1 2 0.0 0.0 0.0 0.0
276 1 2 0.0 0.0 0.0 0.0
277 1 2 0.0 0.0 0.0 0.0
278 1 2 0.0 0.0 0.0 0.0
279 1 2 0.0 0.0 0.0 0.0
280 1 2 0.0 0.0 0.0 0.0
281 1 2 0.0 0.0 0.0 0.0
282 1 2 0.0 0.0 0.0 0.0
283 1 2 0.0 0.0 0.0 0.0
284 1 2 0.0 0.0 0.0 0.0
285 1 2 0.0 0.0 0.0 0.0
286 1 2 0.0 0.0 0.0 0.0
287 1 2 0.0 0.0 0.0 0.0
288 1 2 0.0 0.0 0.0 0.0
289 1 2 0.0 0.0 0.0 0.0
290 1 2 0.0 0.0 0.0 0.0
291 1 2 0.0 0.0 0.0 0.0
292 1 2 0.0 0.0 0.0 0.0
293 1 2 0.0 0.0 0.0 0.0
294 1 2 0.0 0.0 0.0 0.0
295 1 2 0.0 0.0 0.0 0.0
296 1 2 0.0 0.0 0.0 0.0
297 1 2 0.0 0.0 0.0 0.0
298 1 2 0.0 0.0 0.0 0.0
299 1 2 0.0 0.0 0.0 0.0
300 1 2 0.0 0.0 0.0 0.0
301 1 2 0.0 0.0 0.0 0.0
302 1 2 0.0 0.0 0.0 0.0
303 1 2 0.0 0.0 0.0 0.0
304 1 2 0.0 0.0 0.0 0.0
305 1 2 0.0 0.0 0.0 0.0
306 1 2 0.0 0.0 0.0 0.0
307 1 2 0.0 0.0 0.0 0.0
308 1 2 0.0 0.0 0.0 0.0
309 1 2 0.0 0.0 0.0 0.0
310 1 2 0.0 0.0 0.0 0.0
311 1 2 0.0 0.0 0.0 0.0
312 1 2 0.0 0.0 0.0 0.0
313 1 2 0.0 0.0 0.0 0.0
314 1 2 0.0 0.0 0.0 0.0
315 1 2 0.0 0.0 0.0 0.0
316 1 2 0.0 0.0 0.0 0.0
317 1 2 0.0 0.0 0.0 0.0
318 1 2 0.0 0.0 0.0 0.0
319 1 2 0.0 0.0 0.0 0.0
320 1 2 0.0 0.0 0.0 0.0
321 1 2 0.0 0.0 0.0 0.0
322 1 2 0.0 0.0 0.0 0.0
323 1 2 0.0 0.0 0.0 0.0
324 1 2 0.0 0.0 0.0 0.0
325 1 2 0.0 0.0 0.0 0.0
326 1 2 0.0 0.0 0.0 0.0
327 1 2 0.0 0.0 0.0 0.0
328 1 2 0.0 0.0 0.0 0.0
329 1 2 0.0 0.0 0.0 0.0
330 1 2 0.0 0.0 0.0 0.0
331 1 2 0.0 0.0 0.0 0.0
332 1 2 0.0 0.0 0.0 0.0
333 1 2 0.0 0.0 0.0 0.0
334 1 2 0.0 0.0 0.0 0.0
335 1 2 0.0 0.0 0.0 0.0
336 1 2 0.0 0.0 0.0 0.0
337 1 2 0.0 0.0 0.0 0.0
338 1 2 0.0 0.0 0.0 0.0
339 1 2 0.0 0.0 0.0 0.0
340 1 2 0.0 0.0 0.0 0.0
341 1 2 0.0 0.0 0.0 0.0
342 1 2 0.0 0.0 0.0 0.0
343 1 2 0.0 0.0 0.0 0.0
344 1 2 0.0 0.0 0.0 0.0
345 1 2 0.0 0.0 0.0 0.0
346 1 2 0.0 0.0 0.0 0.0
347 1 2 0.0 0.0 0.0 0.0
348 1 2 0.0 0.0 0.0 0.0
349 1 2 0.0 0.0 0.0 0.0
350 1 2 0.0 0.0 0.0 0.0
351 1 2 0.0 0.0 0.0 0.0
352 1 2 0.0 0.0 0.0 0.0
353 1 2 0.0 0.0 0.0 0.0
354 1 2 0.0 0.0 0.0 0.0
355 1 2 0.0 0.0 0.0 0.0
356 1 2 0.0 0.0 0.0 0.0
357 1 2 0.0 0.0 0.0 0.0
358 1 2 0.0 0.0 0.0 0.0
359 1 2 0.0 0.0 0.0 0.0
360 1 2 0.0 0.0 0.0 0.0
361 1 2 0.0 0.0 0.0 0.0
362 1 2 0.0 0.0 0.0 0.0
363 1 2 0.0 0.0 0.0 0.0
364 1 2 0.0 0.0 0.0 0.0
365 1 2 0.0 0.0 0.0 0.0
366 1 2 0.0 0.0 0.0 0.0
367 1 2 0.0 0.0 0.0 0.0
368 1 2 0.0 0.0 0.0 0.0
369 1 2 0.0 0.0 0.0 0.0
370 1 2 0.0 0.0 0.0 0.0
371 1 2 0.0 0.0 0.0 0.0
372 1 2 0.0 0.0 0.0 0.0
373 1 2 0.0 0.0 0.0 0.0
374 1 2 0.0 0.0 0.0 0.0
375 1 2 0.0 0.0 0.0 0.0
376 1 2 0.0 0.0 0.0 0.0
377 1 2 0.0 0.0 0.0 0.0
378 1 2 0.0 0.0 0.0 0.0
379 1 2 0.0 0.0 0.0 0.0
380 1 2 0.0 0.0 0.0 0.0
381 1 2 0.0 0.0 0.0 0.0
382 1 2 0.0 0.0 0.0 0.0
383 1 2 0.0 0.0 0.0 0.0
384 1 2 0.0 0.0 0.0 0.0
385 1 2 0.0 0.0 0.0 0.0
386 1 2 0.0 0.0 0.0 0.0
387 1 2 0.0 0.0 0.0 0.0
388 1 2 0.0 0.0 0.0 0.0
389 1 2 0.0 0.0 0.0 0.0
390 1 2 0.0 0.0 0.0 0.0
391 1 2 0.0 0.0 0.0 0.0
392 1 2 0.0 0.0 0.0 0.0
393 1 2 0.0 0.0 0.0 0.0
394 1 2 0.0 0.0 0.0 0.0
395 1 2 0.0 0.0 0.0 0.0
396 1 2 0.0 0.0 0.0 0.0
397 1 2 0.0 0.0 0.0 0.0
398 1 2 0.0 0.0 0.0 0.0
399 1 2 0.0 0.0 0.0 0.0
400 1 2 0.0 0.0 0.0 0.0
401 1 2 0.0 0.0 0.0 0.0
402 1 2 0.0 0.0 0.0 0.0
403 1 2 0.0 0.0 0.0 0.0
404 1 2 0.0 0.0 0.0 0.0
405 1 2 0.0 0.0 0.0 0.0
406 1 2 0.0 0.0 0.0 0.0
407 1 2 0.0 0.0 0.0 0.0
408 1 2 0.0 0.0 0.0 0.0
409 1 2 0.0 0.0 0.0 0.0
410 1 2 0.0 0.0 0.0 0.0
411 1 2 0.0 0.0 0.0 0.0
412 1 2 0.0 0.0 0.0 0.0
413 1 2 0.0 0.0 0.0 0.0
414 1 2 0.0 0.0 0.0 0.0
415 1 2 0.0 0.0 0.0 0.0
416 1 2 0.0 0.0 0.0 0.0
417 1 2 0.0 0.0 0.0 0.0
418 1 2 0.0 0.0 0.0 0.0
419 1 2 0.0 0.0 0.0 0.0
420 1 2 0.0 0.0 0.0 0.0
421 1 2 0.0 0.0 0.0 0.0
422 1 2 0.0 0.0 0.0 0.0
423 1 2 0.0 0.0 0.0 0.0
424 1 2 0.0 0.0 0.0 0.0
425 1 2 0.0 0.0 0.0 0.0
426 1 2 0.0 0.0 0.0 0.0
427 1 2 0.0 0.0 0.0 0.0
428 1 2 0.0 0.0 0.0 0.0
429 1 2 0.0 0.0 0.0 0.0
430 1 2 0.0 0.0 0.0 0.0
431 1 2 0.0 0.0 0.0 0.0
432 1 2 0.0 0.0 0.0 0.0
433 1 2 0.0 0.0 0.0 0.0
434 1 2 0.0 0.0 0.0 0.0
435 1 2 0.0 0.0 0.0 0.0
436 1 2 0.0 0.0 0.0 0.0
437 1 2 0.0 0.0 0.0 0.0
438 1 2 0.0 0.0 0.0 0.0
439 1 2 0.0 0.0 0.0 0.0
440 1 2 0.0 0.0 0.0 0.0
441 1 2 0.0 0.0 0.0 0.0
442 1 2 0.0 0.0 0.0 0.0
443 1 2 0.0 0.0 0.0 0.0
444 1 2 0.0 0.0 0.0 0.0
445 1 2 0.0 0.0 0.0 0.0
446 1 2 0.0 0.0 0.0 0.0
447 1 2 0.0 0.0 0.0 0.0
448 1 2 0.0 0.0 0.0 0.0
449 1 2 0.0 0.0 0.0 0.0
450 1 2 0.0 0.0 0.0 0.0
451 1 2 0.0 0.0 0.0 0.0
452 1 2 0.0 0.0 0.0 0.0
453 1 2 0.0 0.0 0.0 0.0
454 1 2 0.0 0.0 0.0 0.0
455 1 2 0.0 0.0 0.0 0.0
456 1 2 0.0 0.0 0.0 0.0
457 1 2 0.0 0.0 0.0 0.0
458 1 2 0.0 0.0 0.0 0.0
459 1 2 0.0 0.0 0.0 0.0
460 1 2 0.0 0.0 0.0 0.0
461 1 2 0.0 0.0 0.0 0.0
462 1 2 0.0 0.0 0.0 0.0
463 1 2 0.0 0.0 0.0 0.0
464 1 2 0.0 0.0 0.0 0.0
465 1 2 0.0 0.0 0.0 0.0
466 1 2 0.0 0.0 0.0 0.0
467 1 2 0.0 0.0 0.0 0.0
468 1 2 0.0 0.0 0.0 0.0
469 1 2 0.0 0.0 0.0 0.0
470 1 2 0.0 0.0 0.0 0.0
471 1 2 0.0 0.0 0.0 0.0
472 1 2 0.0 0.0 0.0 0.0
473 1 2 0.0 0.0 0.0 0.0
474 1 2 0.0 0.0 0.0 0.0
475 1 2 0.0 0.0 0.0 0.0
476 1 2 0.0 0.0 0.0 0.0
477 1 2 0.0 0.0 0.0 0.0
478 1 2 0.0 0.0 0.0 0.0
479 1 2 0.0 0.0 0.0 0.0
480 1 2 0.0 0.0 0.0 0.0
481 1 2 0.0 0.0 0.0 0.0
482 1 2 0.0 0.0 0.0 0.0
483 1 2 0.0 0.0 0.0 0.0
484 1 2 0.0 0.0 0.0 0.0
485 1 2 0.0 0.0 0.0 0.0
486 1 2 0.0 0.0 0.0 0.0
487 1 2 0.0 0.0 0.0 0.0
488 1 2 0.0 0.0 0.0 0.0
489 1 2 0.0 0.0 0.0 0.0
490 1 2 0.0 0.0 0.0 0.0
491 1 2 0.0 0.0 0.0 0.0
492 1 2 0.0 0.0 0.0 0.0
493 1 2 0.0 0.0 0.0 0.0
494 1 2 0.0 0.0 0.0 0.0
495 1 2 0.0 0.0 0.0 0.0
496 1 2 0.0 0.0 0.0 0.0
497 1 2 0.0 0.0 0.0 0.0
498 1 2 0.0 0.0 0.0 0.0
499 1 2 0.0 0.0 0.0 0.0
500 1 2 0.0 0.0 0.0 0.0
501 1 2 0.0 0.0 0.0 0.0
502 1 2 0.0 0.0 0.0 0.0
503 1 2 0.0 0.0 0.0 0.0
504 1 2 0.0 0.0 0.0 0.0
505 1 2 0.0 0.0 0.0 0.0
506 1 2 0.0 0.0 0.0 0.0
507 1 2 0.0 0.0 0.0 0.0
508 1 2 0.0 0.0 0.0 0.0
509 1 2 0.0 0.0 0.0 0.0
510 1 2 0.0 0.0 0.0 0.0
511 1 2 0.0 0.0 0.0 0.0
512 1 2 0.0 0.0 0.0 0.0
513 1 2 0.0 0.0 0.0 0.0
514 1 2 0.0 0.0 0.0 0.0
515 1 2 0.0 0.0 0.0 0.0
516 1 2 0.0 0.0 0.0 0.0
517 1 2 0.0 0.0 0.0 0.0
518 1 2 0.0 0.0 0.0 0.0
519 1 2 0.0 0.0 0.0 0.0
520 1 2 0.0 0.0 0.0 0.0
521 1 2 0.0 0.0 0.0 0.0
522 1 2 0.0 0.0 0.0 0.0
523 1 2 0.0 0.0 0.0 0.0
524 1 2 0.0 0.0 0.0 0.0
525 1 2 0.0 0.0 0.0 0.0
526 1 2 0.0 0.0 0.0 0.0
527 1 2 0.0 0.0 0.0 0.0
528 1 2 0.0 0.0 0.0 0.0
529 1 2 0.0 0.0 0.0 0.0
530 1 2 0.0 0.0 0.0 0.0
531 1 2 0.0 0.0 0.0 0.0
532 1 2 0.0 0.0 0.0 0.0
533 1 2 0.0 0.0 0.0 0.0
534 1 2 0.0 0.0 0.0 0.0
535 1 2 0.0 0.0 0.0 0.0
536 1 2 0.0 0.0 0.0 0.0
537 1 2 0.0 0.0 0.0 0.0
538 1 2 0.0 0.0 0.0 0.0
539 1 2 0.0 0.0 0.0 0.0
540 1 2 0.0 0.0 0.0 0.0
541 1 2 0.0 0.0 0.0 0.0
542 1 2 0.0 0.0 0.0 0.0
543 1 2 0.0 0.0 0.0 0.0
544 1 2 0.0 0.0 0.0 0.0
545 1 2 0.0 0.0 0.0 0.0
546 1 2 0.0 0.0 0.0 0.0
547 1 2 0.0 0.0 0.0 0.0
548 1 2 0.0 0.0 0.0 0.0
549 1 2 0.0 0.0 0.0 0.0
550 1 2 0.0 0.0 0.0 0.0
551 1 2 0.0 0.0 0.0 0.0
552 1 2 0.0 0.0 0.0 0.0
553 1 2 0.0 0.0 0.0 0.0
554 1 2 0.0 0.0 0.0 0.0
555 1 2 0.0 0.0 0.0 0.0
556 1 2 0.0 0.0 0.0 0.0
557 1 2 0.0 0.0 0.0 0.0
558 1 2 0.0 0.0 0.0 0.0
559 1 2 0.0 0.0 0.0 0.0
560 1 2 0.0 0.0 0.0 0.0
561 1 2 0.0 0.0 0.0 0.0
562 1 2 0.0 0.0 0.0 0.0
563 1 2 0.0 0.0 0.0 0.0
564 1 2 0.0 0.0 0.0 0.0
565 1 2 0.0 0.0 0.0 0.0
566 1 2 0.0 0.0 0.0 0.0
567 1 2 0.0 0.0 0.0 0.0
568 1 2 0.0 0.0 0.0 0.0
569 1 2 0.0 0.0 0.0 0.0
570 1 2 0.0 0.0 0.0 0.0
571 1 2 0.0 0.0 0.0 0.0
572 1 2 0.0 0.0 0.0 0.0
573 1 2 0.0 0.0 0.0 0.0
574 1 2 0.0 0.0 0.0 0.0
575 1 2 0.0 0.0 0.0 0.0
576 1 2 0.0 0.0 0.0 0.0
577 1 2 0.0 0.0 0.0 0.0
578 1 2 0.0 0.0 0.0 0.0
579 1 2 0.0 0.0 0.0 0.0
580 1 2 0.0 0.0 0.0 0.0
581 1 2 0.0 0.0 0.0 0.0
582 1 2 0.0 0.0 0.0 0.0
583 1 2 0.0 0.0 0.0 0.0
584 1 2 0.0 0.0 0.0 0.0
585 1 2 0.0 0.0 0.0 0.0
586 1 2 0.0 0.0 0.0 0.0
587 1 2 0.0 0.0 0.0 0.0
588 1 2 0.0 0.0 0.0 0.0
589 1 2 0.0 0.0 0.0 0.0
590 1 2 0.0 0.0 0.0 0.0
591 1 2 0.0 0.0 0.0 0.0
592 1 2 0.0 0.0 0.0 0.0
593 1 2 0.0 0.0 0.0 0.0
594 1 2 0.0 0.0 0.0 0.0
595 1 2 0.0 0.0 0.0 0.0
596 1 2 0.0 0.0 0.0 0.0
597 1 2 0.0 0.0 0.0 0.0
598 1 2 0.0 0.0 0.0 0.0
599 1 2 0.0 0.0 0.0 0.0
600 1 2 0.0 0.0 0.0 0.0
601 1 2 0.0 0.0 0.0 0.0
602 1 2 0.0 0.0 0.0 0.0
603 1 2 0.0 0.0 0.0 0.0
604 1 2 0.0 0.0 0.0 0.0
605 1 2 0.0 0.0 0.0 0.0
606 1 2 0.0 0.0 0.0 0.0
607 1 2 0.0 0.0 0.0 0.0
608 1 2 0.0 0.0 0.0 0.0
609 1 2 0.0 0.0 0.0 0.0
610 1 2 0.0 0.0 0.0 0.0
611 1 2 0.0 0.0 0.0 0.0
612 1 2 0.0 0.0 0.0 0.0
613 1 2 0.0 0.0 0.0 0.0
614 1 2 0.0 0.0 0.0 0.0
615 1 2 0.0 0.0 0.0 0.0
616 1 2 0.0 0.0 0.0 0.0
617 1 2 0.0 0.0 0.0 0.0
618 1 2 0.0 0.0 0.0 0.0
619 1 2 0.0 0.0 0.0 0.0
620 1 2 0.0 0.0 0.0 0.0
621 1 2 0.0 0.0 0.0 0.0
622 1 2 0.0 0.0 0.0 0.0
623 1 2 0.0 0.0 0.0 0.0
624 1 2 0.0 0.0 0.0 0.0
625 1 2 0.0 0.0 0.0 0.0
626 1 2 0.0 0.0 0.0 0.0
627 1 2 0.0 0.0 0.0 0.0
628 1 2 0.0 0.0 0.0 0.0
629 1 2 0.0 0.0 0.0 0.0
630 1 2 0.0 0.0 0.0 0.0
631 1 2 0.0 0.0 0.0 0.0
632 1 2 0.0 0.0 0.0 0.0
633 1 2 0.0 0.0 0.0 0.0
634 1 2 0.0 0.0 0.0 0.0
635 1 2 0.0 0.0 0.0 0.0
636 1 2 0.0 0.0 0.0 0.0
637 1 2 0.0 0.0 0.0 0.0
638 1 2 0.0 0.0 0.0 0.0
639 1 2 0.0 0.0 0.0 0.0
640 1 2 0.0 0.0 0.0 0.0
641 1 2 0.0 0.0 0.0 0.0
642 1 2 0.0 0.0 0.0 0.0
643 1 2 0.0 0.0 0.0 0.0
644 1 2 0.0 0.0 0.0 0.0
645 1 2 0.0 0.0 0.0 0.0
646 1 2 0.0 0.0 0.0 0.0
647 1 2 0.0 0.0 0.0 0.0
648 1 2 0.0 0.0 0.0 0.0
649 1 2 0.0 0.0 0.0 0.0
650 1 2 0.0 0.0 0.0 0.0
651 1 2 0.0 0.0 0.0 0.0
652 1 2 0.0 0.0 0.0 0.0
653 1 2 0.0 0.0 0.0 0.0
654 1 2 0.0 0.0 0.0 0.0
655 1 2 0.0 0.0 0.0 0.0
656 1 2 0.0 0.0 0.0 0.0
657 1 2 0.0 0.0 0.0 0.0
658 1 2 0.0 0.0 0.0 0.0
659 1 2 0.0 0.0 0.0 0.0
660 1 2 0.0 0.0 0.0 0.0
661 1 2 0.0 0.0 0.0 0.0
662 1 2 0.0 0.0 0.0 0.0
663 1 2 0.0 0.0 0.0 0.0
664 1 2 0.0 0.0 0.0 0.0
665 1 2 0.0 0.0 0.0 0.0
666 1 2 0.0 0.0 0.0 0.0
667 1 2 0.0 0.0 0.0 0.0
668 1 2 0.0 0.0 0.0 0.0
669 1 2 0.0 0.0 0.0 0.0
670 1 2 0.0 0.0 0.0 0.0
671 1 2 0.0 0.0 0.0 0.0
672 1 2 0.0 0.0 0.0 0.0
673 1 2 0.0 0.0 0.0 0.0
674 1 2 0.0 0.0 0.0 0.0
675 1 2 0.0 0.0 0.0 0.0
676 1 2 0.0 0.0 0.0 0.0
677 1 2 0.0 0.0 0.0 0.0
678 1 2 0.0 0.0 0.0 0.0
679 1 2 0.0 0.0 0.0 0.0
680 1 2 0.0 0.0 0.0 0.0
681 1 2 0.0 0.0 0.0 0.0
682 1 2 0.0 0.0 0.0 0.0
683 1 2 0.0 0.0 0.0 0.0
684 1 2 0.0 0.0 0.0 0.0
685 1 2 0.0 0.0 0.0 0.0
686 1 2 0.0 0.0 0.0 0.0
687 1 2 0.0 0.0 0.0 0.0
688 1 2 0.0 0.0 0.0 0.0
689 1 2 0.0 0.0 0.0 0.0
690 1 2 0.0 0.0 0.0 0.0
691 1 2 0.0 0.0 0.0 0.0
692 1 2 0.0 0.0 0.0 0.0
693 1 2 0.0 0.0 0.0 0.0
694 1 2 0.0 0.0 0.0 0.0
695 1 2 0.0 0.0 0.0 0.0
696 1 2 0.0 0.0 0.0 0.0
697 1 2 0.0 0.0 0.0 0.0
698 1 2 0.0 0.0 0.0 0.0
699 1 2 0.0 0.0 0.0 0.0
700 1 2 0.0 0.0 0.0 0.0
701 1 2 0.0 0.0 0.0 0.0
702 1 2 0.0 0.0 0.0 0.0
703 1 2 0.0 0.0 0.0 0.0
704 1 2 0.0 0.0 0.0 0.0
705 1 2 0.0 0.0 0.0 0.0
706 1 2 0.0 0.0 0.0 0.0
707 1 2 0.0 0.0 0.0 0.0
708 1 2 0.0 0.0 0.0 0.0
709 1 2 0.0 0.0 0.0 0.0
710 1 2 0.0 0.0 0.0 0.0
711 1 2 0.0 0.0 0.0 0.0
712 1 2 0.0 0.0 0.0 0.0
713 1 2 0.0 0.0 0.0 0.0
714 1 2 0.0 0.0 0.0 0.0
715 1 2 0.0 0.0 0.0 0.0
716 1 2 0.0 0.0 0.0 0.0
717 1 2 0.0 0.0 0.0 0.0
718 1 2 0.0 0.0 0.0 0.0
719 1 2 0.0 0.0 0.0 0.0
720 1 2 0.0 0.0 0.0 0.0
721 1 2 0.0 0.0 0.0 0.0
722 1 2 0.0 0.0 0.0 0.0
723 1 2 0.0 0.0 0.0 0.0
724 1 2 0.0 0.0 0.0 0.0
725 1 2 0.0 0.0 0.0 0.0
726 1 2 0.0 0.0 0.0 0.0
727 1 2 0.0 0.0 0.0 0.0
728 1 2 0.0 0.0 0.0 0.0
729 1 2 0.0 0.0 0.0 0.0
730 1 2 0.0 0.0 0.0 0.0
731 1 2 0.0 0.0 0.0 0.0
732 1 2 0.0 0.0 0.0 0.0
733 1 2 0.0 0.0 0.0 0.0
734 1 2 0.0 0.0 0.0 0.0
735 1 2 0.0 0.0 0.0 0.0
736 1 2 0.0 0.0 0.0 0.0
737 1 2 0.0 0.0 0.0 0.0
738 1 2 0.0 0.0 0.0 0.0
739 1 2 0.0 0.0 0.0 0.0
740 1 2 0.0 0.0 0.0 0.0
741 1 2 0.0 0.0 0.0 0.0
742 1 2 0.0 0.0 0.0 0.0
743 1 2 0.0 0.0 0.0 0.0
744 1 2 0.0 0.0 0.0 0.0
745 1 2 0.0 0.0 0.0 0.0
746 1 2 0.0 0.0 0.0 0.0
747 1 2 0.0 0.0 0.0 0.0
748 1 2 0.0 0.0 0.0 0.0
749 1 2 0.0 0.0 0.0 0.0
750 1 2 0.0 0.0 0.0 0.0
751 1 2 0.0 0.0 0.0 0.0
752 1 2 0.0 0.0 0.0 0.0
753 1 2 0.0 0.0 0.0 0.0
754 1 2 0.0 0.0 0.0 0.0
755 1 2 0.0 0.0 0.0 0.0
756 1 2 0.0 0.0 0.0 0.0
757 1 2 0.0 0.0 0.0 0.0
758 1 2 0.0 0.0 0.0 0.0
759 1 2 0.0 0.0 0.0 0.0
760 1 2 0.0 0.0 0.0 0.0
761 1 2 0.0 0.0 0.0 0.0
762 1 2 0.0 0.0 0.0 0.0
763 1 2 0.0 0.0 0.0 0.0
764 1 2 0.0 0.0 0.0 0.0
765 1 2 0.0 0.0 0.0 0.0
766 1 2 0.0 0.0 0.0 0.0
767 1 2 0.0 0.0 0.0 0.0
768 1 2 0.0 0.0 0.0 0.0
769 1 2 0.0 0.0 0.0 0.0
770 1 2 0.0 0.0 0.0 0.0
771 1 2 0.0 0.0 0.0 0.0
772 1 2 0.0 0.0 0.0 0.0
773 1 2 0.0 0.0 0.0 0.0
774 1 2 0.0 0.0 0.0 0.0
775 1 2 0.0 0.0 0.0 0.0
776 1 2 0.0 0.0 0.0 0.0
777 1 2 0.0 0.0 0.0 0.0
778 1 2 0.0 0.0 0.0 0.0
779 1 2 0.0 0.0 0.0 0.0
780 1 2 0.0 0.0 0.0 0.0
781 1 2 0.0 0.0 0.0 0.0
782 1 2 0.0 0.0 0.0 0.0
783 1 2 0.0 0.0 0.0 0.0
784 1 2 0.0 0.0 0.0 0.0
785 1 2 0.0 0.0 0.0 0.0
786 1 2 0.0 0.0 0.0 0.0
787 1 2 0.0 0.0 0.0 0.0
788 1 2 0.0 0.0 0.0 0.0
789 1 2 0.0 0.0 0.0 0.0
790 1 2 0.0 0.0 0.0 0.0
791 1 2 0.0 0.0 0.0 0.0
792 1 2 0.0 0.0 0.0 0.0
793 1 2 0.0 0.0 0.0 0.0
794 1 2 0.0 0.0 0.0 0.0
795 1 2 0.0 0.0 0.0 0.0
796 1 2 0.0 0.0 0.0 0.0
797 1 2 0.0 0.0 0.0 0.0
798 1 2 0.0 0.0 0.0 0.0
799 1 2 0.0 0.0 0.0 0.0
800 1 2 0.0 0.0 0.0 0.0
801 1 2 0.0 0.0 0.0 0.0
802 1 2 0.0 0.0 0.0 0.0
803 1 2 0.0 0.0 0.0 0.0
804 1 2 0.0 0.0 0.0 0.0
805 1 2 0.0 0.0 0.0 0.0
806 1 2 0.0 0.0 0.0 0.0
807 1 2 0.0 0.0 0.0 0.0
808 1 2 0.0 0.0 0.0 0.0
809 1 2 0.0 0.0 0.0 0.0
810 1 2 0.0 0.0 0.0 0.0
811 1 2 0.0 0.0 0.0 0.0
812 1 2 0.0 0.0 0.0 0.0
813 1 2 0.0 0.0 0.0 0.0
814 1 2 0.0 0.0 0.0 0.0
815 1 2 0.0 0.0 0.0 0.0
816 1 2 0.0 0.0 0.0 0.0
817 1 2 0.0 0.0 0.0 0.0
818 1 2 0.0 0.0 0.0 0.0
819 1 2 0.0 0.0 0.0 0.0
820 1 2 0.0 0.0 0.0 0.0
821 1 2 0.0 0.0 0.0 0.0
822 1 2 0.0 0.0 0.0 0.0
823 1 2 0.0 0.0 0.0 0.0
824 1 2 0.0 0.0 0.0 0.0
825 1 2 0.0 0.0 0.0 0.0
826 1 2 0.0 0.0 0.0 0.0
827 1 2 0.0 0.0 0.0 0.0
828 1 2 0.0 0.0 0.0 0.0
829 1 2 0.0 0.0 0.0 0.0
830 1 2 0.0 0.0 0.0 0.0
831 1 2 0.0 0.0 0.0 0.0
832 1 2 0.0 0.0 0.0 0.0
833 1 2 0.0 0.0 0.0 0.0
834 1 2 0.0 0.0 0.0 0.0
835 1 2 0.0 0.0 0.0 0.0
836 1 2 0.0 0.0 0.0 0.0
837 1 2 0.0 0.0 0.0 0.0
838 1 2 0.0 0.0 0.0 0.0
839 1 2 0.0 0.0 0.0 0.0
840 1 2 0.0 0.0 0.0 0.0
841 1 2 0.0 0.0 0.0 0.0
842 1 2 0.0 0.0 0.0 0.0
843 1 2 0.0 0.0 0.0 0.0
844 1 2 0.0 0.0 0.0 0.0
845 1 2 0.0 0.0 0.0 0.0
846 1 2 0.0 0.0 0.0 0.0
847 1 2 0.0 0.0 0.0 0.0
848 1 2 0.0 0.0 0.0 0.0
849 1 2 0.0 0.0 0.0 0.0
850 1 2 0.0 0.0 0.0 0.0
851 1 2 0.0 0.0 0.0 0.0
852 1 2 0.0 0.0 0.0 0.0
853 1 2 0.0 0.0 0.0 0.0
854 1 2 0.0 0.0 0.0 0.0
855 1 2 0.0 0.0 0.0 0.0
856 1 2 0.0 0.0 0.0 0.0
857 1 2 0.0 0.0 0.0 0.0
858 1 2 0.0 0.0 0.0 0.0
859 1 2 0.0 0.0 0.0 0.0
860 1 2 0.0 0.0 0.0 0.0
861 1 2 0.0 0.0 0.0 0.0
862 1 2 0.0 0.0 0.0 0.0
863 1 2 0.0 0.0 0.0 0.0
864 1 2 0.0 0.0 0.0 0.0
865 1 2 0.0 0.0 0.0 0.0
866 1 2 0.0 0.0 0.0 0.0
867 1 2 0.0 0.0 0.0 0.0
868 1 2 0.0 0.0 0.0 0.0
869 1 2 0.0 0.0 0.0 0.0
870 1 2 0.0 0.0 0.0 0.0
871 1 2 0.0 0.0 0.0 0.0
872 1 2 0.0 0.0 0.0 0.0
873 1 2 0.0 0.0 0.0 0.0
874 1 2 0.0 0.0 0.0 0.0
875 1 2 0.0 0.0 0.0 0.0
876 1 2 0.0 0.0 0.0 0.0
877 1 2 0.0 0.0 0.0 0.0
878 1 2 0.0 0.0 0.0 0.0
879 1 2 0.0 0.0 0.0 0.0
880 1 2 0.0 0.0 0.0 0.0
881 1 2 0.0 0.0 0.0 0.0
882 1 2 0.0 0.0 0.0 0.0
883 1 2 0.0 0.0 0.0 0.0
884 1 2 0.0 0.0 0.0 0.0
885 1 2 0.0 0.0 0.0 0.0
886 1 2 0.0 0.0 0.0 0.0
887 1 2 0.0 0.0 0.0 0.0
888 1 2 0.0 0.0 0.0 0.0
889 1 2 0.0 0.0 0.0 0.0
890 1 2 0.0 0.0 0.0 0.0
891 1 2 0.0 0.0 0.0 0.0
892 1 2 0.0 0.0 0.0 0.0
893 1 2 0.0 0.0 0.0 0.0
894 1 2 0.0 0.0 0.0 0.0
895 1 2 0.0 0.0 0.0 0.0
896 1 2 0.0 0.0 0.0 0.0
897 1 2 0.0 0.0 0.0 0.0
898 1 2 0.0 0.0 0.0 0.0
899 1 2 0.0 0.0 0.0 0.0
900 1 2 0.0 0.0 0.0 0.0
901 1 2 0.0 0.0 0.0 0.0
902 1 2 0.0 0.0 0.0 0.0
903 1 2 0.0 0.0 0.0 0.0
904 1 2 0.0 0.0 0.0 0.0
905 1 2 0.0 0.0 0.0 0.0
906 1 2 0.0 0.0 0.0 0.0
907 1 2 0.0 0.0 0.0 0.0
908 1 2 0.0 0.0 0.0 0.0
909 1 2 0.0 0.0 0.0 0.0
910 1 2 0.0 0.0 0.0 0.0
911 1 2 0.0 0.0 0.0 0.0
912 1 2 0.0 0.0 0.0 0.0
913 1 2 0.0 0.0 0.0 0.0
914 1 2 0.0 0.0 0.0 0.0
915 1 2 0.0 0.0 0.0 0.0
916 1 2 0.0 0.0 0.0 0.0
917 1 2 0.0 0.0 0.0 0.0
918 1 2 0.0 0.0 0.0 0.0
919 1 2 0.0 0.0 0.0 0.0
920 1 2 0.0 0.0 0.0 0.0
921 1 2 0.0 0.0 0.0 0.0
922 1 2 0.0 0.0 0.0 0.0
923 1 2 0.0 0.0 0.0 0.0
924 1 2 0.0 0.0 0.0 0.0
925 1 2 0.0 0.0 0.0 0.0
926 1 2 0.0 0.0 0.0 0.0
927 1 2 0.0 0.0 0.0 0.0
928 1 2 0.0 0.0 0.0 0.0
929 1 2 0.0 0.0 0.0 0.0
930 1 2 0.0 0.0 0.0 0.0
931 1 2 0.0 0.0 0.0 0.0
932 1 2 0.0 0.0 0.0 0.0
933 1 2 0.0 0.0 0.0 0.0
934 1 2 0.0 0.0 0.0 0.0
935 1 2 0.0 0.0 0.0 0.0
936 1 2 0.0 0.0 0.0 0.0
937 1 2 0.0 0.0 0.0 0.0
938 1 2 0.0 0.0 0.0 0.0
939 1 2 0.0 0.0 0.0 0.0
940 1 2 0.0 0.0 0.0 0.0
941 1 2 0.0 0.0 0.0 0.0
942 1 2 0.0 0.0 0.0 0.0
943 1 2 0.0 0.0 0.0 0.0
944 1 2 0.0 0.0 0.0 0.0
945 1 2 0.0 0.0 0.0 0.0
946 1 2 0.0 0.0 0.0 0.0
947 1 2 0.0 0.0 0.0 0.0
948 1 2 0.0 0.0 0.0 0.0
949 1 2 0.0 0.0 0.0 0.0
950 1 2 0.0 0.0 0.0 0.0
951 1 2 0.0 0.0 0.0 0.0
952 1 2 0.0 0.0 0.0 0.0
953 1 2 0.0 0.0 0.0 0.0
954 1 2 0.0 0.0 0.0 0.0
955 1 2 0.0 0.0 0.0 0.0
956 1 2 0.0 0.0 0.0 0.0
957 1 2 0.0 0.0 0.0 0.0
958 1 2 0.0 0.0 0.0 0.0
959 1 2 0.0 0.0 0.0 0.0
960 1 2 0.0 0.0 0.0 0.0
961 1 2 0.0 0.0 0.0 0.0
962 1 2 0.0 0.0 0.0 0.0
963 1 2 0.0 0.0 0.0 0.0
964 1 2 0.0 0.0 0.0 0.0
965 1 2 0.0 0.0 0.0 0.0
966 1 2 0.0 0.0 0.0 0.0
967 1 2 0.0 0.0 0.0 0.0
968 1 2 0.0 0.0 0.0 0.0
969 1 2 0.0 0.0 0.0 0.0
970 1 2 0.0 0.0 0.0 0.0
971 1 2 0.0 0.0 0.0 0.0
972 1 2 0.0 0.0 0.0 0.0
973 1 2 0.0 0.0 0.0 0.0
974 1 2 0.0 0.0 0.0 0.0
975 1 2 0.0 0.0 0.0 0.0
976 1 2 0.0 0.0 0.0 0.0
977 1 2 0.0 0.0 0.0 0.0
978 1 2 0.0 0.0 0.0 0.0
979 1 2 0.0 0.0 0.0 0.0
980 1 2 0.0 0.0 0.0 0.0
981 1 2 0.0 0.0 0.0 0.0
982 1 2 0.0 0.0 0.0 0.0
983 1 2 0.0 0.0 0.0 0.0
984 1 2 0.0 0.0 0.0 0.0
985 1 2 0.0 0.0 0.0 0.0
986 1 2 0.0 0.0 0.0 0.0
987 1 2 0.0 0.0 0.0 0.0
988 1 2 0.0 0.0 0.0 0.0
989 1 2 0.0 0.0 0.0 0.0
990 1 2 0.0 0.0 0.0 0.0
991 1 2 0.0 0.0 0.0 0.0
992 1 2 0.0 0.0 0.0 0.0
993 1 2 0.0 0.0 0.0 0.0
994 1 2 0.0 0.0 0.0 0.0
995 1 2 0.0 0.0 0.0 0.0
996 1 2 0.0 0.0 0.0 0.0
997 1 2 0.0 0.0 0.0 0.0
998 1 2 0.0 0.0 0.0 0.0
999 1 2 0.0 0.0 0.0 0.0
1000 1 2 0.0 0.0 0.0 0.0
1001 1 2 0.0 0.0 0.0 0.0
1002 1 2 0.0 0.0 0.0 0.0
1003 1 2 0.0 0.0 0.0 0.0
1004 1 2 0.0 0.0 0.0 0.0
1005 1 2 0.0 0.0 0.0 0.0
1006 1 2 0.0 0.0 0.0 0.0
1007 1 2 0.0 0.0 0.0 0.0
1008 1 2 0.0 0.0 0.0 0.0
1009 1 2 0.0 0.0 0.0 0.0
1010 1 2 0.0 0.0 0.0 0.0
1011 1 2 0.0 0.0 0.0 0.0
1012 1 2 0.0 0.0 0.0 0.0
1013 1 2 0.0 0.0 0.0 0.0
1014 1 2 0.0 0.0 0.0 0.0
1015 1 2 0.0 0.0 0.0 0.0
1016 1 2 0.0 0.0 0.0 0.0
1017 1 2 0.0 0.0 0.0 0.0
1018 1 2 0.0 0.0 0.0 0.0
1019 1 2 0.0 0.0 0.0 0.0
1020 1 2 0.0 0.0 0.0 0.0
1021 1 2 0.0 0.0 0.0 0.0
1022 1 2 0.0 0.0 0.0 0.0
1023 1 2 0.0 0.0 0.0 0.0
1024 1 2 0.0 0.0 0.0 0.0
1025 1 2 0.0 0.0 0.0 0.0
1026 1 2 0.0 0.0 0.0 0.0
1027 1 2 0.0 0.0 0.0 0.0
1028 1 2 0.0 0.0 0.0 0.0
1029 1 2 0.0 0.0 0.0 0.0
1030 1 2 0.0 0.0 0.0 0.0
1031 1 2 0.0 0.0 0.0 0.0
1032 1 2 0.0 0.0 0.0 0.0
1033 1 2 0.0 0.0 0.0 0.0
1034 1 2 0.0 0.0 0.0 0.0
1035 1 2 0.0 0.0 0.0 0.0
1036 1 2 0.0 0.0 0.0 0.0
1037 1 2 0.0 0.0 0.0 0.0
1038 1 2 0.0 0.0 0.0 0.0
1039 1 2 0.0 0.0 0.0 0.0
1040 1 2 0.0 0.0 0.0 0.0
1041 1 2 0.0 0.0 0.0 0.0
1042 1 2 0.0 0.0 0.0 0.0
1043 1 2 0.0 0.0 0.0 0.0
1044 1 2 0.0 0.0 0.0 0.0
1045 1 2 0.0 0.0 0.0 0.0
1046 1 2 0.0 0.0 0.0 0.0
1047 1 2 0.0 0.0 0.0 0.0
1048 1 2 0.0 0.0 0.0 0.0
1049 1 2 0.0 0.0 0.0 0.0
1050 1 2 0.0 0.0 0.0 0.0
1051 1 2 0.0 0.0 0.0 0.0
1052 1 2 0.0 0.0 0.0 0.0
1053 1 2 0.0 0.0 0.0 0.0
1054 1 2 0.0 0.0 0.0 0.0
1055 1 2 0.0 0.0 0.0 0.0
1056 1 2 0.0 0.0 0.0 0.0
1057 1 2 0.0 0.0 0.0 0.0
1058 1 2 0.0 0.0 0.0 0.0
1059 1 2 0.0 0.0 0.0 0.0
1060 1 2 0.0 0.0 0.0 0.0
1061 1 2 0.0 0.0 0.0 0.0
1062 1 2 0.0 0.0 0.0 0.0
1063 1 2 0.0 0.0 0.0 0.0
1064 1 2 0.0 0.0 0.0 0.0
1065 1 2 0.0 0.0 0.0 0.0
1066 1 2 0.0 0.0 0.0 0.0
1067 1 2 0.0 0.0 0.0 0.0
1068 1 2 0.0 0.0 0.0 0.0
1069 1 2 0.0 0.0 0.0 0.0
1070 1 2 0.0 0.0 0.0 0.0
1071 1 2 0.0 0.0 0.0 0.0
1072 1 2 0.0 0.0 0.0 0.0
1073 1 2 0.0 0.0 0.0 0.0
1074 1 2 0.0 0.0 0.0 0.0
1075 1 2 0.0 0.0 0.0 0.0
1076 1 2 0.0 0.0 0.0 0.0
1077 1 2 0.0 0.0 0.0 0.0
1078 1 2 0.0 0.0 0.0 0.0
1079 1 2 0.0 0.0 0.0 0.0
1080 1 2 0.0 0.0 0.0 0.0
1081 1 2 0.0 0.0 0.0 0.0
1082 1 2 0.0 0.0 0.0 0.0
1083 1 2 0.0 0.0 0.0 0.0
1084 1 2 0.0 0.0 0.0 0.0
1085 1 2 0.0 0.0 0.0 0.0
1086 1 2 0.0 0.0 0.0 0.0
1087 1 2 0.0 0.0 0.0 0.0
1088 1 2 0.0 0.0 0.0 0.0
1089 1 2 0.0 0.0 0.0 0.0
1090 1 2 0.0 0.0 0.0 0.0
1091 1 2 0.0 0.0 0.0 0.0
1092 1 2 0.0 0.0 0.0 0.0
1093 1 2 0.0 0.0 0.0 0.0
1094 1 2 0.0 0.0 0.0 0.0
1095 1 2 0.0 0.0 0.0 0.0
1096 1 2 0.0 0.0 0.0 0.0
1097 1 2 0.0 0.0 0.0 0.0
1098 1 2 0.0 0.0 0.0 0.0
1099 1 2 0.0 0.0 0.0 0.0
1100 1 2 0.0 0.0 0.0 0.0
1101 1 2 0.0 0.0 0.0 0.0
1102 1 2 0.0 0.0 0.0 0.0
1103 1 2 0.0 0.0 0.0 0.0
1104 1 2 0.0 0.0 0.0 0.0
1105 1 2 0.0 0.0 0.0 0.0
1106 1 2 0.0 0.0 0.0 0.0
1107 1 2 0.0 0.0 0.0 0.0
1108 1 2 0.0 0.0 0.0 0.0
1109 1 2 0.0 0.0 0.0 0.0
1110 1 2 0.0 0.0 0.0 0.0
1111 1 2 0.0 0.0 0.0 0.0
1112 1 2 0.0 0.0 0.0 0.0
1113 1 2 0.0 0.0 0.0 0.0
1114 1 2 0.0 0.0 0.0 0.0
1115 1 2 0.0 0.0 0.0 0.0
1116 1 2 0.0 0.0 0.0 0.0
1117 1 2 0.0 0.0 0.0 0.0
1118 1 2 0.0 0.0 0.0 0.0
1119 1 2 0.0 0.0 0.0 0.0
1120 1 2 0.0 0.0 0.0 0.0
1121 1 2 0.0 0.0 0.0 0.0
1122 1 2 0.0 0.0 0.0 0.0
1123 1 2 0.0 0.0 0.0 0.0
1124 1 2 0.0 0.0 0.0 0.0
1125 1 2 0.0 0.0 0.0 0.0
1126 1 2 0.0 0.0 0.0 0.0
1127 1 2 0.0 0.0 0.0 0.0
1128 1 2 0.0 0.0 0.0 0.0
1129 1 2 0.0 0.0 0.0 0.0
1130 1 2 0.0 0.0 0.0 0.0
1131 1 2 0.0 0.0 0.0 0.0
1132 1 2 0.0 0.0 0.0 0.0
1133 1 2 0.0 0.0 0.0 0.0
1134 1 2 0.0 0.0 0.0 0.0
1135 1 2 0.0 0.0 0.0 0.0
1136 1 2 0.0 0.0 0.0 0.0
1137 1 2 0.0 0.0 0.0 0.0
1138 1 2 0.0 0.0 0.0 0.0
1139 1 2 0.0 0.0 0.0 0.0
1140 1 2 0.0 0.0 0.0 0.0
1141 1 2 0.0 0.0 0.0 0.0
1142 1 2 0.0 0.0 0.0 0.0
1143 1 2 0.0 0.0 0.0 0.0
1144 1 2 0.0 0.0 0.0 0.0
1145 1 2 0.0 0.0 0.0 0.0
1146 1 2 0.0 0.0 0.0 0.0
1147 1 2 0.0 0.0 0.0 0.0
1148 1 2 0.0 0.0 0.0 0.0
1149 1 2 0.0 0.0 0.0 0.0
1150 1 2 0.0 0.0 0.0 0.0
1151 1 2 0.0 0.0 0.0 0.0
1152 1 2 0.0 0.0 0.0 0.0
1153 1 2 0.0 0.0 0.0 0.0
1154 1 2 0.0 0.0 0.0 0.0
1155 1 2 0.0 0.0 0.0 0.0
1156 1 2 0.0 0.0 0.0 0.0
1157 1 2 0.0 0.0 0.0 0.0
1158 1 2 0.0 0.0 0.0 0.0
1159 1 2 0.0 0.0 0.0 0.0
1160 1 2 0.0 0.0 0.0 0.0
1161 1 2 0.0 0.0 0.0 0.0
1162 1 2 0.0 0.0 0.0 0.0
1163 1 2 0.0 0.0 0.0 0.0
1164 1 2 0.0 0.0 0.0 0.0
1165 1 2 0.0 0.0 0.0 0.0
1166 1 2 0.0 0.0 0.0 0.0
1167 1 2 0.0 0.0 0.0 0.0
1168 1 2 0.0 0.0 0.0 0.0
1169 1 2 0.0 0.0 0.0 0.0
1170 1 2 0.0 0.0 0.0 0.0
1171 1 2 0.0 0.0 0.0 0.0
1172 1 2 0.0 0.0 0.0 0.0
1173 1 2 0.0 0.0 0.0 0.0
1174 1 2 0.0 0.0 0.0 0.0
1175 1 2 0.0 0.0 0.0 0.0
1176 1 2 0.0 0.0 0.0 0.0
1177 1 2 0.0 0.0 0.0 0.0
1178 1 2 0.0 0.0 0.0 0.0
1179 1 2 0.0 0.0 0.0 0.0
1180 1 2 0.0 0.0 0.0 0.0
1181 1 2 0.0 0.0 0.0 0.0
1182 1 2 0.0 0.0 0.0 0.0
1183 1 2 0.0 0.0 0.0 0.0
1184 1 2 0.0 0.0 0.0 0.0
1185 1 2 0.0 0.0 0.0 0.0
1186 1 2 0.0 0.0 0.0 0.0
1187 1 2 0.0 0.0 0.0 0.0
1188 1 2 0.0 0.0 0.0 0.0
1189 1 2 0.0 0.0 0.0 0.0
1190 1 2 0.0 0.0 0.0 0.0
1191 1 2 0.0 0.0 0.0 0.0
1192 1 2 0.0 0.0 0.0 0.0
1193 1 2 0.0 0.0 0.0 0.0
1194 1 2 0.0 0.0 0.0 0.0
1195 1 2 0.0 0.0 0.0 0.0
1196 1 2 0.0 0.0 0.0 0.0
1197 1 2 0.0 0.0 0.0 0.0
1198 1 2 0.0 0.0 0.0 0.0
1199 1 2 0.0 0.0 0.0 0.0
1200 1 2 0.0 0.0 0.0 0.0
1201 1 2 0.0 0.0 0.0 0.0
1202 1 2 0.0 0.0 0.0 0.0
1203 1 2 0.0 0.0 0.0 0.0
1204 1 2 0.0 0.0 0.0 0.0
1205 1 2 0.0 0.0 0.0 0.0
1206 1 2 0.0 0.0 0.0 0.0
1207 1 2 0.0 0.0 0.0 0.0
1208 1 2 0.0 0.0 0.0 0.0
1209 1 2 0.0 0.0 0.0 0.0
1210 1 2 0.0 0.0 0.0 0.0
1211 1 2 0.0 0.0 0.0 0.0
1212 1 2 0.0 0.0 0.0 0.0
1213 1 2 0.0 0.0 0.0 0.0
1214 1 2 0.0 0.0 0.0 0.0
1215 1 2 0.0 0.0 0.0 0.0
1216 1 2 0.0 0.0 0.0 0.0
1217 1 2 0.0 0.0 0.0 0.0
1218 1 2 0.0 0.0 0.0 0.0
1219 1 2 0.0 0.0 0.0 0.0
1220 1 2 0.0 0.0 0.0 0.0
1221 1 2 0.0 0.0 0.0 0.0
1222 1 2 0.0 0.0 0.0 0.0
1223 1 2 0.0 0.0 0.0 0.0
1224 1 2 0.0 0.0 0.0 0.0
1225 1 2 0.0 0.0 0.0 0.0
1226 1 2 0.0 0.0 0.0 0.0
1227 1 2 0.0 0.0 0.0 0.0
1228 1 2 0.0 0.0 0.0 0.0
1229 1 2 0.0 0.0 0.0 0.0
1230 1 2 0.0 0.0 0.0 0.0
1231 1 2 0.0 0.0 0.0 0.0
1232 1 2 0.0 0.0 0.0 0.0
1233 1 2 0.0 0.0 0.0 0.0
1234 1 2 0.0 0.0 0.0 0.0
1235 1 2 0.0 0.0 0.0 0.0
1236 1 2 0.0 0.0 0.0 0.0
1237 1 2 0.0 0.0 0.0 0.0
1238 1 2 0.0 0.0 0.0 0.0
1239 1 2 0.0 0.0 0.0 0.0
1240 1 2 0.0 0.0 0.0 0.0
1241 1 2 0.0 0.0 0.0 0.0
1242 1 2 0.0 0.0 0.0 0.0
1243 1 2 0.0 0.0 0.0 0.0
1244 1 2 0.0 0.0 0.0 0.0
1245 1 2 0.0 0.0 0.0 0.0
1246 1 2 0.0 0.0 0.0 0.0
1247 1 2 0.0 0.0 0.0 0.0
1248 1 2 0.0 0.0 0.0 0.0
1249 1 2 0.0 0.0 0.0 0.0
1250 1 2 0.0 0.0 0.0 0.0
1251 1 2 0.0 0.0 0.0 0.0
1252 1 2 0.0 0.0 0.0 0.0
1253 1 2 0.0 0.0 0.0 0.0
1254 1 2 0.0 0.0 0.0 0.0
1255 1 2 0.0 0.0 0.0 0.0
1256 1 2 0.0 0.0 0.0 0.0
1257 1 2 0.0 0.0 0.0 0.0
1258 1 2 0.0 0.0 0.0 0.0
1259 1 2 0.0 0.0 0.0 0.0
1260 1 2 0.0 0.0 0.0 0.0
1261 1 2 0.0 0.0 0.0 0.0
1262 1 2 0.0 0.0 0.0 0.0
1263 1 2 0.0 0.0 0.0 0.0
1264 1 2 0.0 0.0 0.0 0.0
1265 1 2 0.0 0.0 0.0 0.0
1266 1 2 0.0 0.0 0.0 0.0
1267 1 2 0.0 0.0 0.0 0.0
1268 1 2 0.0 0.0 0.0 0.0
1269 1 2 0.0 0.0 0.0 0.0
1270 1 2 0.0 0.0 0.0 0.0
1271 1 2 0.0 0.0 0.0 0.0
1272 1 2 0.0 0.0 0.0 0.0
1273 1 2 0.0 0.0 0.0 0.0
1274 1 2 0.0 0.0 0.0 0.0
1275 1 2 0.0 0.0 0.0 0.0
1276 1 2 0.0 0.0 0.0 0.0
1277 1 2 0.0 0.0 0.0 0.0
1278 1 2 0.0 0.0 0.0 0.0
1279 1 2 0.0 0.0 0.0 0.0
1280 1 2 0.0 0.0 0.0 0.0
1281 1 2 0.0 0.0 0.0 0.0
1282 1 2 0.0 0.0 0.0 0.0
1283 1 2 0.0 0.0 0.0 0.0
1284 1 2 0.0 0.0 0.0 0.0
1285 1 2 0.0 0.0 0.0 0.0
1286 1 2 0.0 0.0 0.0 0.0
1287 1 2 0.0 0.0 0.0 0.0
1288 1 2 0.0 0.0 0.0 0.0
1289 1 2 0.0 0.0 0.0 0.0
1290 1 2 0.0 0.0 0.0 0.0
1291 1 2 0.0 0.0 0.0 0.0
1292 1 2 0.0 0.0 0.0 0.0
1293 1 2 0.0 0.0 0.0 0.0
1294 1 2 0.0 0.0 0.0 0.0
1295 1 2 0.0 0.0 0.0 0.0
1296 1 2 0.0 0.0 0.0 0.0
1297 1 2 0.0 0.0 0.0 0.0
1298 1 2 0.0 0.0 0.0 0.0
1299 1 2 0.0 0.0 0.0 0.0
1300 1 2 0.0 0.0 0.0 0.0
1301 1 2 0.0 0.0 0.0 0.0
1302 1 2 0.0 0.0 0.0 0.0
1303 1 2 0.0 0.0 0.0 0.0
1304 1 2 0.0 0.0 0.0 0.0
1305 1 2 0.0 0.0 0.0 0.0
1306 1 2 0.0 0.0 0.0 0.0
1307 1 2 0.0 0.0 0.0 0.0
1308 1 2 0.0 0.0 0.0 0.0
1309 1 2 0.0 0.0 0.0 0.0
1310 1 2 0.0 0.0 0.0 0.0
1311 1 2 0.0 0.0 0.0 0.0
1312 1 2 0.0 0.0 0.0 0.0
1313 1 2 0.0 0.0 0.0 0.0
1314 1 2 0.0 0.0 0.0 0.0
1315 1 2 0.0 0.0 0.0 0.0
1316 1 2 0.0 0.0 0.0 0.0
1317 1 2 0.0 0.0 0.0 0.0
1318 1 2 0.0 0.0 0.0 0.0
1319 1 2 0.0 0.0 0.0 0.0
1320 1 2 0.0 0.0 0.0 0.0
1321 1 2 0.0 0.0 0.0 0.0
1322 1 2 0.0 0.0 0.0 0.0
1323 1 2 0.0 0.0 0.0 0.0
1324 1 2 0.0 0.0 0.0 0.0
1325 1 2 0.0 0.0 0.0 0.0
1326 1 2 0.0 0.0 0.0 0.0
1327 1 2 0.0 0.0 0.0 0.0
1328 1 2 0.0 0.0 0.0 0.0
1329 1 2 0.0 0.0 0.0 0.0
1330 1 2 0.0 0.0 0.0 0.0
1331 1 2 0.0 0.0 0.0 0.0
1332 1 2 0.0 0.0 0.0 0.0
1333 1 2 0.0 0.0 0.0 0.0
1334 1 2 0.0 0.0 0.0 0.0
1335 1 2 0.0 0.0 0.0 0.0
1336 1 2 0.0 0.0 0.0 0.0
1337 1 2 0.0 0.0 0.0 0.0
1338 1 2 0.0 0.0 0.0 0.0
1339 1 2 0.0 0.0 0.0 0.0
1340 1 2 0.0 0.0 0.0 0.0
1341 1 2 0.0 0.0 0.0 0.0
1342 1 2 0.0 0.0 0.0 0.0
1343 1 2 0.0 0.0 0.0 0.0
1344 1 2 0.0 0.0 0.0 0.0
1345 1 2 0.0 0.0 0.0 0.0
1346 1 2 0.0 0.0 0.0 0.0
1347 1 2 0.0 0.0 0.0 0.0
1348 1 2 0.0 0.0 0.0 0.0
1349 1 2 0.0 0.0 0.0 0.0
1350 1 2 0.0 0.0 0.0 0.0
1351 1 2 0.0 0.0 0.0 0.0
1352 1 2 0.0 0.0 0.0 0.0
1353 1 2 0.0 0.0 0.0 0.0
1354 1 2 0.0 0.0 0.0 0.0
1355 1 2 0.0 0.0 0.0 0.0
1356 1 2 0.0 0.0 0.0 0.0
1357 1 2 0.0 0.0 0.0 0.0
1358 1 2 0.0 0.0 0.0 0.0
1359 1 2 0.0 0.0 0.0 0.0
1360 1 2 0.0 0.0 0.0 0.0
1361 1 2 0.0 0.0 0.0 0.0
1362 1 2 0.0 0.0 0.0 0.0
1363 1 2 0.0 0.0 0.0 0.0
1364 1 2 0.0 0.0 0.0 0.0
1365 1 2 0.0 0.0 0.0 0.0
1366 1 2 0.0 0.0 0.0 0.0
1367 1 2 0.0 0.0 0.0 0.0
1368 1 2 0.0 0.0 0.0 0.0
1369 1 2 0.0 0.0 0.0 0.0
1370 1 2 0.0 0.0 0.0 0.0
1371 1 2 0.0 0.0 0.0 0.0
1372 1 2 0.0 0.0 0.0 0.0
1373 1 2 0.0 0.0 0.0 0.0
1374 1 2 0.0 0.0 0.0 0.0
1375 1 2 0.0 0.0 0.0 0.0
1376 1 2 0.0 0.0 0.0 0.0
1377 1 2 0.0 0.0 0.0 0.0
1378 1 2 0.0 0.0 0.0 0.0
1379 1 2 0.0 0.0 0.0 0.0
1380 1 2 0.0 0.0 0.0 0.0
1381 1 2 0.0 0.0 0.0 0.0
1382 1 2 0.0 0.0 0.0 0.0
1383 1 2 0.0 0.0 0.0 0.0
1384 1 2 0.0 0.0 0.0 0.0
1385 1 2 0.0 0.0 0.0 0.0
1386 1 2 0.0 0.0 0.0 0.0
1387 1 2 0.0 0.0 0.0 0.0
1388 1 2 0.0 0.0 0.0 0.0
1389 1 2 0.0 0.0 0.0 0.0
1390 1 2 0.0 0.0 0.0 0.0
1391 1 2 0.0 0.0 0.0 0.0
1392 1 2 0.0 0.0 0.0 0.0
1393 1 2 0.0 0.0 0.0 0.0
1394 1 2 0.0 0.0 0.0 0.0
1395 1 2 0.0 0.0 0.0 0.0
1396 1 2 0.0 0.0 0.0 0.0
1397 1 2 0.0 0.0 0.0 0.0
1398 1 2 0.0 0.0 0.0 0.0
1399 1 2 0.0 0.0 0.0 0.0
1400 1 2 0.0 0.0 0.0 0.0
1401 1 2 0.0 0.0 0.0 0.0
1402 1 2 0.0 0.0 0.0 0.0
1403 1 2 0.0 0.0 0.0 0.0
1404 1 2 0.0 0.0 0.0 0.0
1405 1 2 0.0 0.0 0.0 0.0
1406 1 2 0.0 0.0 0.0 0.0
1407 1 2 0.0 0.0 0.0 0.0
1408 1 2 0.0 0.0 0.0 0.0
1409 1 2 0.0 0.0 0.0 0.0
1410 1 2 0.0 0.0 0.0 0.0
1411 1 2 0.0 0.0 0.0 0.0
1412 1 2 0.0 0.0 0.0 0.0
1413 1 2 0.0 0.0 0.0 0.0
1414 1 2 0.0 0.0 0.0 0.0
1415 1 2 0.0 0.0 0.0 0.0
1416 1 2 0.0 0.0 0.0 0.0
1417 1 2 0.0 0.0 0.0 0.0
1418 1 2 0.0 0.0 0.0 0.0
1419 1 2 0.0 0.0 0.0 0.0
1420 1 2 0.0 0.0 0.0 0.0
1421 1 2 0.0 0.0 0.0 0.0
1422 1 2 0.0 0.0 0.0 0.0
1423 1 2 0.0 0.0 0.0 0.0
1424 1 2 0.0 0.0 0.0 0.0
1425 1 2 0.0 0.0 0.0 0.0
1426 1 2 0.0 0.0 0.0 0.0
1427 1 2 0.0 0.0 0.0 0.0
1428 1 2 0.0 0.0 0.0 0.0
1429 1 2 0.0 0.0 0.0 0.0
1430 1 2 0.0 0.0 0.0 0.0
1431 1 2 0.0 0.0 0.0 0.0
1432 1 2 0.0 0.0 0.0 0.0
1433 1 2 0.0 0.0 0.0 0.0
1434 1 2 0.0 0.0 0.0 0.0
1435 1 2 0.0 0.0 0.0 0.0
1436 1 2 0.0 0.0 0.0 0.0
1437 1 2 0.0 0.0 0.0 0.0
1438 1 2 0.0 0.0 0.0 0.0
1439 1 2 0.0 0.0 0.0 0.0
1440 1 2 0.0 0.0 0.0 0.0
1441 1 2 0.0 0.0 0.0 0.0
1442 1 2 0.0 0.0 0.0 0.0
1443 1 2 0.0 0.0 0.0 0.0
1444 1 2 0.0 0.0 0.0 0.0
1445 1 2 0.0 0.0 0.0 0.0
1446 1 2 0.0 0.0 0.0 0.0
1447 1 2 0.0 0.0 0.0 0.0
1448 1 2 0.0 0.0 0.0 0.0
1449 1 2 0.0 0.0 0.0 0.0
1450 1 2 0.0 0.0 0.0 0.0
1451 1 2 0.0 0.0 0.0 0.0
1452 1 2 0.0 0.0 0.0 0.0
1453 1 2 0.0 0.0 0.0 0.0
1454 1 2 0.0 0.0 0.0 0.0
1455 1 2 0.0 0.0 0.0 0.0
1456 1 2 0.0 0.0 0.0 0.0
1457 1 2 0.0 0.0 0.0 0.0
1458 1 2 0.0 0.0 0.0 0.0
1459 1 2 0.0 0.0 0.0 0.0
1460 1 2 0.0 0.0 0.0 0.0
1461 1 2 0.0 0.0 0.0 0.0
1462 1 2 0.0 0.0 0.0 0.0
1463 1 2 0.0 0.0 0.0 0.0
1464 1 2 0.0 0.0 0.0 0.0
1465 1 2 0.0 0.0 0.0 0.0
1466 1 2 0.0 0.0 0.0 0.0
1467 1 2 0.0 0.0 0.0 0.0
1468 1 2 0.0 0.0 0.0 0.0
1469 1 2 0.0 0.0 0.0 0.0
1470 1 2 0.0 0.0 0.0 0.0
1471 1 2 0.0 0.0 0.0 0.0
1472 1 2 0.0 0.0 0.0 0.0
1473 1 2 0.0 0.0 0.0 0.0
1474 1 2 0.0 0.0 0.0 0.0
1475 1 2 0.0 0.0 0.0 0.0
1476 1 2 0.0 0.0 0.0 0.0
1477 1 2 0.0 0.0 0.0 0.0
1478 1 2 0.0 0.0 0.0 0.0
1479 1 2 0.0 0.0 0.0 0.0
1480 1 2 0.0 0.0 0.0 0.0
1481 1 2 0.0 0.0 0.0 0.0
1482 1 2 0.0 0.0 0.0 0.0
1483 1 2 0.0 0.0 0.0 0.0
1484 1 2 0.0 0.0 0.0 0.0
1485 1 2 0.0 0.0 0.0 0.0
1486 1 2 0.0 0.0 0.0 0.0
1487 1 2 0.0 0.0 0.0 0.0
1488 1 2 0.0 0.0 0.0 0.0
1489 1 2 0.0 0.0 0.0 0.0
1490 1 2 0.0 0.0 0.0 0.0
1491 1 2 0.0 0.0 0.0 0.0
1492 1 2 0.0 0.0 0.0 0.0
1493 1 2 0.0 0.0 0.0 0.0
1494 1 2 0.0 0.0 0.0 0.0
1495 1 2 0.0 0.0 0.0 0.0
1496 1 2 0.0 0.0 0.0 0.0
1497 1 2 0.0 0.0 0.0 0.0
1498 1 2 0.0 0.0 0.0 0.0
1499 1 2 0.0 0.0 0.0 0.0
1500 1 2 0.0 0.0 0.0 0.0
1501 1 2 0.0 0.0 0.0 0.0
1502 1 2 0.0 0.0 0.0 0.0
1503 1 2 0.0 0.0 0.0 0.0
1504 1 2 0.0 0.0 0.0 0.0
1505 1 2 0.0 0.0 0.0 0.0
1506 1 2 0.0 0.0 0.0 0.0
1507 1 2 0.0 0.0 0.0 0.0
1508 1 2 0.0 0.0 0.0 0.0
1509 1 2 0.0 0.0 0.0 0.0
1510 1 2 0.0 0.0 0.0 0.0
1511 1 2 0.0 0.0 0.0 0.0
1512 1 2 0.0 0.0 0.0 0.0
1513 1 2 0.0 0.0 0.0 0.0
1514 1 2 0.0 0.0 0.0 0.0
1515 1 2 0.0 0.0 0.0 0.0
1516 1 2 0.0 0.0 0.0 0.0
1517 1 2 0.0 0.0 0.0 0.0
1518 1 2 0.0 0.0 0.0 0.0
1519 1 2 0.0 0.0 0.0 0.0
1520 1 2 0.0 0.0 0.0 0.0
1521 1 2 0.0 0.0 0.0 0.0
1522 1 2 0.0 0.0 0.0 0.0
1523 1 2 0.0 0.0 0.0 0.0
1524 1 2 0.0 0.0 0.0 0.0
1525 1 2 0.0 0.0 0.0 0.0
1526 1 2 0.0 0.0 0.0 0.0
1527 1 2 0.0 0.0 0.0 0.0
1528 1 2 0.0 0.0 0.0 0.0
1529 1 2 0.0 0.0 0.0 0.0
1530 1 2 0.0 0.0 0.0 0.0
1531 1 2 0.0 0.0 0.0 0.0
1532 1 2 0.0 0.0 0.0 0.0
1533 1 2 0.0 0.0 0.0 0.0
1534 1 2 0.0 0.0 0.0 0.0
1535 1 2 0.0 0.0 0.0 0.0
1536 1 2 0.0 0.0 0.0 0.0
1537 1 2 0.0 0.0 0.0 0.0
1538 1 2 0.0 0.0 0.0 0.0
1539 1 2 0.0 0.0 0.0 0.0
1540 1 2 0.0 0.0 0.0 0.0
1541 1 2 0.0 0.0 0.0 0.0
1542 1 2 0.0 0.0 0.0 0.0
1543 1 2 0.0 0.0 0.0 0.0
1544 1 2 0.0 0.0 0.0 0.0
1545 1 2 0.0 0.0 0.0 0.0
1546 1 2 0.0 0.0 0.0 0.0
1547 1 2 0.0 0.0 0.0 0.0
1548 1 2 0.0 0.0 0.0 0.0
1549 1 2 0.0 0.0 0.0 0.0
1550 1 2 0.0 0.0 0.0 0.0
1551 1 2 0.0 0.0 0.0 0.0
1552 1 2 0.0 0.0 0.0 0.0
1553 1 2 0.0 0.0 0.0 0.0
1554 1 2 0.0 0.0 0.0 0.0
1555 1 2 0.0 0.0 0.0 0.0
1556 1 2 0.0 0.0 0.0 0.0
1557 1 2 0.0 0.0 0.0 0.0
1558 1 2 0.0 0.0 0.0 0.0
1559 1 2 0.0 0.0 0.0 0.0
1560 1 2 0.0 0.0 0.0 0.0
1561 1 2 0.0 0.0 0.0 0.0
1562 1 2 0.0 0.0 0.0 0.0
1563 1 2 0.0 0.0 0.0 0.0
1564 1 2 0.0 0.0 0.0 0.0
1565 1 2 0.0 0.0 0.0 0.0
1566 1 2 0.0 0.0 0.0 0.0
1567 1 2 0.0 0.0 0.0 0.0
1568 1 2 0.0 0.0 0.0 0.0
1569 1 2 0.0 0.0 0.0 0.0
1570 1 2 0.0 0.0 0.0 0.0
1571 1 2 0.0 0.0 0.0 0.0
1572 1 2 0.0 0.0 0.0 0.0
1573 1 2 0.0 0.0 0.0 0.0
1574 1 2 0.0 0.0 0.0 0.0
1575 1 2 0.0 0.0 0.0 0.0
1576 1 2 0.0 0.0 0.0 0.0
1577 1 2 0.0 0.0 0.0 0.0
1578 1 2 0.0 0.0 0.0 0.0
1579 1 2 0.0 0.0 0.0 0.0
1580 1 2 0.0 0.0 0.0 0.0
1581 1 2 0.0 0.0 0.0 0.0
1582 1 2 0.0 0.0 0.0 0.0
1583 1 2 0.0 0.0 0.0 0.0
1584 1 2 0.0 0.0 0.0 0.0
1585 1 2 0.0 0.0 0.0 0.0
1586 1 2 0.0 0.0 0.0 0.0
1587 1 2 0.0 0.0 0.0 0.0
1588 1 2 0.0 0.0 0.0 0.0
1589 1 2 0.0 0.0 0.0 0.0
1590 1 2 0.0 0.0 0.0 0.0
1591 1 2 0.0 0.0 0.0 0.0
1592 1 2 0.0 0.0 0.0 0.0
1593 1 2 0.0 0.0 0.0 0.0
1594 1 2 0.0 0.0 0.0 0.0
1595 1 2 0.0 0.0 0.0 0.0
1596 1 2 0.0 0.0 0.0 0.0
1597 1 2 0.0 0.0 0.0 0.0
1598 1 2 0.0 0.0 0.0 0.0
1599 1 2 0.0 0.0 0.0 0.0
1600 1 2 0.0 0.0 0.0 0.0
1601 1 2 0.0 0.0 0.0 0.0
1602 1 2 0.0 0.0 0.0 0.0
1603 1 2 0.0 0.0 0.0 0.0
1604 1 2 0.0 0.0 0.0 0.0
1605 1 2 0.0 0.0 0.0 0.0
1606 1 2 0.0 0.0 0.0 0.0
1607 1 2 0.0 0.0 0.0 0.0
1608 1 2 0.0 0.0 0.0 0.0
1609 1 2 0.0 0.0 0.0 0.0
1610 1 2 0.0 0.0 0.0 0.0
1611 1 2 0.0 0.0 0.0 0.0
1612 1 2 0.0 0.0 0.0 0.0
1613 1 2 0.0 0.0 0.0 0.0
1614 1 2 0.0 0.0 0.0 0.0
1615 1 2 0.0 0.0 0.0 0.0
1616 1 2 0.0 0.0 0.0 0.0
1617 1 2 0.0 0.0 0.0 0.0
1618 1 2 0.0 0.0 0.0 0.0
1619 1 2 0.0 0.0 0.0 0.0
1620 1 2 0.0 0.0 0.0 0.0
1621 1 2 0.0 0.0 0.0 0.0
1622 1 2 0.0 0.0 0.0 0.0
1623 1 2 0.0 0.0 0.0 0.0
1624 1 2 0.0 0.0 0.0 0.0
1625 1 2 0.0 0.0 0.0 0.0
1626 1 2 0.0 0.0 0.0 0.0
1627 1 2 0.0 0.0 0.0 0.0
1628 1 2 0.0 0.0 0.0 0.0
1629 1 2 0.0 0.0 0.0 0.0
1630 1 2 0.0 0.0 0.0 0.0
1631 1 2 0.0 0.0 0.0 0.0
1632 1 2 0.0 0.0 0.0 0.0
1633 1 2 0.0 0.0 0.0 0.0
1634 1 2 0.0 0.0 0.0 0.0
1635 1 2 0.0 0.0 0.0 0.0
1636 1 2 0.0 0.0 0.0 0.0
1637 1 2 0.0 0.0 0.0 0.0
1638 1 2 0.0 0.0 0.0 0.0
1639 1 2 0.0 0.0 0.0 0.0
1640 1 2 0.0 0.0 0.0 0.0
1641 1 2 0.0 0.0 0.0 0.0
1642 1 2 0.0 0.0 0.0 0.0
1643 1 2 0.0 0.0 0.0 0.0
1644 1 2 0.0 0.0 0.0 0.0
1645 1 2 0.0 0.0 0.0 0.0
1646 1 2 0.0 0.0 0.0 0.0
1647 1 2 0.0 0.0 0.0 0.0
1648 1 2 0.0 0.0 0.0 0.0
1649 1 2 0.0 0.0 0.0 0.0
1650 1 2 0.0 0.0 0.0 0.0
1651 1 2 0.0 0.0 0.0 0.0
1652 1 2 0.0 0.0 0.0 0.0
1653 1 2 0.0 0.0 0.0 0.0
1654 1 2 0.0 0.0 0.0 0.0
1655 1 2 0.0 0.0 0.0 0.0
1656 1 2 0.0 0.0 0.0 0.0
1657 1 2 0.0 0.0 0.0 0.0
1658 1 2 0.0 0.0 0.0 0.0
1659 1 2 0.0 0.0 0.0 0.0
1660 1 2 0.0 0.0 0.0 0.0
1661 1 2 0.0 0.0 0.0 0.0
1662 1 2 0.0 0.0 0.0 0.0
1663 1 2 0.0 0.0 0.0 0.0
1664 1 2 0.0 0.0 0.0 0.0
1665 1 2 0.0 0.0 0.0 0.0
1666 1 2 0.0 0.0 0.0 0.0
1667 1 2 0.0 0.0 0.0 0.0
1668 1 2 0.0 0.0 0.0 0.0
1669 1 2 0.0 0.0 0.0 0.0
1670 1 2 0.0 0.0 0.0 0.0
1671 1 2 0.0 0.0 0.0 0.0
1672 1 2 0.0 0.0 0.0 0.0
1673 1 2 0.0 0.0 0.0 0.0
1674 1 2 0.0 0.0 0.0 0.0
1675 1 2 0.0 0.0 0.0 0.0
1676 1 2 0.0 0.0 0.0 0.0
1677 1 2 0.0 0.0 0.0 0.0
1678 1 2 0.0 0.0 0.0 0.0
1679 1 2 0.0 0.0 0.0 0.0
1680 1 2 0.0 0.0 0.0 0.0
1681 1 2 0.0 0.0 0.0 0.0
1682 1 2 0.0 0.0 0.0 0.0
1683 1 2 0.0 0.0 0.0 0.0
1684 1 2 0.0 0.0 0.0 0.0
1685 1 2 0.0 0.0 0.0 0.0
1686 1 2 0.0 0.0 0.0 0.0
1687 1 2 0.0 0.0 0.0 0.0
1688 1 2 0.0 0.0 0.0 0.0
1689 1 2 0.0 0.0 0.0 0.0
1690 1 2 0.0 0.0 0.0 0.0
1691 1 2 0.0 0.0 0.0 0.0
1692 1 2 0.0 0.0 0.0 0.0
1693 1 2 0.0 0.0 0.0 0.0
1694 1 2 0.0 0.0 0.0 0.0
1695 1 2 0.0 0.0 0.0 0.0
1696 1 2 0.0 0.0 0.0 0.0
1697 1 2 0.0 0.0 0.0 0.0
1698 1 2 0.0 0.0 0.0 0.0
1699 1 2 0.0 0.0 0.0 0.0
1700 1 2 0.0 0.0 0.0 0.0
1701 1 2 0.0 0.0 0.0 0.0
1702 1 2 0.0 0.0 0.0 0.0
1703 1 2 0.0 0.0 0.0 0.0
1704 1 2 0.0 0.0 0.0 0.0
1705 1 2 0.0 0.0 0.0 0.0
1706 1 2 0.0 0.0 0.0 0.0
1707 1 2 0.0 0.0 0.0 0.0
1708 1 2 0.0 0.0 0.0 0.0
1709 1 2 0.0 0.0 0.0 0.0
1710 1 2 0.0 0.0 0.0 0.0
1711 1 2 0.0 0.0 0.0 0.0
1712 1 2 0.0 0.0 0.0 0.0
1713 1 2 0.0 0.0 0.0 0.0
1714 1 2 0.0 0.0 0.0 0.0
1715 1 2 0.0 0.0 0.0 0.0
1716 1 2 0.0 0.0 0.0 0.0
1717 1 2 0.0 0.0 0.0 0.0
1718 1 2 0.0 0.0 0.0 0.0
1719 1 2 0.0 0.0 0.0 0.0
1720 1 2 0.0 0.0 0.0 0.0
1721 1 2 0.0 0.0 0.0 0.0
1722 1 2 0.0 0.0 0.0 0.0
1723 1 2 0.0 0.0 0.0 0.0
1724 1 2 0.0 0.0 0.0 0.0
1725 1 2 0.0 0.0 0.0 0.0
1726 1 2 0.0 0.0 0.0 0.0
1727 1 2 0.0 0.0 0.0 0.0
1728 1 2 0.0 0.0 0.0 0.0
1729 1 2 0.0 0.0 0.0 0.0
1730 1 2 0.0 0.0 0.0 0.0
1731 1 2 0.0 0.0 0.0 0.0
1732 1 2 0.0 0.0 0.0 0.0
1733 1 2 0.0 0.0 0.0 0.0
1734 1 2 0.0 0.0 0.0 0.0
1735 1 2 0.0 0.0 0.0 0.0
1736 1 2 0.0 0.0 0.0 0.0
1737 1 2 0.0 0.0 0.0 0.0
1738 1 2 0.0 0.0 0.0 0.0
1739 1 2 0.0 0.0 0.0 0.0
1740 1 2 0.0 0.0 0.0 0.0
1741 1 2 0.0 0.0 0.0 0.0
1742 1 2 0.0 0.0 0.0 0.0
1743 1 2 0.0 0.0 0.0 0.0
1744 1 2 0.0 0.0 0.0 0.0
1745 1 2 0.0 0.0 0.0 0.0
1746 1 2 0.0 0.0 0.0 0.0
1747 1 2 0.0 0.0 0.0 0.0
1748 1 2 0.0 0.0 0.0 0.0
1749 1 2 0.0 0.0 0.0 0.0
1750 1 2 0.0 0.0 0.0 0.0
1751 1 2 0.0 0.0 0.0 0.0
1752 1 2 0.0 0.0 0.0 0.0
1753 1 2 0.0 0.0 0.0 0.0
1754 1 2 0.0 0.0 0.0 0.0
1755 1 2 0.0 0.0 0.0 0.0
1756 1 2 0.0 0.0 0.0 0.0
1757 1 2 0.0 0.0 0.0 0.0
1758 1 2 0.0 0.0 0.0 0.0
1759 1 2 0.0 0.0 0.0 0.0
1760 1 2 0.0 0.0 0.0 0.0
1761 1 2 0.0 0.0 0.0 0.0
1762 1 2 0.0 0.0 0.0 0.0
1763 1 2 0.0 0.0 0.0 0.0
1764 1 2 0.0 0.0 0.0 0.0
1765 1 2 0.0 0.0 0.0 0.0
1766 1 2 0.0 0.0 0.0 0.0
1767 1 2 0.0 0.0 0.0 0.0
1768 1 2 0.0 0.0 0.0 0.0
1769 1 2 0.0 0.0 0.0 0.0
1770 1 2 0.0 0.0 0.0 0.0
1771 1 2 0.0 0.0 0.0 0.0
1772 1 2 0.0 0.0 0.0 0.0
1773 1 2 0.0 0.0 0.0 0.0
1774 1 2 0.0 0.0 0.0 0.0
1775 1 2 0.0 0.0 0.0 0.0
1776 1 2 0.0 0.0 0.0 0.0
1777 1 2 0.0 0.0 0.0 0.0
1778 1 2 0.0 0.0 0.0 0.0
1779 1 2 0.0 0.0 0.0 0.0
1780 1 2 0.0 0.0 0.0 0.0
1781 1 2 0.0 0.0 0.0 0.0
1782 1 2 0.0 0.0 0.0 0.0
1783 1 2 0.0 0.0 0.0 0.0
1784 1 2 0.0 0.0 0.0 0.0
1785 1 2 0.0 0.0 0.0 0.0
1786 1 2 0.0 0.0 0.0 0.0
1787 1 2 0.0 0.0 0.0 0.0
1788 1 2 0.0 0.0 0.0 0.0
1789 1 2 0.0 0.0 0.0 0.0
1790 1 2 0.0 0.0 0.0 0.0
1791 1 2 0.0 0.0 0.0 0.0
1792 1 2 0.0 0.0 0.0 0.0
1793 1 2 0.0 0.0 0.0 0.0
1794 1 2 0.0 0.0 0.0 0.0
1795 1 2 0.0 0.0 0.0 0.0
1796 1 2 0.0 0.0 0.0 0.0
1797 1 2 0.0 0.0 0.0 0.0
1798 1 2 0.0 0.0 0.0 0.0
1799 1 2 0.0 0.0 0.0 0.0
1800 1 2 0.0 0.0 0.0 0.0
1801 1 2 0.0 0.0 0.0 0.0
1802 1 2 0.0 0.0 0.0 0.0
1803 1 2 0.0 0.0 0.0 0.0
1804 1 2 0.0 0.0 0.0 0.0
1805 1 2 0.0 0.0 0.0 0.0
1806 1 2 0.0 0.0 0.0 0.0
1807 1 2 0.0 0.0 0.0 0.0
1808 1 2 0.0 0.0 0.0 0.0
1809 1 2 0.0 0.0 0.0 0.0
1810 1 2 0.0 0.0 0.0 0.0
1811 1 2 0.0 0.0 0.0 0.0
1812 1 2 0.0 0.0 0.0 0.0
1813 1 2 0.0 0.0 0.0 0.0
1814 1 2 0.0 0.0 0.0 0.0
1815 1 2 0.0 0.0 0.0 0.0
1816 1 2 0.0 0.0 0.0 0.0
1817 1 2 0.0 0.0 0.0 0.0
1818 1 2 0.0 0.0 0.0 0.0
1819 1 2 0.0 0.0 0.0 0.0
1820 1 2 0.0 0.0 0.0 0.0
1821 1 2 0.0 0.0 0.0 0.0
1822 1 2 0.0 0.0 0.0 0.0
1823 1 2 0.0 0.0 0.0 0.0
1824 1 2 0.0 0.0 0.0 0.0
1825 1 2 0.0 0.0 0.0 0.0
1826 1 2 0.0 0.0 0.0 0.0
1827 1 2 0.0 0.0 0.0 0.0
1828 1 2 0.0 0.0 0.0 0.0
1829 1 2 0.0 0.0 0.0 0.0
1830 1 2 0.0 0.0 0.0 0.0
1831 1 2 0.0 0.0 0.0 0.0
1832 1 2 0.0 0.0 0.0 0.0
1833 1 2 0.0 0.0 0.0 0.0
1834 1 2 0.0 0.0 0.0 0.0
1835 1 2 0.0 0.0 0.0 0.0
1836 1 2 0.0 0.0 0.0 0.0
1837 1 2 0.0 0.0 0.0 0.0
1838 1 2 0.0 0.0 0.0 0.0
1839 1 2 0.0 0.0 0.0 0.0
1840 1 2 0.0 0.0 0.0 0.0
1841 1 2 0.0 0.0 0.0 0.0
1842 1 2 0.0 0.0 0.0 0.0
1843 1 2 0.0 0.0 0.0 0.0
1844 1 2 0.0 0.0 0.0 0.0
1845 1 2 0.0 0.0 0.0 0.0
1846 1 2 0.0 0.0 0.0 0.0
1847 1 2 0.0 0.0 0.0 0.0
1848 1 2 0.0 0.0 0.0 0.0
1849 1 2 0.0 0.0 0.0 0.0
1850 1 2 0.0 0.0 0.0 0.0
1851 1 2 0.0 0.0 0.0 0.0
1852 1 2 0.0 0.0 0.0 0.0
1853 1 2 0.0 0.0 0.0 0.0
1854 1 2 0.0 0.0 0.0 0.0
1855 1 2 0.0 0.0 0.0 0.0
1856 1 2 0.0 0.0 0.0 0.0
1857 1 2 0.0 0.0 0.0 0.0
1858 1 2 0.0 0.0 0.0 0.0
1859 1 2 0.0 0.0 0.0 0.0
1860 1 2 0.0 0.0 0.0 0.0
1861 1 2 0.0 0.0 0.0 0.0
1862 1 2 0.0 0.0 0.0 0.0
1863 1 2 0.0 0.0 0.0 0.0
1864 1 2 0.0 0.0 0.0 0.0
1865 1 2 0.0 0.0 0.0 0.0
1866 1 2 0.0 0.0 0.0 0.0
1867 1 2 0.0 0.0 0.0 0.0
1868 1 2 0.0 0.0 0.0 0.0
1869 1 2 0.0 0.0 0.0 0.0
1870 1 2 0.0 0.0 0.0 0.0
1871 1 2 0.0 0.0 0.0 0.0
1872 1 2 0.0 0.0 0.0 0.0
1873 1 2 0.0 0.0 0.0 0.0
1874 1 2 0.0 0.0 0.0 0.0
1875 1 2 0.0 0.0 0.0 0.0
1876 1 2 0.0 0.0 0.0 0.0
1877 1 2 0.0 0.0 0.0 0.0
1878 1 2 0.0 0.0 0.0 0.0
1879 1 2 0.0 0.0 0.0 0.0
1880 1 2 0.0 0.0 0.0 0.0
1881 1 2 0.0 0.0 0.0 0.0
1882 1 2 0.0 0.0 0.0 0.0
1883 1 2 0.0 0.0 0.0 0.0
1884 1 2 0.0 0.0 0.0 0.0
1885 1 2 0.0 0.0 0.0 0.0
1886 1 2 0.0 0.0 0.0 0.0
1887 1 2 0.0 0.0 0.0 0.0
1888 1 2 0.0 0.0 0.0 0.0
1889 1 2 0.0 0.0 0.0 0.0
1890 1 2 0.0 0.0 0.0 0.0
1891 1 2 0.0 0.0 0.0 0.0
1892 1 2 0.0 0.0 0.0 0.0
1893 1 2 0.0 0.0 0.0 0.0
1894 1 2 0.0 0.0 0.0 0.0
1895 1 2 0.0 0.0 0.0 0.0
1896 1 2 0.0 0.0 0.0 0.0
1897 1 2 0.0 0.0 0.0 0.0
1898 1 2 0.0 0.0 0.0 0.0
1899 1 2 0.0 0.0 0.0 0.0
1900 1 2 0.0 0.0 0.0 0.0
1901 1 2 0.0 0.0 0.0 0.0
1902 1 2 0.0 0.0 0.0 0.0
1903 1 2 0.0 0.0 0.0 0.0
1904 1 2 0.0 0.0 0.0 0.0
1905 1 2 0.0 0.0 0.0 0.0
1906 1 2 0.0 0.0 0.0 0.0
1907 1 2 0.0 0.0 0.0 0.0
1908 1 2 0.0 0.0 0.0 0.0
1909 1 2 0.0 0.0 0.0 0.0
1910 1 2 0.0 0.0 0.0 0.0
1911 1 2 0.0 0.0 0.0 0.0
1912 1 2 0.0 0.0 0.0 0.0
1913 1 2 0.0 0.0 0.0 0.0
1914 1 2 0.0 0.0 0.0 0.0
1915 1 2 0.0 0.0 0.0 0.0
1916 1 2 0.0 0.0 0.0 0.0
1917 1 2 0.0 0.0 0.0 0.0
1918 1 2 0.0 0.0 0.0 0.0
1919 1 2 0.0 0.0 0.0 0.0
1920 1 2 0.0 0.0 0.0 0.0
1921 1 2 0.0 0.0 0.0 0.0
1922 1 2 0.0 0.0 0.0 0.0
1923 1 2 0.0 0.0 0.0 0.0
1924 1 2 0.0 0.0 0.0 0.0
1925 1 2 0.0 0.0 0.0 0.0
1926 1 2 0.0 0.0 0.0 0.0
1927 1 2 0.0 0.0 0.0 0.0
1928 1 2 0.0 0.0 0.0 0.0
1929 1 2 0.0 0.0 0.0 0.0
1930 1 2 0.0 0.0 0.0 0.0
1931 1 2 0.0 0.0 0.0 0.0
1932 1 2 0.0 0.0 0.0 0.0
1933 1 2 0.0 0.0 0.0 0.0
1934 1 2 0.0 0.0 0.0 0.0
1935 1 2 0.0 0.0 0.0 0.0
1936 1 2 0.0 0.0 0.0 0.0
1937 1 2 0.0 0.0 0.0 0.0
1938 1 2 0.0 0.0 0.0 0.0
1939 1 2 0.0 0.0 0.0 0.0
1940 1 2 0.0 0.0 0.0 0.0
1941 1 2 0.0 0.0 0.0 0.0
1942 1 2 0.0 0.0 0.0 0.0
1943 1 2 0.0 0.0 0.0 0.0
1944 1 2 0.0 0.0 0.0 0.0
1945 1 2 0.0 0.0 0.0 0.0
1946 1 2 0.0 0.0 0.0 0.0
1947 1 2 0.0 0.0 0.0 0.0
1948 1 2 0.0 0.0 0.0 0.0
1949 1 2 0.0 0.0 0.0 0.0
1950 1 2 0.0 0.0 0.0 0.0
1951 1 2 0.0 0.0 0.0 0.0
1952 1 2 0.0 0.0 0.0 0.0
1953 1 2 0.0 0.0 0.0 0.0
1954 1 2 0.0 0.0 0.0 0.0
1955 1 2 0.0 0.0 0.0 0.0
1956 1 2 0.0 0.0 0.0 0.0
1957 1 2 0.0 0.0 0.0 0.0
1958 1 2 0.0 0.0 0.0 0.0
1959 1 2 0.0 0.0 0.0 0.0
1960 1 2 0.0 0.0 0.0 0.0
1961 1 2 0.0 0.0 0.0 0.0
1962 1 2 0.0 0.0 0.0 0.0
1963 1 2 0.0 0.0 0.0 0.0
1964 1 2 0.0 0.0 0.0 0.0
1965 1 2 0.0 0.0 0.0 0.0
1966 1 2 0.0 0.0 0.0 0.0
1967 1 2 0.0 0.0 0.0 0.0
1968 1 2 0.0 0.0 0.0 0.0
1969 1 2 0.0 0.0 0.0 0.0
1970 1 2 0.0 0.0 0.0 0.0
1971 1 2 0.0 0.0 0.0 0.0
1972 1 2 0.0 0.0 0.0 0.0
1973 1 2 0.0 0.0 0.0 0.0
1974 1 2 0.0 0.0 0.0 0.0
1975 1 2 0.0 0.0 0.0 0.0
1976 1 2 0.0 0.0 0.0 0.0
1977 1 2 0.0 0.0 0.0 0.0
1978 1 2 0.0 0.0 0.0 0.0
1979 1 2 0.0 0.0 0.0 0.0
1980 1 2 0.0 0.0 0.0 0.0
1981 1 2 0.0 0.0 0.0 0.0
1982 1 2 0.0 0.0 0.0 0.0
1983 1 2 0.0 0.0 0.0 0.0
1984 1 2 0.0 0.0 0.0 0.0
1985 1 2 0.0 0.0 0.0 0.0
1986 1 2 0.0 0.0 0.0 0.0
1987 1 2 0.0 0.0 0.0 0.0
1988 1 2 0.0 0.0 0.0 0.0
1989 1 2 0.0 0.0 0.0 0.0
1990 1 2 0.0 0.0 0.0 0.0
1991 1 2 0.0 0.0 0.0 0.0
1992 1 2 0.0 0.0 0.0 0.0
1993 1 2 0.0 0.0 0.0 0.0
1994 1 2 0.0 0.0 0.0 0.0
1995 1 2 0.0 0.0 0.0 0.0
1996 1 2 0.0 0.0 0.0 0.0
1997 1 2 0.0 0.0 0.0 0.0
1998 1 2 0.0 0.0 0.0 0.0
1999 1 2 0.0 0.0 0.0 0.0
2000 1 2 0.0 0.0 0.0 0.0
2001 1 2 0.0 0.0 0.0 0.0
2002 1 2 0.0 0.0 0.0 0.0
2003 1 2 0.0 0.0 0.0 0.0
2004 1 2 0.0 0.0 0.0 0.0
2005 1 2 0.0 0.0 0.0 0.0
2006 1 2 0.0 0.0 0.0 0.0
2007 1 2 0.0 0.0 0.0 0.0
2008 1 2 0.0 0.0 0.0 0.0
2009 1 2 0.0 0.0 0.0 0.0
2010 1 2 0.0 0.0 0.0 0.0
2011 1 2 0.0 0.0 0.0 0.0
2012 1 2 0.0 0.0 0.0 0.0
2013 1 2 0.0 0.0 0.0 0.0
2014 1 2 0.0 0.0 0.0 0.0
2015 1 2 0.0 0.0 0.0 0.0
2016 1 2 0.0 0.0 0.0 0.0
2017 1 2 0.0 0.0 0.0 0.0
2018 1 2 0.0 0.0 0.0 0.0
2019 1 2 0.0 0.0 0.0 0.0
2020 1 2 0.0 0.0 0.0 0.0
2021 1 2 0.0 0.0 0.0 0.0
2022 1 2 0.0 0.0 0.0 0.0
2023 1 2 0.0 0.0 0.0 0.0
2024 1 2 0.0 0.0 0.0 0.0
2025 1 2 0.0 0.0 0.0 0.0
2026 1 2 0.0 0.0 0.0 0.0
2027 1 2 0.0 0.0 0.0 0.0
2028 1 2 0.0 0.0 0.0 0.0
2029 1 2 0.0 0.0 0.0 0.0
2030 1 2 0.0 0.0 0.0 0.0
2031 1 2 0.0 0.0 0.0 0.0
2032 1 2 0.0 0.0 0.0 0.0
2033 1 2 0.0 0.0 0.0 0.0
2034 1 2 0.0 0.0 0.0 0.0
2035 1 2 0.0 0.0 0.0 0.0
2036 1 2 0.0 0.0 0.0 0.0
2037 1 2 0.0 0.0 0.0 0.0
2038 1 2 0.0 0.0 0.0 0.0
2039 1 2 0.0 0.0 0.0 0.0
2040 1 2 0.0 0.0 0.0 0.0
2041 1 2 0.0 0.0 0.0 0.0
2042 1 2 0.0 0.0 0.0 0.0
2043 1 2 0.0 0.0 0.0 0.0
2044 1 2 0.0 0.0 0.0 0.0
2045 1 2 0.0 0.0 0.0 0.0
2046 1 2 0.0 0.0 0.0 0.0
2047 1 2 0.0 0.0 0.0 0.0
2048 1 2 0.0 0.0 0.0 0.0
2049 1 2 0.0 0.0 0.0 0.0
2050 1 2 0.0 0.0 0.0 0.0
2051 1 2 0.0 0.0 0.0 0.0
2052 1 2 0.0 0.0 0.0 0.0
2053 1 2 0.0 0.0 0.0 0.0
2054 1 2 0.0 0.0 0.0 0.0
2055 1 2 0.0 0.0 0.0 0.0
2056 1 2 0.0 0.0 0.0 0.0
2057 1 2 0.0 0.0 0.0 0.0
2058 1 2 0.0 0.0 0.0 0.0
2059 1 2 0.0 0.0 0.0 0.0
2060 1 2 0.0 0.0 0.0 0.0
2061 1 2 0.0 0.0 0.0 0.0
2062 1 2 0.0 0.0 0.0 0.0
2063 1 2 0.0 0.0 0.0 0.0
2064 1 2 0.0 0.0 0.0 0.0
2065 1 2 0.0 0.0 0.0 0.0
2066 1 2 0.0 0.0 0.0 0.0
2067 1 2 0.0 0.0 0.0 0.0
2068 1 2 0.0 0.0 0.0 0.0
2069 1 2 0.0 0.0 0.0 0.0
2070 1 2 0.0 0.0 0.0 0.0
2071 1 2 0.0 0.0 0.0 0.0
2072 1 2 0.0 0.0 0.0 0.0
2073 1 2 0.0 0.0 0.0 0.0
2074 1 2 0.0 0.0 0.0 0.0
2075 1 2 0.0 0.0 0.0 0.0
2076 1 2 0.0 0.0 0.0 0.0
2077 1 2 0.0 0.0 0.0 0.0
2078 1 2 0.0 0.0 0.0 0.0
2079 1 2 0.0 0.0 0.0 0.0
2080 1 2 0.0 0.0 0.0 0.0
2081 1 2 0.0 0.0 0.0 0.0
2082 1 2 0.0 0.0 0.0 0.0
2083 1 2 0.0 0.0 0.0 0.0
2084 1 2 0.0 0.0 0.0 0.0
2085 1 2 0.0 0.0 0.0 0.0
2086 1 2 0.0 0.0 0.0 0.0
2087 1 2 0.0 0.0 0.0 0.0
2088 1 2 0.0 0.0 0.0 0.0
2089 1 2 0.0 0.0 0.0 0.0
2090 1 2 0.0 0.0 0.0 0.0
2091 1 2 0.0 0.0 0.0 0.0
2092 1 2 0.0 0.0 0.0 0.0
2093 1 2 0.0 0.0 0.0 0.0
2094 1 2 0.0 0.0 0.0 0.0
2095 1 2 0.0 0.0 0.0 0.0
2096 1 2 0.0 0.0 0.0 0.0
2097 1 2 0.0 0.0 0.0 0.0
2098 1 2 0.0 0.0 0.0 0.0
2099 1 2 0.0 0.0 0.0 0.0
2100 1 2 0.0 0.0 0.0 0.0
2101 1 2 0.0 0.0 0.0 0.0
2102 1 2 0.0 0.0 0.0 0.0
2103 1 2 0.0 0.0 0.0 0.0
2104 1 2 0.0 0.0 0.0 0.0
2105 1 2 0.0 0.0 0.0 0.0
2106 1 2 0.0 0.0 0.0 0.0
2107 1 2 0.0 0.0 0.0 0.0
2108 1 2 0.0 0.0 0.0 0.0
2109 1 2 0.0 0.0 0.0 0.0
2110 1 2 0.0 0.0 0.0 0.0
2111 1 2 0.0 0.0 0.0 0.0
2112 1 2 0.0 0.0 0.0 0.0
2113 1 2 0.0 0.0 0.0 0.0
2114 1 2 0.0 0.0 0.0 0.0
2115 1 2 0.0 0.0 0.0 0.0
2116 1 2 0.0 0.0 0.0 0.0
2117 1 2 0.0 0.0 0.0 0.0
2118 1 2 0.0 0.0 0.0 0.0
2119 1 2 0.0 0.0 0.0 0.0
2120 1 2 0.0 0.0 0.0 0.0
2121 1 2 0.0 0.0 0.0 0.0
2122 1 2 0.0 0.0 0.0 0.0
2123 1 2 0.0 0.0 0.0 0.0
2124 1 2 0.0 0.0 0.0 0.0
2125 1 2 0.0 0.0 0.0 0.0
2126 1 2 0.0 0.0 0.0 0.0
2127 1 2 0.0 0.0 0.0 0.0
2128 1 2 0.0 0.0 0.0 0.0
2129 1 2 0.0 0.0 0.0 0.0
2130 1 2 0.0 0.0 0.0 0.0
2131 1 2 0.0 0.0 0.0 0.0
2132 1 2 0.0 0.0 0.0 0.0
2133 1 2 0.0 0.0 0.0 0.0
2134 1 2 0.0 0.0 0.0 0.0
2135 1 2 0.0 0.0 0.0 0.0
2136 1 2 0.0 0.0 0.0 0.0
2137 1 2 0.0 0.0 0.0 0.0
2138 1 2 0.0 0.0 0.0 0.0
2139 1 2 0.0 0.0 0.0 0.0
2140 1 2 0.0 0.0 0.0 0.0
2141 1 2 0.0 0.0 0.0 0.0
2142 1 2 0.0 0.0 0.0 0.0
2143 1 2 0.0 0.0 0.0 0.0
2144 1 2 0.0 0.0 0.0 0.0
2145 1 2 0.0 0.0 0.0 0.0
2146 1 2 0.0 0.0 0.0 0.0
2147 1 2 0.0 0.0 0.0 0.0
2148 1 2 0.0 0.0 0.0 0.0
2149 1 2 0.0 0.0 0.0 0.0
2150 1 2 0.0 0.0 0.0 0.0
2151 1 2 0.0 0.0 0.0 0.0
2152 1 2 0.0 0.0 0.0 0.0
2153 1 2 0.0 0.0 0.0 0.0
2154 1 2 0.0 0.0 0.0 0.0
2155 1 2 0.0 0.0 0.0 0.0
2156 1 2 0.0 0.0 0.0 0.0
2157 1 2 0.0 0.0 0.0 0.0
2158 1 2 0.0 0.0 0.0 0.0
2159 1 2 0.0 0.0 0.0 0.0
2160 1 2 0.0 0.0 0.0 0.0
2161 1 2 0.0 0.0 0.0 0.0
2162 1 2 0.0 0.0 0.0 0.0
2163 1 2 0.0 0.0 0.0 0.0
2164 1 2 0.0 0.0 0.0 0.0
2165 1 2 0.0 0.0 0.0 0.0
2166 1 2 0.0 0.0 0.0 0.0
2167 1 2 0.0 0.0 0.0 0.0
2168 1 2 0.0 0.0 0.0 0.0
2169 1 2 0.0 0.0 0.0 0.0
2170 1 2 0.0 0.0 0.0 0.0
2171 1 2 0.0 0.0 0.0 0.0
2172 1 2 0.0 0.0 0.0 0.0
2173 1 2 0.0 0.0 0.0 0.0
2174 1 2 0.0 0.0 0.0 0.0
2175 1 2 0.0 0.0 0.0 0.0
2176 1 2 0.0 0.0 0.0 0.0
2177 1 2 0.0 0.0 0.0 0.0
2178 1 2 0.0 0.0 0.0 0.0
2179 1 2 0.0 0.0 0.0 0.0
2180 1 2 0.0 0.0 0.0 0.0
2181 1 2 0.0 0.0 0.0 0.0
2182 1 2 0.0 0.0 0.0 0.0
2183 1 2 0.0 0.0 0.0 0.0
2184 1 2 0.0 0.0 0.0 0.0
2185 1 2 0.0 0.0 0.0 0.0
2186 1 2 0.0 0.0 0.0 0.0
2187 1 2 0.0 0.0 0.0 0.0
2188 1 2 0.0 0.0 0.0 0.0
2189 1 2 0.0 0.0 0.0 0.0
2190 1 2 0.0 0.0 0.0 0.0
2191 1 2 0.0 0.0 0.0 0.0
2192 1 2 0.0 0.0 0.0 0.0
2193 1 2 0.0 0.0 0.0 0.0
2194 1 2 0.0 0.0 0.0 0.0
2195 1 2 0.0 0.0 0.0 0.0
2196 1 2 0.0 0.0 0.0 0.0
2197 1 2 0.0 0.0 0.0 0.0
2198 1 2 0.0 0.0 0.0 0.0
2199 1 2 0.0 0.0 0.0 0.0
2200 1 2 0.0 0.0 0.0 0.0
2201 1 2 0.0 0.0 0.0 0.0
2202 1 2 0.0 0.0 0.0 0.0
2203 1 2 0.0 0.0 0.0 0.0
2204 1 2 0.0 0.0 0.0 0.0
2205 1 2 0.0 0.0 0.0 0.0
2206 1 2 0.0 0.0 0.0 0.0
2207 1 2 0.0 0.0 0.0 0.0
2208 1 2 0.0 0.0 0.0 0.0
2209 1 2 0.0 0.0 0.0 0.0
2210 1 2 0.0 0.0 0.0 0.0
2211 1 2 0.0 0.0 0.0 0.0
2212 1 2 0.0 0.0 0.0 0.0
2213 1 2 0.0 0.0 0.0 0.0
2214 1 2 0.0 0.0 0.0 0.0
2215 1 2 0.0 0.0 0.0 0.0
2216 1 2 0.0 0.0 0.0 0.0
2217 1 2 0.0 0.0 0.0 0.0
2218 1 2 0.0 0.0 0.0 0.0
2219 1 2 0.0 0.0 0.0 0.0
2220 1 2 0.0 0.0 0.0 0.0
2221 1 2 0.0 0.0 0.0 0.0
2222 1 2 0.0 0.0 0.0 0.0
2223 1 2 0.0 0.0 0.0 0.0
2224 1 2 0.0 0.0 0.0 0.0
2225 1 2 0.0 0.0 0.0 0.0
2226 1 2 0.0 0.0 0.0 0.0
2227 1 2 0.0 0.0 0.0 0.0
2228 1 2 0.0 0.0 0.0 0.0
2229 1 2 0.0 0.0 0.0 0.0
2230 1 2 0.0 0.0 0.0 0.0
2231 1 2 0.0 0.0 0.0 0.0
2232 1 2 0.0 0.0 0.0 0.0
2233 1 2 0.0 0.0 0.0 0.0
2234 1 2 0.0 0.0 0.0 0.0
2235 1 2 0.0 0.0 0.0 0.0
2236 1 2 0.0 0.0 0.0 0.0
2237 1 2 0.0 0.0 0.0 0.0
2238 1 2 0.0 0.0 0.0 0.0
2239 1 2 0.0 0.0 0.0 0.0
2240 1 2 0.0 0.0 0.0 0.0
2241 1 2 0.0 0.0 0.0 0.0
2242 1 2 0.0 0.0 0.0 0.0
2243 1 2 0.0 0.0 0.0 0.0
2244 1 2 0.0 0.0 0.0 0.0
2245 1 2 0.0 0.0 0.0 0.0
2246 1 2 0.0 0.0 0.0 0.0
2247 1 2 0.0 0.0 0.0 0.0
2248 1 2 0.0 0.0 0.0 0.0
2249 1 2 0.0 0.0 0.0 0.0
2250 1 2 0.0 0.0 0.0 0.0
2251 1 2 0.0 0.0 0.0 0.0
2252 1 2 0.0 0.0 0.0 0.0
2253 1 2 0.0 0.0 0.0 0.0
2254 1 2 0.0 0.0 0.0 0.0
2255 1 2 0.0 0.0 0.0 0.0
2256 1 2 0.0 0.0 0.0 0.0
2257 1 2 0.0 0.0 0.0 0.0
2258 1 2 0.0 0.0 0.0 0.0
2259 1 2 0.0 0.0 0.0 0.0
2260 1 2 0.0 0.0 0.0 0.0
2261 1 2 0.0 0.0 0.0 0.0
2262 1 2 0.0 0.0 0.0 0.0
2263 1 2 0.0 0.0 0.0 0.0
2264 1 2 0.0 0.0 0.0 0.0
2265 1 2 0.0 0.0 0.0 0.0
2266 1 2 0.0 0.0 0.0 0.0
2267 1 2 0.0 0.0 0.0 0.0
2268 1 2 0.0 0.0 0.0 0.0
2269 1 2 0.0 0.0 0.0 0.0
2270 1 2 0.0 0.0 0.0 0.0
2271 1 2 0.0 0.0 0.0 0.0
2272 1 2 0.0 0.0 0.0 0.0
2273 1 2 0.0 0.0 0.0 0.0
2274 1 2 0.0 0.0 0.0 0.0
2275 1 2 0.0 0.0 0.0 0.0
2276 1 2 0.0 0.0 0.0 0.0
2277 1 2 0.0 0.0 0.0 0.0
2278 1 2 0.0 0.0 0.0 0.0
2279 1 2 0.0 0.0 0.0 0.0
2280 1 2 0.0 0.0 0.0 0.0
2281 1 2 0.0 0.0 0.0 0.0
2282 1 2 0.0 0.0 0.0 0.0
2283 1 2 0.0 0.0 0.0 0.0
2284 1 2 0.0 0.0 0.0 0.0
2285 1 2 0.0 0.0 0.0 0.0
2286 1 2 0.0 0.0 0.0 0.0
2287 1 2 0.0 0.0 0.0 0.0
2288 1 2 0.0 0.0 0.0 0.0
2289 1 2 0.0 0.0 0.0 0.0
2290 1 2 0.0 0.0 0.0 0.0
2291 1 2 0.0 0.0 0.0 0.0
2292 1 2 0.0 0.0 0.0 0.0
2293 1 2 0.0 0.0 0.0 0.0
2294 1 2 0.0 0.0 0.0 0.0
2295 1 2 0.0 0.0 0.0 0.0
2296 1 2 0.0 0.0 0.0 0.0
2297 1 2 0.0 0.0 0.0 0.0
2298 1 2 0.0 0.0 0.0 0.0
2299 1 2 0.0 0.0 0.0 0.0
2300 1 2 0.0 0.0 0.0 0.0
2301 1 2 0.0 0.0 0.0 0.0
2302 1 2 0.0 0.0 0.0 0.0
2303 1 2 0.0 0.0 0.0 0.0
2304 1 2 0.0 0.0 0.0 0.0
2305 1 2 0.0 0.0 0.0 0.0
2306 1 2 0.0 0.0 0.0 0.0
2307 1 2 0.0 0.0 0.0 0.0
2308 1 2 0.0 0.0 0.0 0.0
2309 1 2 0.0 0.0 0.0 0.0
2310 1 2 0.0 0.0 0.0 0.0
2311 1 2 0.0 0.0 0.0 0.0
2312 1 2 0.0 0.0 0.0 0.0
2313 1 2 0.0 0.0 0.0 0.0
2314 1 2 0.0 0.0 0.0 0.0
2315 1 2 0.0 0.0 0.0 0.0
2316 1 2 0.0 0.0 0.0 0.0
2317 1 2 0.0 0.0 0.0 0.0
2318 1 2 0.0 0.0 0.0 0.0
2319 1 2 0.0 0.0 0.0 0.0
2320 1 2 0.0 0.0 0.0 0.0
2321 1 2 0.0 0.0 0.0 0.0
2322 1 2 0.0 0.0 0.0 0.0
2323 1 2 0.0 0.0 0.0 0.0
2324 1 2 0.0 0.0 0.0 0.0
2325 1 2 0.0 0.0 0.0 0.0
2326 1 2 0.0 0.0 0.0 0.0
2327 1 2 0.0 0.0 0.0 0.0
2328 1 2 0.0 0.0 0.0 0.0
2329 1 2 0.0 0.0 0.0 0.0
2330 1 2 0.0 0.0 0.0 0.0
2331 1 2 0.0 0.0 0.0 0.0
2332 1 2 0.0 0.0 0.0 0.0
2333 1 2 0.0 0.0 0.0 0.0
2334 1 2 0.0 0.0 0.0 0.0
2335 1 2 0.0 0.0 0.0 0.0
2336 1 2 0.0 0.0 0.0 0.0
2337 1 2 0.0 0.0 0.0 0.0
2338 1 2 0.0 0.0 0.0 0.0
2339 1 2 0.0 0.0 0.0 0.0
2340 1 2 0.0 0.0 0.0 0.0
2341 1 2 0.0 0.0 0.0 0.0
2342 1 2 0.0 0.0 0.0 0.0
2343 1 2 0.0 0.0 0.0 0.0
2344 1 2 0.0 0.0 0.0 0.0
2345 1 2 0.0 0.0 0.0 0.0
2346 1 2 0.0 0.0 0.0 0.0
2347 1 2 0.0 0.0 0.0 0.0
2348 1 2 0.0 0.0 0.0 0.0
2349 1 2 0.0 0.0 0.0 0.0
2350 1 2 0.0 0.0 0.0 0.0
2351 1 2 0.0 0.0 0.0 0.0
2352 1 2 0.0 0.0 0.0 0.0
2353 1 2 0.0 0.0 0.0 0.0
2354 1 2 0.0 0.0 0.0 0.0
2355 1 2 0.0 0.0 0.0 0.0
2356 1 2 0.0 0.0 0.0 0.0
2357 1 2 0.0 0.0 0.0 0.0
2358 1 2 0.0 0.0 0.0 0.0
2359 1 2 0.0 0.0 0.0 0.0
2360 1 2 0.0 0.0 0.0 0.0
2361 1 2 0.0 0.0 0.0 0.0
2362 1 2 0.0 0.0 0.0 0.0
2363 1 2 0.0 0.0 0.0 0.0
2364 1 2 0.0 0.0 0.0 0.0
2365 1 2 0.0 0.0 0.0 0.0
2366 1 2 0.0 0.0 0.0 0.0
2367 1 2 0.0 0.0 0.0 0.0
2368 1 2 0.0 0.0 0.0 0.0
2369 1 2 0.0 0.0 0.0 0.0
2370 1 2 0.0 0.0 0.0 0.0
2371 1 2 0.0 0.0 0.0 0.0
2372 1 2 0.0 0.0 0.0 0.0
2373 1 2 0.0 0.0 0.0 0.0
2374 1 2 0.0 0.0 0.0 0.0
2375 1 2 0.0 0.0 0.0 0.0
2376 1 2 0.0 0.0 0.0 0.0
2377 1 2 0.0 0.0 0.0 0.0
2378 1 2 0.0 0.0 0.0 0.0
2379 1 2 0.0 0.0 0.0 0.0
2380 1 2 0.0 0.0 0.0 0.0
2381 1 2 0.0 0.0 0.0 0.0
2382 1 2 0.0 0.0 0.0 0.0
2383 1 2 0.0 0.0 0.0 0.0
2384 1 2 0.0 0.0 0.0 0.0
2385 1 2 0.0 0.0 0.0 0.0
2386 1 2 0.0 0.0 0.0 0.0
2387 1 2 0.0 0.0 0.0 0.0
2388 1 2 0.0 0.0 0.0 0.0
2389 1 2 0.0 0.0 0.0 0.0
2390 1 2 0.0 0.0 0.0 0.0
2391 1 2 0.0 0.0 0.0 0.0
2392 1 2 0.0 0.0 0.0 0.0
2393 1 2 0.0 0.0 0.0 0.0
2394 1 2 0.0 0.0 0.0 0.0
2395 1 2 0.0 0.0 0.0 0.0
2396 1 2 0.0 0.0 0.0 0.0
2397 1 2 0.0 0.0 0.0 0.0
2398 1 2 0.0 0.0 0.0 0.0
2399 1 2 0.0 0.0 0.0 0.0
2400 1 2 0.0 0.0 0.0 0.0
2401 1 2 0.0 0.0 0.0 0.0
2402 1 2 0.0 0.0 0.0 0.0
2403 1 2 0.0 0.0 0.0 0.0
2404 1 2 0.0 0.0 0.0 0.0
2405 1 2 0.0 0.0 0.0 0.0
2406 1 2 0.0 0.0 0.0 0.0
2407 1 2 0.0 0.0 0.0 0.0
2408 1 2 0.0 0.0 0.0 0.0
2409 1 2 0.0 0.0 0.0 0.0
2410 1 2 0.0 0.0 0.0 0.0
2411 1 2 0.0 0.0 0.0 0.0
2412 1 2 0.0 0.0 0.0 0.0
2413 1 2 0.0 0.0 0.0 0.0
2414 1 2 0.0 0.0 0.0 0.0
2415 1 2 0.0 0.0 0.0 0.0
2416 1 2 0.0 0.0 0.0 0.0
2417 1 2 0.0 0.0 0.0 0.0
2418 1 2 0.0 0.0 0.0 0.0
2419 1 2 0.0 0.0 0.0 0.0
2420 1 2 0.0 0.0 0.0 0.0
2421 1 2 0.0 0.0 0.0 0.0
2422 1 2 0.0 0.0 0.0 0.0
2423 1 2 0.0 0.0 0.0 0.0
2424 1 2 0.0 0.0 0.0 0.0
2425 1 2 0.0 0.0 0.0 0.0
2426 1 2 0.0 0.0 0.0 0.0
2427 1 2 0.0 0.0 0.0 0.0
2428 1 2 0.0 0.0 0.0 0.0
2429 1 2 0.0 0.0 0.0 0.0
2430 1 2 0.0 0.0 0.0 0.0
2431 1 2 0.0 0.0 0.0 0.0
2432 1 2 0.0 0.0 0.0 0.0
2433 1 2 0.0 0.0 0.0 0.0
2434 1 2 0.0 0.0 0.0 0.0
2435 1 2 0.0 0.0 0.0 0.0
2436 1 2 0.0 0.0 0.0 0.0
2437 1 2 0.0 0.0 0.0 0.0
2438 1 2 0.0 0.0 0.0 0.0
2439 1 2 0.0 0.0 0.0 0.0
2440 1 2 0.0 0.0 0.0 0.0
2441 1 2 0.0 0.0 0.0 0.0
2442 1 2 0.0 0.0 0.0 0.0
2443 1 2 0.0 0.0 0.0 0.0
2444 1 2 0.0 0.0 0.0 0.0
2445 1 2 0.0 0.0 0.0 0.0
2446 1 2 0.0 0.0 0.0 0.0
2447 1 2 0.0 0.0 0.0 0.0
2448 1 2 0.0 0.0 0.0 0.0
2449 1 2 0.0 0.0 0.0 0.0
2450 1 2 0.0 0.0 0.0 0.0
2451 1 2 0.0 0.0 0.0 0.0
2452 1 2 0.0 0.0 0.0 0.0
2453 1 2 0.0 0.0 0.0 0.0
2454 1 2 0.0 0.0 0.0 0.0
2455 1 2 0.0 0.0 0.0 0.0
2456 1 2 0.0 0.0 0.0 0.0
2457 1 2 0.0 0.0 0.0 0.0
2458 1 2 0.0 0.0 0.0 0.0
2459 1 2 0.0 0.0 0.0 0.0
2460 1 2 0.0 0.0 0.0 0.0
2461 1 2 0.0 0.0 0.0 0.0
2462 1 2 0.0 0.0 0.0 0.0
2463 1 2 0.0 0.0 0.0 0.0
2464 1 2 0.0 0.0 0.0 0.0
2465 1 2 0.0 0.0 0.0 0.0
2466 1 2 0.0 0.0 0.0 0.0
2467 1 2 0.0 0.0 0.0 0.0
2468 1 2 0.0 0.0 0.0 0.0
2469 1 2 0.0 0.0 0.0 0.0
2470 1 2 0.0 0.0 0.0 0.0
2471 1 2 0.0 0.0 0.0 0.0
2472 1 2 0.0 0.0 0.0 0.0
2473 1 2 0.0 0.0 0.0 0.0
2474 1 2 0.0 0.0 0.0 0.0
2475 1 2 0.0 0.0 0.0 0.0
2476 1 2 0.0 0.0 0.0 0.0
2477 1 2 0.0 0.0 0.0 0.0
2478 1 2 0.0 0.0 0.0 0.0
2479 1 2 0.0 0.0 0.0 0.0
2480 1 2 0.0 0.0 0.0 0.0
2481 1 2 0.0 0.0 0.0 0.0
2482 1 2 0.0 0.0 0.0 0.0
2483 1 2 0.0 0.0 0.0 0.0
2484 1 2 0.0 0.0 0.0 0.0
2485 1 2 0.0 0.0 0.0 0.0
2486 1 2 0.0 0.0 0.0 0.0
2487 1 2 0.0 0.0 0.0 0.0
2488 1 2 0.0 0.0 0.0 0.0
2489 1 2 0.0 0.0 0.0 0.0
2490 1 2 0.0 0.0 0.0 0.0
2491 1 2 0.0 0.0 0.0 0.0
2492 1 2 0.0 0.0 0.0 0.0
2493 1 2 0.0 0.0 0.0 0.0
2494 1 2 0.0 0.0 0.0 0.0
2495 1 2 0.0 0.0 0.0 0.0
2496 1 2 0.0 0.0 0.0 0.0
2497 1 2 0.0 0.0 0.0 0.0
2498 1 2 0.0 0.0 0.0 0.0
2499 1 2 0.0 0.0 0.0 0.0
2500 1 2 0.0 0.0 0.0 0.0
2501 1 2 0.0 0.0 0.0 0.0
2502 1 2 0.0 0.0 0.0 0.0
2503 1 2 0.0 0.0 0.0 0.0
2504 1 2 0.0 0.0 0.0 0.0
2505 1 2 0.0 0.0 0.0 0.0
2506 1 2 0.0 0.0 0.0 0.0
2507 1 2 0.0 0.0 0.0 0.0
2508 1 2 0.0 0.0 0.0 0.0
2509 1 2 0.0 0.0 0.0 0.0
2510 1 2 0.0 0.0 0.0 0.0
2511 1 2 0.0 0.0 0.0 0.0
2512 1 2 0.0 0.0 0.0 0.0
2513 1 2 0.0 0.0 0.0 0.0
2514 1 2 0.0 0.0 0.0 0.0
2515 1 2 0.0 0.0 0.0 0.0
2516 1 2 0.0 0.0 0.0 0.0
2517 1 2 0.0 0.0 0.0 0.0
2518 1 2 0.0 0.0 0.0 0.0
2519 1 2 0.0 0.0 0.0 0.0
2520 1 2 0.0 0.0 0.0 0.0
2521 1 2 0.0 0.0 0.0 0.0
2522 1 2 0.0 0.0 0.0 0.0
2523 1 2 0.0 0.0 0.0 0.0
2524 1 2 0.0 0.0 0.0 0.0
2525 1 2 0.0 0.0 0.0 0.0
2526 1 2 0.0 0.0 0.0 0.0
2527 1 2 0.0 0.0 0.0 0.0
2528 1 2 0.0 0.0 0.0 0.0
2529 1 2 0.0 0.0 0.0 0.0
2530 1 2 0.0 0.0 0.0 0.0
2531 1 2 0.0 0.0 0.0 0.0
2532 1 2 0.0 0.0 0.0 0.0
2533 1 2 0.0 0.0 0.0 0.0
2534 1 2 0.0 0.0 0.0 0.0
2535 1 2 0.0 0.0 0.0 0.0
2536 1 2 0.0 0.0 0.0 0.0
2537 1 2 0.0 0.0 0.0 0.0
2538 1 2 0.0 0.0 0.0 0.0
2539 1 2 0.0 0.0 0.0 0.0
2540 1 2 0.0 0.0 0.0 0.0
2541 1 2 0.0 0.0 0.0 0.0
2542 1 2 0.0 0.0 0.0 0.0
2543 1 2 0.0 0.0 0.0 0.0
2544 1 2 0.0 0.0 0.0 0.0
2545 1 2 0.0 0.0 0.0 0.0
2546 1 2 0.0 0.0 0.0 0.0
2547 1 2 0.0 0.0 0.0 0.0
2548 1 2 0.0 0.0 0.0 0.0
2549 1 2 0.0 0.0 0.0 0.0
2550 1 2 0.0 0.0 0.0 0.0
2551 1 2 0.0 0.0 0.0 0.0
2552 1 2 0.0 0.0 0.0 0.0
2553 1 2 0.0 0.0 0.0 0.0
2554 1 2 0.0 0.0 0.0 0.0
2555 1 2 0.0 0.0 0.0 0.0
2556 1 2 0.0 0.0 0.0 0.0
2557 1 2 0.0 0.0 0.0 0.0
2558 1 2 0.0 0.0 0.0 0.0
2559 1 2 0.0 0.0 0.0 0.0
2560 1 2 0.0 0.0 0.0 0.0
2561 1 2 0.0 0.0 0.0 0.0
2562 1 2 0.0 0.0 0.0 0.0
2563 1 2 0.0 0.0 0.0 0.0
2564 1 2 0.0 0.0 0.0 0.0
2565 1 2 0.0 0.0 0.0 0.0
2566 1 2 0.0 0.0 0.0 0.0
2567 1 2 0.0 0.0 0.0 0.0
2568 1 2 0.0 0.0 0.0 0.0
2569 1 2 0.0 0.0 0.0 0.0
2570 1 2 0.0 0.0 0.0 0.0
2571 1 2 0.0 0.0 0.0 0.0
2572 1 2 0.0 0.0 0.0 0.0
2573 1 2 0.0 0.0 0.0 0.0
2574 1 2 0.0 0.0 0.0 0.0
2575 1 2 0.0 0.0 0.0 0.0
2576 1 2 0.0 0.0 0.0 0.0
2577 1 2 0.0 0.0 0.0 0.0
2578 1 2 0.0 0.0 0.0 0.0
2579 1 2 0.0 0.0 0.0 0.0
2580 1 2 0.0 0.0 0.0 0.0
2581 1 2 0.0 0.0 0.0 0.0
2582 1 2 0.0 0.0 0.0 0.0
2583 1 2 0.0 0.0 0.0 0.0
2584 1 2 0.0 0.0 0.0 0.0
2585 1 2 0.0 0.0 0.0 0.0
2586 1 2 0.0 0.0 0.0 0.0
2587 1 2 0.0 0.0 0.0 0.0
2588 1 2 0.0 0.0 0.0 0.0
2589 1 2 0.0 0.0 0.0 0.0
2590 1 2 0.0 0.0 0.0 0.0
2591 1 2 0.0 0.0 0.0 0.0
2592 1 2 0.0 0.0 0.0 0.0
2593 1 2 0.0 0.0 0.0 0.0
2594 1 2 0.0 0.0 0.0 0.0
2595 1 2 0.0 0.0 0.0 0.0
2596 1 2 0.0 0.0 0.0 0.0
2597 1 2 0.0 0.0 0.0 0.0
2598 1 2 0.0 0.0 0.0 0.0
2599 1 2 0.0 0.0 0.0 0.0
2600 1 2 0.0 0.0 0.0 0.0
2601 1 2 0.0 0.0 0.0 0.0
2602 1 2 0.0 0.0 0.0 0.0
2603 1 2 0.0 0.0 0.0 0.0
2604 1 2 0.0 0.0 0.0 0.0
2605 1 2 0.0 0.0 0.0 0.0
2606 1 2 0.0 0.0 0.0 0.0
2607 1 2 0.0 0.0 0.0 0.0
2608 1 2 0.0 0.0 0.0 0.0
2609 1 2 0.0 0.0 0.0 0.0
2610 1 2 0.0 0.0 0.0 0.0
2611 1 2 0.0 0.0 0.0 0.0
2612 1 2 0.0 0.0 0.0 0.0
2613 1 2 0.0 0.0 0.0 0.0
2614 1 2 0.0 0.0 0.0 0.0
2615 1 2 0.0 0.0 0.0 0.0
2616 1 2 0.0 0.0 0.0 0.0
2617 1 2 0.0 0.0 0.0 0.0
2618 1 2 0.0 0.0 0.0 0.0
2619 1 2 0.0 0.0 0.0 0.0
2620 1 2 0.0 0.0 0.0 0.0
2621 1 2 0.0 0.0 0.0 0.0
2622 1 2 0.0 0.0 0.0 0.0
2623 1 2 0.0 0.0 0.0 0.0
2624 1 2 0.0 0.0 0.0 0.0
2625 1 2 0.0 0.0 0.0 0.0
2626 1 2 0.0 0.0 0.0 0.0
2627 1 2 0.0 0.0 0.0 0.0
2628 1 2 0.0 0.0 0.0 0.0
2629 1 2 0.0 0.0 0.0 0.0
2630 1 2 0.0 0.0 0.0 0.0
2631 1 2 0.0 0.0 0.0 0.0
2632 1 2 0.0 0.0 0.0 0.0
2633 1 2 0.0 0.0 0.0 0.0
2634 1 2 0.0 0.0 0.0 0.0
2635 1 2 0.0 0.0 0.0 0.0
2636 1 2 0.0 0.0 0.0 0.0
2637 1 2 0.0 0.0 0.0 0.0
2638 1 2 0.0 0.0 0.0 0.0
2639 1 2 0.0 0.0 0.0 0.0
2640 1 2 0.0 0.0 0.0 0.0
2641 1 2 0.0 0.0 0.0 0.0
2642 1 2 0.0 0.0 0.0 0.0
2643 1 2 0.0 0.0 0.0 0.0
2644 1 2 0.0 0.0 0.0 0.0
2645 1 2 0.0 0.0 0.0 0.0
2646 1 2 0.0 0.0 0.0 0.0
2647 1 2 0.0 0.0 0.0 0.0
2648 1 2 0.0 0.0 0.0 0.0
2649 1 2 0.0 0.0 0.0 0.0
2650 1 2 0.0 0.0 0.0 0.0
2651 1 2 0.0 0.0 0.0 0.0
2652 1 2 0.0 0.0 0.0 0.0
2653 1 2 0.0 0.0 0.0 0.0
2654 1 2 0.0 0.0 0.0 0.0
2655 1 2 0.0 0.0 0.0 0.0
2656 1 2 0.0 0.0 0.0 0.0
2657 1 2 0.0 0.0 0.0 0.0
2658 1 2 0.0 0.0 0.0 0.0
2659 1 2 0.0 0.0 0.0 0.0
2660 1 2 0.0 0.0 0.0 0.0
2661 1 2 0.0 0.0 0.0 0.0
2662 1 2 0.0 0.0 0.0 0.0
2663 1 2 0.0 0.0 0.0 0.0
2664 1 2 0.0 0.0 0.0 0.0
2665 1 2 0.0 0.0 0.0 0.0
2666 1 2 0.0 0.0 0.0 0.0
2667 1 2 0.0 0.0 0.0 0.0
2668 1 2 0.0 0.0 0.0 0.0
2669 1 2 0.0 0.0 0.0 0.0
2670 1 2 0.0 0.0 0.0 0.0
2671 1 2 0.0 0.0 0.0 0.0
2672 1 2 0.0 0.0 0.0 0.0
2673 1 2 0.0 0.0 0.0 0.0
2674 1 2 0.0 0.0 0.0 0.0
2675 1 2 0.0 0.0 0.0 0.0
2676 1 2 0.0 0.0 0.0 0.0
2677 1 2 0.0 0.0 0.0 0.0
2678 1 2 0.0 0.0 0.0 0.0
2679 1 2 0.0 0.0 0.0 0.0
2680 1 2 0.0 0.0 0.0 0.0
2681 1 2 0.0 0.0 0.0 0.0
2682 1 2 0.0 0.0 0.0 0.0
2683 1 2 0.0 0.0 0.0 0.0
2684 1 2 0.0 0.0 0.0 0.0
2685 1 2 0.0 0.0 0.0 0.0
2686 1 2 0.0 0.0 0.0 0.0
2687 1 2 0.0 0.0 0.0 0.0
2688 1 2 0.0 0.0 0.0 0.0
2689 1 2 0.0 0.0 0.0 0.0
2690 1 2 0.0 0.0 0.0 0.0
2691 1 2 0.0 0.0 0.0 0.0
2692 1 2 0.0 0.0 0.0 0.0
2693 1 2 0.0 0.0 0.0 0.0
2694 1 2 0.0 0.0 0.0 0.0
2695 1 2 0.0 0.0 0.0 0.0
2696 1 2 0.0 0.0 0.0 0.0
2697 1 2 0.0 0.0 0.0 0.0
2698 1 2 0.0 0.0 0.0 0.0
2699 1 2 0.0 0.0 0.0 0.0
2700 1 2 0.0 0.0 0.0 0.0
2701 1 2 0.0 0.0 0.0 0.0
2702 1 2 0.0 0.0 0.0 0.0
2703 1 2 0.0 0.0 0.0 0.0
2704 1 2 0.0 0.0 0.0 0.0
2705 1 2 0.0 0.0 0.0 0.0
2706 1 2 0.0 0.0 0.0 0.0
2707 1 2 0.0 0.0 0.0 0.0
2708 1 2 0.0 0.0 0.0 0.0
2709 1 2 0.0 0.0 0.0 0.0
2710 1 2 0.0 0.0 0.0 0.0
2711 1 2 0.0 0.0 0.0 0.0
2712 1 2 0.0 0.0 0.0 0.0
2713 1 2 0.0 0.0 0.0 0.0
2714 1 2 0.0 0.0 0.0 0.0
2715 1 2 0.0 0.0 0.0 0.0
2716 1 2 0.0 0.0 0.0 0.0
2717 1 2 0.0 0.0 0.0 0.0
2718 1 2 0.0 0.0 0.0 0.0
2719 1 2 0.0 0.0 0.0 0.0
2720 1 2 0.0 0.0 0.0 0.0
2721 1 2 0.0 0.0 0.0 0.0
2722 1 2 0.0 0.0 0.0 0.0
2723 1 2 0.0 0.0 0.0 0.0
2724 1 2 0.0 0.0 0.0 0.0
2725 1 2 0.0 0.0 0.0 0.0
2726 1 2 0.0 0.0 0.0 0.0
2727 1 2 0.0 0.0 0.0 0.0
2728 1 2 0.0 0.0 0.0 0.0
2729 1 2 0.0 0.0 0.0 0.0
2730 1 2 0.0 0.0 0.0 0.0
2731 1 2 0.0 0.0 0.0 0.0
2732 1 2 0.0 0.0 0.0 0.0
2733 1 2 0.0 0.0 0.0 0.0
2734 1 2 0.0 0.0 0.0 0.0
2735 1 2 0.0 0.0 0.0 0.0
2736 1 2 0.0 0.0 0.0 0.0
2737 1 2 0.0 0.0 0.0 0.0
2738 1 2 0.0 0.0 0.0 0.0
2739 1 2 0.0 0.0 0.0 0.0
2740 1 2 0.0 0.0 0.0 0.0
2741 1 2 0.0 0.0 0.0 0.0
2742 1 2 0.0 0.0 0.0 0.0
2743 1 2 0.0 0.0 0.0 0.0
2744 1 2 0.0 0.0 0.0 0.0
2745 1 2 0.0 0.0 0.0 0.0
2746 1 2 0.0 0.0 0.0 0.0
2747 1 2 0.0 0.0 0.0 0.0
2748 1 2 0.0 0.0 0.0 0.0
2749 1 2 0.0 0.0 0.0 0.0
2750 1 2 0.0 0.0 0.0 0.0
2751 1 2 0.0 0.0 0.0 0.0
2752 1 2 0.0 0.0 0.0 0.0
2753 1 2 0.0 0.0 0.0 0.0
2754 1 2 0.0 0.0 0.0 0.0
2755 1 2 0.0 0.0 0.0 0.0
2756 1 2 0.0 0.0 0.0 0.0
2757 1 2 0.0 0.0 0.0 0.0
2758 1 2 0.0 0.0 0.0 0.0
2759 1 2 0.0 0.0 0.0 0.0
2760 1 2 0.0 0.0 0.0 0.0
2761 1 2 0.0 0.0 0.0 0.0
2762 1 2 0.0 0.0 0.0 0.0
2763 1 2 0.0 0.0 0.0 0.0
2764 1 2 0.0 0.0 0.0 0.0
2765 1 2 0.0 0.0 0.0 0.0
2766 1 2 0.0 0.0 0.0 0.0
2767 1 2 0.0 0.0 0.0 0.0
2768 1 2 0.0 0.0 0.0 0.0
2769 1 2 0.0 0.0 0.0 0.0
2770 1 2 0.0 0.0 0.0 0.0
2771 1 2 0.0 0.0 0.0 0.0
2772 1 2 0.0 0.0 0.0 0.0
2773 1 2 0.0 0.0 0.0 0.0
2774 1 2 0.0 0.0 0.0 0.0
2775 1 2 0.0 0.0 0.0 0.0
2776 1 2 0.0 0.0 0.0 0.0
2777 1 2 0.0 0.0 0.0 0.0
2778 1 2 0.0 0.0 0.0 0.0
2779 1 2 0.0 0.0 0.0 0.0
2780 1 2 0.0 0.0 0.0 0.0
2781 1 2 0.0 0.0 0.0 0.0
2782 1 2 0.0 0.0 0.0 0.0
2783 1 2 0.0 0.0 0.0 0.0
2784 1 2 0.0 0.0 0.0 0.0
2785 1 2 0.0 0.0 0.0 0.0
2786 1 2 0.0 0.0 0.0 0.0
2787 1 2 0.0 0.0 0.0 0.0
2788 1 2 0.0 0.0 0.0 0.0
2789 1 2 0.0 0.0 0.0 0.0
2790 1 2 0.0 0.0 0.0 0.0
2791 1 2 0.0 0.0 0.0 0.0
2792 1 2 0.0 0.0 0.0 0.0
2793 1 2 0.0 0.0 0.0 0.0
2794 1 2 0.0 0.0 0.0 0.0
2795 1 2 0.0 0.0 0.0 0.0
2796 1 2 0.0 0.0 0.0 0.0
2797 1 2 0.0 0.0 0.0 0.0
2798 1 2 0.0 0.0 0.0 0.0
2799 1 2 0.0 0.0 0.0 0.0
2800 1 2 0.0 0.0 0.0 0.0
2801 1 2 0.0 0.0 0.0 0.0
2802 1 2 0.0 0.0 0.0 0.0
2803 1 2 0.0 0.0 0.0 0.0
2804 1 2 0.0 0.0 0.0 0.0
2805 1 2 0.0 0.0 0.0 0.0
2806 1 2 0.0 0.0 0.0 0.0
2807 1 2 0.0 0.0 0.0 0.0
2808 1 2 0.0 0.0 0.0 0.0
2809 1 2 0.0 0.0 0.0 0.0
2810 1 2 0.0 0.0 0.0 0.0
2811 1 2 0.0 0.0 0.0 0.0
2812 1 2 0.0 0.0 0.0 0.0
2813 1 2 0.0 0.0 0.0 0.0
2814 1 2 0.0 0.0 0.0 0.0
2815 1 2 0.0 0.0 0.0 0.0
2816 1 2 0.0 0.0 0.0 0.0
2817 1 2 0.0 0.0 0.0 0.0
2818 1 2 0.0 0.0 0.0 0.0
2819 1 2 0.0 0.0 0.0 0.0
2820 1 2 0.0 0.0 0.0 0.0
2821 1 2 0.0 0.0 0.0 0.0
2822 1 2 0.0 0.0 0.0 0.0
2823 1 2 0.0 0.0 0.0 0.0
2824 1 2 0.0 0.0 0.0 0.0
2825 1 2 0.0 0.0 0.0 0.0
2826 1 2 0.0 0.0 0.0 0.0
2827 1 2 0.0 0.0 0.0 0.0
2828 1 2 0.0 0.0 0.0 0.0
2829 1 2 0.0 0.0 0.0 0.0
2830 1 2 0.0 0.0 0.0 0.0
2831 1 2 0.0 0.0 0.0 0.0
2832 1 2 0.0 0.0 0.0 0.0
2833 1 2 0.0 0.0 0.0 0.0
2834 1 2 0.0 0.0 0.0 0.0
2835 1 2 0.0 0.0 0.0 0.0
2836 1 2 0.0 0.0 0.0 0.0
2837 1 2 0.0 0.0 0.0 0.0
2838 1 2 0.0 0.0 0.0 0.0
2839 1 2 0.0 0.0 0.0 0.0
2840 1 2 0.0 0.0 0.0 0.0
2841 1 2 0.0 0.0 0.0 0.0
2842 1 2 0.0 0.0 0.0 0.0
2843 1 2 0.0 0.0 0.0 0.0
2844 1 2 0.0 0.0 0.0 0.0
2845 1 2 0.0 0.0 0.0 0.0
2846 1 2 0.0 0.0 0.0 0.0
2847 1 2 0.0 0.0 0.0 0.0
2848 1 2 0.0 0.0 0.0 0.0
2849 1 2 0.0 0.0 0.0 0.0
2850 1 2 0.0 0.0 0.0 0.0
2851 1 2 0.0 0.0 0.0 0.0
2852 1 2 0.0 0.0 0.0 0.0
2853 1 2 0.0 0.0 0.0 0.0
2854 1 2 0.0 0.0 0.0 0.0
2855 1 2 0.0 0.0 0.0 0.0
2856 1 2 0.0 0.0 0.0 0.0
2857 1 2 0.0 0.0 0.0 0.0
2858 1 2 0.0 0.0 0.0 0.0
2859 1 2 0.0 0.0 0.0 0.0
2860 1 2 0.0 0.0 0.0 0.0
2861 1 2 0.0 0.0 0.0 0.0
2862 1 2 0.0 0.0 0.0 0.0
2863 1 2 0.0 0.0 0.0 0.0
2864 1 2 0.0 0.0 0.0 0.0
2865 1 2 0.0 0.0 0.0 0.0
2866 1 2 0.0 0.0 0.0 0.0
2867 1 2 0.0 0.0 0.0 0.0
2868 1 2 0.0 0.0 0.0 0.0
2869 1 2 0.0 0.0 0.0 0.0
2870 1 2 0.0 0.0 0.0 0.0
2871 1 2 0.0 0.0 0.0 0.0
2872 1 2 0.0 0.0 0.0 0.0
2873 1 2 0.0 0.0 0.0 0.0
2874 1 2 0.0 0.0 0.0 0.0
2875 1 2 0.0 0.0 0.0 0.0
2876 1 2 0.0 0.0 0.0 0.0
2877 1 2 0.0 0.0 0.0 0.0
2878 1 2 0.0 0.0 0.0 0.0
2879 1 2 0.0 0.0 0.0 0.0
2880 1 2 0.0 0.0 0.0 0.0
2881 1 2 0.0 0.0 0.0 0.0
2882 1 2 0.0 0.0 0.0 0.0
2883 1 2 0.0 0.0 0.0 0.0
2884 1 2 0.0 0.0 0.0 0.0
2885 1 2 0.0 0.0 0.0 0.0
2886 1 2 0.0 0.0 0.0 0.0
2887 1 2 0.0 0.0 0.0 0.0
2888 1 2 0.0 0.0 0.0 0.0
2889 1 2 0.0 0.0 0.0 0.0
2890 1 2 0.0 0.0 0.0 0.0
2891 1 2 0.0 0.0 0.0 0.0
2892 1 2 0.0 0.0 0.0 0.0
2893 1 2 0.0 0.0 0.0 0.0
2894 1 2 0.0 0.0 0.0 0.0
2895 1 2 0.0 0.0 0.0 0.0
2896 1 2 0.0 0.0 0.0 0.0
2897 1 2 0.0 0.0 0.0 0.0
2898 1 2 0.0 0.0 0.0 0.0
2899 1 2 0.0 0.0 0.0 0.0
2900 1 2 0.0 0.0 0.0 0.0
2901 1 2 0.0 0.0 0.0 0.0
2902 1 2 0.0 0.0 0.0 0.0
2903 1 2 0.0 0.0 0.0 0.0
2904 1 2 0.0 0.0 0.0 0.0
2905 1 2 0.0 0.0 0.0 0.0
2906 1 2 0.0 0.0 0.0 0.0
2907 1 2 0.0 0.0 0.0 0.0
2908 1 2 0.0 0.0 0.0 0.0
2909 1 2 0.0 0.0 0.0 0.0
2910 1 2 0.0 0.0 0.0 0.0
2911 1 2 0.0 0.0 0.0 0.0
2912 1 2 0.0 0.0 0.0 0.0
2913 1 2 0.0 0.0 0.0 0.0
2914 1 2 0.0 0.0 0.0 0.0
2915 1 2 0.0 0.0 0.0 0.0
2916 1 2 0.0 0.0 0.0 0.0
2917 1 2 0.0 0.0 0.0 0.0
2918 1 2 0.0 0.0 0.0 0.0
2919 1 2 0.0 0.0 0.0 0.0
2920 1 2 0.0 0.0 0.0 0.0
2921 1 2 0.0 0.0 0.0 0.0
2922 1 2 0.0 0.0 0.0 0.0
2923 1 2 0.0 0.0 0.0 0.0
2924 1 2 0.0 0.0 0.0 0.0
2925 1 2 0.0 0.0 0.0 0.0
2926 1 2 0.0 0.0 0.0 0.0
2927 1 2 0.0 0.0 0.0 0.0
2928 1 2 0.0 0.0 0.0 0.0
2929 1 2 0.0 0.0 0.0 0.0
2930 1 2 0.0 0.0 0.0 0.0
2931 1 2 0.0 0.0 0.0 0.0
2932 1 2 0.0 0.0 0.0 0.0
2933 1 2 0.0 0.0 0.0 0.0
2934 1 2 0.0 0.0 0.0 0.0
2935 1 2 0.0 0.0 0.0 0.0
2936 1 2 0.0 0.0 0.0 0.0
2937 1 2 0.0 0.0 0.0 0.0
2938 1 2 0.0 0.0 0.0 0.0
2939 1 2 0.0 0.0 0.0 0.0
2940 1 2 0.0 0.0 0.0 0.0
2941 1 2 0.0 0.0 0.0 0.0
2942 1 2 0.0 0.0 0.0 0.0
2943 1 2 0.0 0.0 0.0 0.0
2944 1 2 0.0 0.0 0.0 0.0
2945 1 2 0.0 0.0 0.0 0.0
2946 1 2 0.0 0.0 0.0 0.0
2947 1 2 0.0 0.0 0.0 0.0
2948 1 2 0.0 0.0 0.0 0.0
2949 1 2 0.0 0.0 0.0 0.0
2950 1 2 0.0 0.0 0.0 0.0
2951 1 2 0.0 0.0 0.0 0.0
2952 1 2 0.0 0.0 0.0 0.0
2953 1 2 0.0 0.0 0.0 0.0
2954 1 2 0.0 0.0 0.0 0.0
2955 1 2 0.0 0.0 0.0 0.0
2956 1 2 0.0 0.0 0.0 0.0
2957 1 2 0.0 0.0 0.0 0.0
2958 1 2 0.0 0.0 0.0 0.0
2959 1 2 0.0 0.0 0.0 0.0
2960 1 2 0.0 0.0 0.0 0.0
2961 1 2 0.0 0.0 0.0 0.0
2962 1 2 0.0 0.0 0.0 0.0
2963 1 2 0.0 0.0 0.0 0.0
2964 1 2 0.0 0.0 0.0 0.0
2965 1 2 0.0 0.0 0.0 0.0
2966 1 2 0.0 0.0 0.0 0.0
2967 1 2 0.0 0.0 0.0 0.0
2968 1 2 0.0 0.0 0.0 0.0
2969 1 2 0.0 0.0 0.0 0.0
2970 1 2 0.0 0.0 0.0 0.0
2971 1 2 0.0 0.0 0.0 0.0
2972 1 2 0.0 0.0 0.0 0.0
2973 1 2 0.0 0.0 0.0 0.0
2974 1 2 0.0 0.0 0.0 0.0
2975 1 2 0.0 0.0 0.0 0.0
2976 1 2 0.0 0.0 0.0 0.0
2977 1 2 0.0 0.0 0.0 0.0
2978 1 2 0.0 0.0 0.0 0.0
2979 1 2 0.0 0.0 0.0 0.0
2980 1 2 0.0 0.0 0.0 0.0
2981 1 2 0.0 0.0 0.0 0.0
2982 1 2 0.0 0.0 0.0 0.0
2983 1 2 0.0 0.0 0.0 0.0
2984 1 2 0.0 0.0 0.0 0.0
2985 1 2 0.0 0.0 0.0 0.0
2986 1 2 0.0 0.0 0.0 0.0
2987 1 2 0.0 0.0 0.0 0.0
2988 1 2 0.0 0.0 0.0 0.0
2989 1 2 0.0 0.0 0.0 0.0
2990 1 2 0.0 0.0 0.0 0.0
2991 1 2 0.0 0.0 0.0 0.0
2992 1 2 0.0 0.0 0.0 0.0
2993 1 2 0.0 0.0 0.0 0.0
2994 1 2 0.0 0.0 0.0 0.0
2995 1 2 0.0 0.0 0.0 0.0
2996 1 2 0.0 0.0 0.0 0.0
2997 1 2 0.0 0.0 0.0 0.0
2998 1 2 0.0 0.0 0.0 0.0
2999 1 2 0.0 0.0 0.0 0.0
3000 1 2 0.0 0.0 0.0 0.0
3001 1 2 0.0 0.0 0.0 0.0
3002 1 2 0.0 0.0 0.0 0.0
3003 1 2 0.0 0.0 0.0 0.0
3004 1 2 0.0 0.0 0.0 0.0
3005 1 2 0.0 0.0 0.0 0.0
3006 1 2 0.0 0.0 0.0 0.0
3007 1 2 0.0 0.0 0.0 0.0
3008 1 2 0.0 0.0 0.0 0.0
3009 1 2 0.0 0.0 0.0 0.0
3010 1 2 0.0 0.0 0.0 0.0
3011 1 2 0.0 0.0 0.0 0.0
3012 1 2 0.0 0.0 0.0 0.0
3013 1 2 0.0 0.0 0.0 0.0
3014 1 2 0.0 0.0 0.0 0.0
3015 1 2 0.0 0.0 0.0 0.0
3016 1 2 0.0 0.0 0.0 0.0
3017 1 2 0.0 0.0 0.0 0.0
3018 1 2 0.0 0.0 0.0 0.0
3019 1 2 0.0 0.0 0.0 0.0
3020 1 2 0.0 0.0 0.0 0.0
3021 1 2 0.0 0.0 0.0 0.0
3022 1 2 0.0 0.0 0.0 0.0
3023 1 2 0.0 0.0 0.0 0.0
3024 1 2 0.0 0.0 0.0 0.0
3025 1 2 0.0 0.0 0.0 0.0
3026 1 2 0.0 0.0 0.0 0.0
3027 1 2 0.0 0.0 0.0 0.0
3028 1 2 0.0 0.0 0.0 0.0
3029 1 2 0.0 0.0 0.0 0.0
3030 1 2 0.0 0.0 0.0 0.0
3031 1 2 0.0 0.0 0.0 0.0
3032 1 2 0.0 0.0 0.0 0.0
3033 1 2 0.0 0.0 0.0 0.0
3034 1 2 0.0 0.0 0.0 0.0
3035 1 2 0.0 0.0 0.0 0.0
3036 1 2 0.0 0.0 0.0 0.0
3037 1 2 0.0 0.0 0.0 0.0
3038 1 2 0.0 0.0 0.0 0.0
3039 1 2 0.0 0.0 0.0 0.0
3040 1 2 0.0 0.0 0.0 0.0
3041 1 2 0.0 0.0 0.0 0.0
3042 1 2 0.0 0.0 0.0 0.0
3043 1 2 0.0 0.0 0.0 0.0
3044 1 2 0.0 0.0 0.0 0.0
3045 1 2 0.0 0.0 0.0 0.0
3046 1 2 0.0 0.0 0.0 0.0
3047 1 2 0.0 0.0 0.0 0.0
3048 1 2 0.0 0.0 0.0 0.0
3049 1 2 0.0 0.0 0.0 0.0
3050 1 2 0.0 0.0 0.0 0.0
3051 1 2 0.0 0.0 0.0 0.0
3052 1 2 0.0 0.0 0.0 0.0
3053 1 2 0.0 0.0 0.0 0.0
3054 1 2 0.0 0.0 0.0 0.0
3055 1 2 0.0 0.0 0.0 0.0
3056 1 2 0.0 0.0 0.0 0.0
3057 1 2 0.0 0.0 0.0 0.0
3058 1 2 0.0 0.0 0.0 0.0
3059 1 2 0.0 0.0 0.0 0.0
3060 1 2 0.0 0.0 0.0 0.0
3061 1 2 0.0 0.0 0.0 0.0
3062 1 2 0.0 0.0 0.0 0.0
3063 1 2 0.0 0.0 0.0 0.0
3064 1 2 0.0 0.0 0.0 0.0
3065 1 2 0.0 0.0 0.0 0.0
3066 1 2 0.0 0.0 0.0 0.0
3067 1 2 0.0 0.0 0.0 0.0
3068 1 2 0.0 0.0 0.0 0.0
3069 1 2 0.0 0.0 0.0 0.0
3070 1 2 0.0 0.0 0.0 0.0
3071 1 2 0.0 0.0 0.0 0.0
3072 1 2 0.0 0.0 0.0 0.0
3073 1 2 0.0 0.0 0.0 0.0
3074 1 2 0.0 0.0 0.0 0.0
3075 1 2 0.0 0.0 0.0 0.0
3076 1 2 0.0 0.0 0.0 0.0
3077 1 2 0.0 0.0 0.0 0.0
3078 1 2 0.0 0.0 0.0 0.0
3079 1 2 0.0 0.0 0.0 0.0
3080 1 2 0.0 0.0 0.0 0.0
3081 1 2 0.0 0.0 0.0 0.0
3082 1 2 0.0 0.0 0.0 0.0
3083 1 2 0.0 0.0 0.0 0.0
3084 1 2 0.0 0.0 0.0 0.0
3085 1 2 0.0 0.0 0.0 0.0
3086 1 2 0.0 0.0 0.0 0.0
3087 1 2 0.0 0.0 0.0 0.0
3088 1 2 0.0 0.0 0.0 0.0
3089 1 2 0.0 0.0 0.0 0.0
3090 1 2 0.0 0.0 0.0 0.0
3091 1 2 0.0 0.0 0.0 0.0
3092 1 2 0.0 0.0 0.0 0.0
3093 1 2 0.0 0.0 0.0 0.0
3094 1 2 0.0 0.0 0.0 0.0
3095 1 2 0.0 0.0 0.0 0.0
3096 1 2 0.0 0.0 0.0 0.0
3097 1 2 0.0 0.0 0.0 0.0
3098 1 2 0.0 0.0 0.0 0.0
3099 1 2 0.0 0.0 0.0 0.0
3100 1 2 0.0 0.0 0.0 0.0
3101 1 2 0.0 0.0 0.0 0.0
3102 1 2 0.0 0.0 0.0 0.0
3103 1 2 0.0 0.0 0.0 0.0
3104 1 2 0.0 0.0 0.0 0.0
3105 1 2 0.0 0.0 0.0 0.0
3106 1 2 0.0 0.0 0.0 0.0
3107 1 2 0.0 0.0 0.0 0.0
3108 1 2 0.0 0.0 0.0 0.0
3109 1 2 0.0 0.0 0.0 0.0
3110 1 2 0.0 0.0 0.0 0.0
3111 1 2 0.0 0.0 0.0 0.0
3112 1 2 0.0 0.0 0.0 0.0
3113 1 2 0.0 0.0 0.0 0.0
3114 1 2 0.0 0.0 0.0 0.0
3115 1 2 0.0 0.0 0.0 0.0
3116 1 2 0.0 0.0 0.0 0.0
3117 1 2 0.0 0.0 0.0 0.0
3118 1 2 0.0 0.0 0.0 0.0
3119 1 2 0.0 0.0 0.0 0.0
3120 1 2 0.0 0.0 0.0 0.0
3121 1 2 0.0 0.0 0.0 0.0
3122 1 2 0.0 0.0 0.0 0.0
3123 1 2 0.0 0.0 0.0 0.0
3124 1 2 0.0 0.0 0.0 0.0
3125 1 2 0.0 0.0 0.0 0.0
3126 1 2 0.0 0.0 0.0 0.0
3127 1 2 0.0 0.0 0.0 0.0
3128 1 2 0.0 0.0 0.0 0.0
3129 1 2 0.0 0.0 0.0 0.0
3130 1 2 0.0 0.0 0.0 0.0
3131 1 2 0.0 0.0 0.0 0.0
3132 1 2 0.0 0.0 0.0 0.0
3133 1 2 0.0 0.0 0.0 0.0
3134 1 2 0.0 0.0 0.0 0.0
3135 1 2 0.0 0.0 0.0 0.0
3136 1 2 0.0 0.0 0.0 0.0
3137 1 2 0.0 0.0 0.0 0.0
3138 1 2 0.0 0.0 0.0 0.0
3139 1 2 0.0 0.0 0.0 0.0
3140 1 2 0.0 0.0 0.0 0.0
3141 1 2 0.0 0.0 0.0 0.0
3142 1 2 0.0 0.0 0.0 0.0
3143 1 2 0.0 0.0 0.0 0.0
3144 1 2 0.0 0.0 0.0 0.0
3145 1 2 0.0 0.0 0.0 0.0
3146 1 2 0.0 0.0 0.0 0.0
3147 1 2 0.0 0.0 0.0 0.0
3148 1 2 0.0 0.0 0.0 0.0
3149 1 2 0.0 0.0 0.0 0.0
3150 1 2 0.0 0.0 0.0 0.0
3151 1 2 0.0 0.0 0.0 0.0
3152 1 2 0.0 0.0 0.0 0.0
3153 1 2 0.0 0.0 0.0 0.0
3154 1 2 0.0 0.0 0.0 0.0
3155 1 2 0.0 0.0 0.0 0.0
3156 1 2 0.0 0.0 0.0 0.0
3157 1 2 0.0 0.0 0.0 0.0
3158 1 2 0.0 0.0 0.0 0.0
3159 1 2 0.0 0.0 0.0 0.0
3160 1 2 0.0 0.0 0.0 0.0
3161 1 2 0.0 0.0 0.0 0.0
3162 1 2 0.0 0.0 0.0 0.0
3163 1 2 0.0 0.0 0.0 0.0
3164 1 2 0.0 0.0 0.0 0.0
3165 1 2 0.0 0.0 0.0 0.0
3166 1 2 0.0 0.0 0.0 0.0
3167 1 2 0.0 0.0 0.0 0.0
3168 1 2 0.0 0.0 0.0 0.0
3169 1 2 0.0 0.0 0.0 0.0
3170 1 2 0.0 0.0 0.0 0.0
3171 1 2 0.0 0.0 0.0 0.0
3172 1 2 0.0 0.0 0.0 0.0
3173 1 2 0.0 0.0 0.0 0.0
3174 1 2 0.0 0.0 0.0 0.0
3175 1 2 0.0 0.0 0.0 0.0
3176 1 2 0.0 0.0 0.0 0.0
3177 1 2 0.0 0.0 0.0 0.0
3178 1 2 0.0 0.0 0.0 0.0
3179 1 2 0.0 0.0 0.0 0.0
3180 1 2 0.0 0.0 0.0 0.0
3181 1 2 0.0 0.0 0.0 0.0
3182 1 2 0.0 0.0 0.0 0.0
3183 1 2 0.0 0.0 0.0 0.0
3184 1 2 0.0 0.0 0.0 0.0
3185 1 2 0.0 0.0 0.0 0.0
3186 1 2 0.0 0.0 0.0 0.0
3187 1 2 0.0 0.0 0.0 0.0
3188 1 2 0.0 0.0 0.0 0.0
3189 1 2 0.0 0.0 0.0 0.0
3190 1 2 0.0 0.0 0.0 0.0
3191 1 2 0.0 0.0 0.0 0.0
3192 1 2 0.0 0.0 0.0 0.0
3193 1 2 0.0 0.0 0.0 0.0
3194 1 2 0.0 0.0 0.0 0.0
3195 1 2 0.0 0.0 0.0 0.0
3196 1 2 0.0 0.0 0.0 0.0
3197 1 2 0.0 0.0 0.0 0.0
3198 1 2 0.0 0.0 0.0 0.0
3199 1 2 0.0 0.0 0.0 0.0
3200 1 2 0.0 0.0 0.0 0.0
3201 1 2 0.0 0.0 0.0 0.0
3202 1 2 0.0 0.0 0.0 0.0
3203 1 2 0.0 0.0 0.0 0.0
3204 1 2 0.0 0.0 0.0 0.0
3205 1 2 0.0 0.0 0.0 0.0
3206 1 2 0.0 0.0 0.0 0.0
3207 1 2 0.0 0.0 0.0 0.0
3208 1 2 0.0 0.0 0.0 0.0
3209 1 2 0.0 0.0 0.0 0.0
3210 1 2 0.0 0.0 0.0 0.0
3211 1 2 0.0 0.0 0.0 0.0
3212 1 2 0.0 0.0 0.0 0.0
3213 1 2 0.0 0.0 0.0 0.0
3214 1 2 0.0 0.0 0.0 0.0
3215 1 2 0.0 0.0 0.0 0.0
3216 1 2 0.0 0.0 0.0 0.0
3217 1 2 0.0 0.0 0.0 0.0
3218 1 2 0.0 0.0 0.0 0.0
3219 1 2 0.0 0.0 0.0 0.0
3220 1 2 0.0 0.0 0.0 0.0
3221 1 2 0.0 0.0 0.0 0.0
3222 1 2 0.0 0.0 0.0 0.0
3223 1 2 0.0 0.0 0.0 0.0
3224 1 2 0.0 0.0 0.0 0.0
3225 1 2 0.0 0.0 0.0 0.0
3226 1 2 0.0 0.0 0.0 0.0
3227 1 2 0.0 0.0 0.0 0.0
3228 1 2 0.0 0.0 0.0 0.0
3229 1 2 0.0 0.0 0.0 0.0
3230 1 2 0.0 0.0 0.0 0.0
3231 1 2 0.0 0.0 0.0 0.0
3232 1 2 0.0 0.0 0.0 0.0
3233 1 2 0.0 0.0 0.0 0.0
3234 1 2 0.0 0.0 0.0 0.0
3235 1 2 0.0 0.0 0.0 0.0
3236 1 2 0.0 0.0 0.0 0.0
3237 1 2 0.0 0.0 0.0 0.0
3238 1 2 0.0 0.0 0.0 0.0
3239 1 2 0.0 0.0 0.0 0.0
3240 1 2 0.0 0.0 0.0 0.0
3241 1 2 0.0 0.0 0.0 0.0
3242 1 2 0.0 0.0 0.0 0.0
3243 1 2 0.0 0.0 0.0 0.0
3244 1 2 0.0 0.0 0.0 0.0
3245 1 2 0.0 0.0 0.0 0.0
3246 1 2 0.0 0.0 0.0 0.0
3247 1 2 0.0 0.0 0.0 0.0
3248 1 2 0.0 0.0 0.0 0.0
3249 1 2 0.0 0.0 0.0 0.0
3250 1 2 0.0 0.0 0.0 0.0
3251 1 2 0.0 0.0 0.0 0.0
3252 1 2 0.0 0.0 0.0 0.0
3253 1 2 0.0 0.0 0.0 0.0
3254 1 2 0.0 0.0 0.0 0.0
3255 1 2 0.0 0.0 0.0 0.0
3256 1 2 0.0 0.0 0.0 0.0
3257 1 2 0.0 0.0 0.0 0.0
3258 1 2 0.0 0.0 0.0 0.0
3259 1 2 0.0 0.0 0.0 0.0
3260 1 2 0.0 0.0 0.0 0.0
3261 1 2 0.0 0.0 0.0 0.0
3262 1 2 0.0 0.0 0.0 0.0
3263 1 2 0.0 0.0 0.0 0.0
3264 1 2 0.0 0.0 0.0 0.0
3265 1 2 0.0 0.0 0.0 0.0
3266 1 2 0.0 0.0 0.0 0.0
3267 1 2 0.0 0.0 0.0 0.0
3268 1 2 0.0 0.0 0.0 0.0
3269 1 2 0.0 0.0 0.0 0.0
3270 1 2 0.0 0.0 0.0 0.0
3271 1 2 0.0 0.0 0.0 0.0
3272 1 2 0.0 0.0 0.0 0.0
3273 1 2 0.0 0.0 0.0 0.0
3274 1 2 0.0 0.0 0.0 0.0
3275 1 2 0.0 0.0 0.0 0.0
3276 1 2 0.0 0.0 0.0 0.0
3277 1 2 0.0 0.0 0.0 0.0
3278 1 2 0.0 0.0 0.0 0.0
3279 1 2 0.0 0.0 0.0 0.0
3280 1 2 0.0 0.0 0.0 0.0
3281 1 2 0.0 0.0 0.0 0.0
3282 1 2 0.0 0.0 0.0 0.0
3283 1 2 0.0 0.0 0.0 0.0
3284 1 2 0.0 0.0 0.0 0.0
3285 1 2 0.0 0.0 0.0 0.0
3286 1 2 0.0 0.0 0.0 0.0
3287 1 2 0.0 0.0 0.0 0.0
3288 1 2 0.0 0.0 0.0 0.0
3289 1 2 0.0 0.0 0.0 0.0
3290 1 2 0.0 0.0 0.0 0.0
3291 1 2 0.0 0.0 0.0 0.0
3292 1 2 0.0 0.0 0.0 0.0
3293 1 2 0.0 0.0 0.0 0.0
3294 1 2 0.0 0.0 0.0 0.0
3295 1 2 0.0 0.0 0.0 0.0
3296 1 2 0.0 0.0 0.0 0.0
3297 1 2 0.0 0.0 0.0 0.0
3298 1 2 0.0 0.0 0.0 0.0
3299 1 2 0.0 0.0 0.0 0.0
3300 1 2 0.0 0.0 0.0 0.0
3301 1 2 0.0 0.0 0.0 0.0
3302 1 2 0.0 0.0 0.0 0.0
3303 1 2 0.0 0.0 0.0 0.0
3304 1 2 0.0 0.0 0.0 0.0
3305 1 2 0.0 0.0 0.0 0.0
3306 1 2 0.0 0.0 0.0 0.0
3307 1 2 0.0 0.0 0.0 0.0
3308 1 2 0.0 0.0 0.0 0.0
3309 1 2 0.0 0.0 0.0 0.0
3310 1 2 0.0 0.0 0.0 0.0
3311 1 2 0.0 0.0 0.0 0.0
3312 1 2 0.0 0.0 0.0 0.0
3313 1 2 0.0 0.0 0.0 0.0
3314 1 2 0.0 0.0 0.0 0.0
3315 1 2 0.0 0.0 0.0 0.0
3316 1 2 0.0 0.0 0.0 0.0
3317 1 2 0.0 0.0 0.0 0.0
3318 1 2 0.0 0.0 0.0 0.0
3319 1 2 0.0 0.0 0.0 0.0
3320 1 2 0.0 0.0 0.0 0.0
3321 1 2 0.0 0.0 0.0 0.0
3322 1 2 0.0 0.0 0.0 0.0
3323 1 2 0.0 0.0 0.0 0.0
3324 1 2 0.0 0.0 0.0 0.0
3325 1 2 0.0 0.0 0.0 0.0
3326 1 2 0.0 0.0 0.0 0.0
3327 1 2 0.0 0.0 0.0 0.0
3328 1 2 0.0 0.0 0.0 0.0
3329 1 2 0.0 0.0 0.0 0.0
3330 1 2 0.0 0.0 0.0 0.0
3331 1 2 0.0 0.0 0.0 0.0
3332 1 2 0.0 0.0 0.0 0.0
3333 1 2 0.0 0.0 0.0 0.0
3334 1 2 0.0 0.0 0.0 0.0
3335 1 2 0.0 0.0 0.0 0.0
3336 1 2 0.0 0.0 0.0 0.0
3337 1 2 0.0 0.0 0.0 0.0
3338 1 2 0.0 0.0 0.0 0.0
3339 1 2 0.0 0.0 0.0 0.0
3340 1 2 0.0 0.0 0.0 0.0
3341 1 2 0.0 0.0 0.0 0.0
3342 1 2 0.0 0.0 0.0 0.0
3343 1 2 0.0 0.0 0.0 0.0
3344 1 2 0.0 0.0 0.0 0.0
3345 1 2 0.0 0.0 0.0 0.0
3346 1 2 0.0 0.0 0.0 0.0
3347 1 2 0.0 0.0 0.0 0.0
3348 1 2 0.0 0.0 0.0 0.0
3349 1 2 0.0 0.0 0.0 0.0
3350 1 2 0.0 0.0 0.0 0.0
3351 1 2 0.0 0.0 0.0 0.0
3352 1 2 0.0 0.0 0.0 0.0
3353 1 2 0.0 0.0 0.0 0.0
3354 1 2 0.0 0.0 0.0 0.0
3355 1 2 0.0 0.0 0.0 0.0
3356 1 2 0.0 0.0 0.0 0.0
3357 1 2 0.0 0.0 0.0 0.0
3358 1 2 0.0 0.0 0.0 0.0
3359 1 2 0.0 0.0 0.0 0.0
3360 1 2 0.0 0.0 0.0 0.0
3361 1 2 0.0 0.0 0.0 0.0
3362 1 2 0.0 0.0 0.0 0.0
3363 1 2 0.0 0.0 0.0 0.0
3364 1 2 0.0 0.0 0.0 0.0
3365 1 2 0.0 0.0 0.0 0.0
3366 1 2 0.0 0.0 0.0 0.0
3367 1 2 0.0 0.0 0.0 0.0
3368 1 2 0.0 0.0 0.0 0.0
3369 1 2 0.0 0.0 0.0 0.0
3370 1 2 0.0 0.0 0.0 0.0
3371 1 2 0.0 0.0 0.0 0.0
3372 1 2 0.0 0.0 0.0 0.0
3373 1 2 0.0 0.0 0.0 0.0
3374 1 2 0.0 0.0 0.0 0.0
3375 1 2 0.0 0.0 0.0 0.0
3376 1 2 0.0 0.0 0.0 0.0
3377 1 2 0.0 0.0 0.0 0.0
3378 1 2 0.0 0.0 0.0 0.0
3379 1 2 0.0 0.0 0.0 0.0
3380 1 2 0.0 0.0 0.0 0.0
3381 1 2 0.0 0.0 0.0 0.0
3382 1 2 0.0 0.0 0.0 0.0
3383 1 2 0.0 0.0 0.0 0.0
3384 1 2 0.0 0.0 0.0 0.0
3385 1 2 0.0 0.0 0.0 0.0
3386 1 2 0.0 0.0 0.0 0.0
3387 1 2 0.0 0.0 0.0 0.0
3388 1 2 0.0 0.0 0.0 0.0
3389 1 2 0.0 0.0 0.0 0.0
3390 1 2 0.0 0.0 0.0 0.0
3391 1 2 0.0 0.0 0.0 0.0
3392 1 2 0.0 0.0 0.0 0.0
3393 1 2 0.0 0.0 0.0 0.0
3394 1 2 0.0 0.0 0.0 0.0
3395 1 2 0.0 0.0 0.0 0.0
3396 1 2 0.0 0.0 0.0 0.0
3397 1 2 0.0 0.0 0.0 0.0
3398 1 2 0.0 0.0 0.0 0.0
3399 1 2 0.0 0.0 0.0 0.0
3400 1 2 0.0 0.0 0.0 0.0
3401 1 2 0.0 0.0 0.0 0.0
3402 1 2 0.0 0.0 0.0 0.0
3403 1 2 0.0 0.0 0.0 0.0
3404 1 2 0.0 0.0 0.0 0.0
3405 1 2 0.0 0.0 0.0 0.0
3406 1 2 0.0 0.0 0.0 0.0
3407 1 2 0.0 0.0 0.0 0.0
3408 1 2 0.0 0.0 0.0 0.0
3409 1 2 0.0 0.0 0.0 0.0
3410 1 2 0.0 0.0 0.0 0.0
3411 1 2 0.0 0.0 0.0 0.0
3412 1 2 0.0 0.0 0.0 0.0
3413 1 2 0.0 0.0 0.0 0.0
3414 1 2 0.0 0.0 0.0 0.0
3415 1 2 0.0 0.0 0.0 0.0
3416 1 2 0.0 0.0 0.0 0.0
3417 1 2 0.0 0.0 0.0 0.0
3418 1 2 0.0 0.0 0.0 0.0
3419 1 2 0.0 0.0 0.0 0.0
3420 1 2 0.0 0.0 0.0 0.0
3421 1 2 0.0 0.0 0.0 0.0
3422 1 2 0.0 0.0 0.0 0.0
3423 1 2 0.0 0.0 0.0 0.0
3424 1 2 0.0 0.0 0.0 0.0
3425 1 2 0.0 0.0 0.0 0.0
3426 1 2 0.0 0.0 0.0 0.0
3427 1 2 0.0 0.0 0.0 0.0
3428 1 2 0.0 0.0 0.0 0.0
3429 1 2 0.0 0.0 0.0 0.0
3430 1 2 0.0 0.0 0.0 0.0
3431 1 2 0.0 0.0 0.0 0.0
3432 1 2 0.0 0.0 0.0 0.0
3433 1 2 0.0 0.0 0.0 0.0
3434 1 2 0.0 0.0 0.0 0.0
3435 1 2 0.0 0.0 0.0 0.0
3436 1 2 0.0 0.0 0.0 0.0
3437 1 2 0.0 0.0 0.0 0.0
3438 1 2 0.0 0.0 0.0 0.0
3439 1 2 0.0 0.0 0.0 0.0
3440 1 2 0.0 0.0 0.0 0.0
3441 1 2 0.0 0.0 0.0 0.0
3442 1 2 0.0 0.0 0.0 0.0
3443 1 2 0.0 0.0 0.0 0.0
3444 1 2 0.0 0.0 0.0 0.0
3445 1 2 0.0 0.0 0.0 0.0
3446 1 2 0.0 0.0 0.0 0.0
3447 1 2 0.0 0.0 0.0 0.0
3448 1 2 0.0 0.0 0.0 0.0
3449 1 2 0.0 0.0 0.0 0.0
3450 1 2 0.0 0.0 0.0 0.0
3451 1 2 0.0 0.0 0.0 0.0
3452 1 2 0.0 0.0 0.0 0.0
3453 1 2 0.0 0.0 0.0 0.0
3454 1 2 0.0 0.0 0.0 0.0
3455 1 2 0.0 0.0 0.0 0.0
3456 1 2 0.0 0.0 0.0 0.0
3457 1 2 0.0 0.0 0.0 0.0
3458 1 2 0.0 0.0 0.0 0.0
3459 1 2 0.0 0.0 0.0 0.0
3460 1 2 0.0 0.0 0.0 0.0
3461 1 2 0.0 0.0 0.0 0.0
3462 1 2 0.0 0.0 0.0 0.0
3463 1 2 0.0 0.0 0.0 0.0
3464 1 2 0.0 0.0 0.0 0.0
3465 1 2 0.0 0.0 0.0 0.0
3466 1 2 0.0 0.0 0.0 0.0
3467 1 2 0.0 0.0 0.0 0.0
3468 1 2 0.0 0.0 0.0 0.0
3469 1 2 0.0 0.0 0.0 0.0
3470 1 2 0.0 0.0 0.0 0.0
3471 1 2 0.0 0.0 0.0 0.0
3472 1 2 0.0 0.0 0.0 0.0
3473 1 2 0.0 0.0 0.0 0.0
3474 1 2 0.0 0.0 0.0 0.0
3475 1 2 0.0 0.0 0.0 0.0
3476 1 2 0.0 0.0 0.0 0.0
3477 1 2 0.0 0.0 0.0 0.0
3478 1 2 0.0 0.0 0.0 0.0
3479 1 2 0.0 0.0 0.0 0.0
3480 1 2 0.0 0.0 0.0 0.0
3481 1 2 0.0 0.0 0.0 0.0
3482 1 2 0.0 0.0 0.0 0.0
3483 1 2 0.0 0.0 0.0 0.0
3484 1 2 0.0 0.0 0.0 0.0
3485 1 2 0.0 0.0 0.0 0.0
3486 1 2 0.0 0.0 0.0 0.0
3487 1 2 0.0 0.0 0.0 0.0
3488 1 2 0.0 0.0 0.0 0.0
3489 1 2 0.0 0.0 0.0 0.0
3490 1 2 0.0 0.0 0.0 0.0
3491 1 2 0.0 0.0 0.0 0.0
3492 1 2 0.0 0.0 0.0 0.0
3493 1 2 0.0 0.0 0.0 0.0
3494 1 2 0.0 0.0 0.0 0.0
3495 1 2 0.0 0.0 0.0 0.0
3496 1 2 0.0 0.0 0.0 0.0
3497 1 2 0.0 0.0 0.0 0.0
3498 1 2 0.0 0.0 0.0 0.0
3499 1 2 0.0 0.0 0.0 0.0
3500 1 2 0.0 0.0 0.0 0.0
3501 1 2 0.0 0.0 0.0 0.0
3502 1 2 0.0 0.0 0.0 0.0
3503 1 2 0.0 0.0 0.0 0.0
3504 1 2 0.0 0.0 0.0 0.0
3505 1 2 0.0 0.0 0.0 0.0
3506 1 2 0.0 0.0 0.0 0.0
3507 1 2 0.0 0.0 0.0 0.0
3508 1 2 0.0 0.0 0.0 0.0
3509 1 2 0.0 0.0 0.0 0.0
3510 1 2 0.0 0.0 0.0 0.0
3511 1 2 0.0 0.0 0.0 0.0
3512 1 2 0.0 0.0 0.0 0.0
3513 1 2 0.0 0.0 0.0 0.0
3514 1 2 0.0 0.0 0.0 0.0
3515 1 2 0.0 0.0 0.0 0.0
3516 1 2 0.0 0.0 0.0 0.0
3517 1 2 0.0 0.0 0.0 0.0
3518 1 2 0.0 0.0 0.0 0.0
3519 1 2 0.0 0.0 0.0 0.0
3520 1 2 0.0 0.0 0.0 0.0
3521 1 2 0.0 0.0 0.0 0.0
3522 1 2 0.0 0.0 0.0 0.0
3523 1 2 0.0 0.0 0.0 0.0
3524 1 2 0.0 0.0 0.0 0.0
3525 1 2 0.0 0.0 0.0 0.0
3526 1 2 0.0 0.0 0.0 0.0
3527 1 2 0.0 0.0 0.0 0.0
3528 1 2 0.0 0.0 0.0 0.0
3529 1 2 0.0 0.0 0.0 0.0
3530 1 2 0.0 0.0 0.0 0.0
3531 1 2 0.0 0.0 0.0 0.0
3532 1 2 0.0 0.0 0.0 0.0
3533 1 2 0.0 0.0 0.0 0.0
3534 1 2 0.0 0.0 0.0 0.0
3535 1 2 0.0 0.0 0.0 0.0
3536 1 2 0.0 0.0 0.0 0.0
3537 1 2 0.0 0.0 0.0 0.0
3538 1 2 0.0 0.0 0.0 0.0
3539 1 2 0.0 0.0 0.0 0.0
3540 1 2 0.0 0.0 0.0 0.0
3541 1 2 0.0 0.0 0.0 0.0
3542 1 2 0.0 0.0 0.0 0.0
3543 1 2 0.0 0.0 0.0 0.0
3544 1 2 0.0 0.0 0.0 0.0
3545 1 2 0.0 0.0 0.0 0.0
3546 1 2 0.0 0.0 0.0 0.0
3547 1 2 0.0 0.0 0.0 0.0
3548 1 2 0.0 0.0 0.0 0.0
3549 1 2 0.0 0.0 0.0 0.0
3550 1 2 0.0 0.0 0.0 0.0
3551 1 2 0.0 0.0 0.0 0.0
3552 1 2 0.0 0.0 0.0 0.0
3553 1 2 0.0 0.0 0.0 0.0
3554 1 2 0.0 0.0 0.0 0.0
3555 1 2 0.0 0.0 0.0 0.0
3556 1 2 0.0 0.0 0.0 0.0
3557 1 2 0.0 0.0 0.0 0.0
3558 1 2 0.0 0.0 0.0 0.0
3559 1 2 0.0 0.0 0.0 0.0
3560 1 2 0.0 0.0 0.0 0.0
3561 1 2 0.0 0.0 0.0 0.0
3562 1 2 0.0 0.0 0.0 0.0
3563 1 2 0.0 0.0 0.0 0.0
3564 1 2 0.0 0.0 0.0 0.0
3565 1 2 0.0 0.0 0.0 0.0
3566 1 2 0.0 0.0 0.0 0.0
3567 1 2 0.0 0.0 0.0 0.0
3568 1 2 0.0 0.0 0.0 0.0
3569 1 2 0.0 0.0 0.0 0.0
3570 1 2 0.0 0.0 0.0 0.0
3571 1 2 0.0 0.0 0.0 0.0
3572 1 2 0.0 0.0 0.0 0.0
3573 1 2 0.0 0.0 0.0 0.0
3574 1 2 0.0 0.0 0.0 0.0
3575 1 2 0.0 0.0 0.0 0.0
3576 1 2 0.0 0.0 0.0 0.0
3577 1 2 0.0 0.0 0.0 0.0
3578 1 2 0.0 0.0 0.0 0.0
3579 1 2 0.0 0.0 0.0 0.0
3580 1 2 0.0 0.0 0.0 0.0
3581 1 2 0.0 0.0 0.0 0.0
3582 1 2 0.0 0.0 0.0 0.0
3583 1 2 0.0 0.0 0.0 0.0
3584 1 2 0.0 0.0 0.0 0.0
3585 1 2 0.0 0.0 0.0 0.0
3586 1 2 0.0 0.0 0.0 0.0
3587 1 2 0.0 0.0 0.0 0.0
3588 1 2 0.0 0.0 0.0 0.0
3589 1 2 0.0 0.0 0.0 0.0
3590 1 2 0.0 0.0 0.0 0.0
3591 1 2 0.0 0.0 0.0 0.0
3592 1 2 0.0 0.0 0.0 0.0
3593 1 2 0.0 0.0 0.0 0.0
3594 1 2 0.0 0.0 0.0 0.0
3595 1 2 0.0 0.0 0.0 0.0
3596 1 2 0.0 0.0 0.0 0.0
3597 1 2 0.0 0.0 0.0 0.0
3598 1 2 0.0 0.0 0.0 0.0
3599 1 2 0.0 0.0 0.0 0.0
3600 1 2 0.0 0.0 0.0 0.0
3601 1 2 0.0 0.0 0.0 0.0
3602 1 2 0.0 0.0 0.0 0.0
3603 1 2 0.0 0.0 0.0 0.0
3604 1 2 0.0 0.0 0.0 0.0
3605 1 2 0.0 0.0 0.0 0.0
3606 1 2 0.0 0.0 0.0 0.0
3607 1 2 0.0 0.0 0.0 0.0
3608 1 2 0.0 0.0 0.0 0.0
3609 1 2 0.0 0.0 0.0 0.0
3610 1 2 0.0 0.0 0.0 0.0
3611 1 2 0.0 0.0 0.0 0.0
3612 1 2 0.0 0.0 0.0 0.0
3613 1 2 0.0 0.0 0.0 0.0
3614 1 2 0.0 0.0 0.0 0.0
3615 1 2 0.0 0.0 0.0 0.0
3616 1 2 0.0 0.0 0.0 0.0
3617 1 2 0.0 0.0 0.0 0.0
3618 1 2 0.0 0.0 0.0 0.0
3619 1 2 0.0 0.0 0.0 0.0
3620 1 2 0.0 0.0 0.0 0.0
3621 1 2 0.0 0.0 0.0 0.0
3622 1 2 0.0 0.0 0.0 0.0
3623 1 2 0.0 0.0 0.0 0.0
3624 1 2 0.0 0.0 0.0 0.0
3625 1 2 0.0 0.0 0.0 0.0
3626 1 2 0.0 0.0 0.0 0.0
3627 1 2 0.0 0.0 0.0 0.0
3628 1 2 0.0 0.0 0.0 0.0
3629 1 2 0.0 0.0 0.0 0.0
3630 1 2 0.0 0.0 0.0 0.0
3631 1 2 0.0 0.0 0.0 0.0
3632 1 2 0.0 0.0 0.0 0.0
3633 1 2 0.0 0.0 0.0 0.0
3634 1 2 0.0 0.0 0.0 0.0
3635 1 2 0.0 0.0 0.0 0.0
3636 1 2 0.0 0.0 0.0 0.0
3637 1 2 0.0 0.0 0.0 0.0
3638 1 2 0.0 0.0 0.0 0.0
3639 1 2 0.0 0.0 0.0 0.0
3640 1 2 0.0 0.0 0.0 0.0
3641 1 2 0.0 0.0 0.0 0.0
3642 1 2 0.0 0.0 0.0 0.0
3643 1 2 0.0 0.0 0.0 0.0
3644 1 2 0.0 0.0 0.0 0.0
3645 1 2 0.0 0.0 0.0 0.0
3646 1 2 0.0 0.0 0.0 0.0
3647 1 2 0.0 0.0 0.0 0.0
3648 1 2 0.0 0.0 0.0 0.0
3649 1 2 0.0 0.0 0.0 0.0
3650 1 2 0.0 0.0 0.0 0.0
3651 1 2 0.0 0.0 0.0 0.0
3652 1 2 0.0 0.0 0.0 0.0
3653 1 2 0.0 0.0 0.0 0.0
3654 1 2 0.0 0.0 0.0 0.0
3655 1 2 0.0 0.0 0.0 0.0
3656 1 2 0.0 0.0 0.0 0.0
3657 1 2 0.0 0.0 0.0 0.0
3658 1 2 0.0 0.0 0.0 0.0
3659 1 2 0.0 0.0 0.0 0.0
3660 1 2 0.0 0.0 0.0 0.0
3661 1 2 0.0 0.0 0.0 0.0
3662 1 2 0.0 0.0 0.0 0.0
3663 1 2 0.0 0.0 0.0 0.0
3664 1 2 0.0 0.0 0.0 0.0
3665 1 2 0.0 0.0 0.0 0.0
3666 1 2 0.0 0.0 0.0 0.0
3667 1 2 0.0 0.0 0.0 0.0
3668 1 2 0.0 0.0 0.0 0.0
3669 1 2 0.0 0.0 0.0 0.0
3670 1 2 0.0 0.0 0.0 0.0
3671 1 2 0.0 0.0 0.0 0.0
3672 1 2 0.0 0.0 0.0 0.0
3673 1 2 0.0 0.0 0.0 0.0
3674 1 2 0.0 0.0 0.0 0.0
3675 1 2 0.0 0.0 0.0 0.0
3676 1 2 0.0 0.0 0.0 0.0
3677 1 2 0.0 0.0 0.0 0.0
3678 1 2 0.0 0.0 0.0 0.0
3679 1 2 0.0 0.0 0.0 0.0
3680 1 2 0.0 0.0 0.0 0.0
3681 1 2 0.0 0.0 0.0 0.0
3682 1 2 0.0 0.0 0.0 0.0
3683 1 2 0.0 0.0 0.0 0.0
3684 1 2 0.0 0.0 0.0 0.0
3685 1 2 0.0 0.0 0.0 0.0
3686 1 2 0.0 0.0 0.0 0.0
3687 1 2 0.0 0.0 0.0 0.0
3688 1 2 0.0 0.0 0.0 0.0
3689 1 2 0.0 0.0 0.0 0.0
3690 1 2 0.0 0.0 0.0 0.0
3691 1 2 0.0 0.0 0.0 0.0
3692 1 2 0.0 0.0 0.0 0.0
3693 1 2 0.0 0.0 0.0 0.0
3694 1 2 0.0 0.0 0.0 0.0
3695 1 2 0.0 0.0 0.0 0.0
3696 1 2 0.0 0.0 0.0 0.0
3697 1 2 0.0 0.0 0.0 0.0
3698 1 2 0.0 0.0 0.0 0.0
3699 1 2 0.0 0.0 0.0 0.0
3700 1 2 0.0 0.0 0.0 0.0
3701 1 2 0.0 0.0 0.0 0.0
3702 1 2 0.0 0.0 0.0 0.0
3703 1 2 0.0 0.0 0.0 0.0
3704 1 2 0.0 0.0 0.0 0.0
3705 1 2 0.0 0.0 0.0 0.0
3706 1 2 0.0 0.0 0.0 0.0
3707 1 2 0.0 0.0 0.0 0.0
3708 1 2 0.0 0.0 0.0 0.0
3709 1 2 0.0 0.0 0.0 0.0
3710 1 2 0.0 0.0 0.0 0.0
3711 1 2 0.0 0.0 0.0 0.0
3712 1 2 0.0 0.0 0.0 0.0
3713 1 2 0.0 0.0 0.0 0.0
3714 1 2 0.0 0.0 0.0 0.0
3715 1 2 0.0 0.0 0.0 0.0
3716 1 2 0.0 0.0 0.0 0.0
3717 1 2 0.0 0.0 0.0 0.0
3718 1 2 0.0 0.0 0.0 0.0
3719 1 2 0.0 0.0 0.0 0.0
3720 1 2 0.0 0.0 0.0 0.0
3721 1 2 0.0 0.0 0.0 0.0
3722 1 2 0.0 0.0 0.0 0.0
3723 1 2 0.0 0.0 0.0 0.0
3724 1 2 0.0 0.0 0.0 0.0
3725 1 2 0.0 0.0 0.0 0.0
3726 1 2 0.0 0.0 0.0 0.0
3727 1 2 0.0 0.0 0.0 0.0
3728 1 2 0.0 0.0 0.0 0.0
3729 1 2 0.0 0.0 0.0 0.0
3730 1 2 0.0 0.0 0.0 0.0
3731 1 2 0.0 0.0 0.0 0.0
3732 1 2 0.0 0.0 0.0 0.0
3733 1 2 0.0 0.0 0.0 0.0
3734 1 2 0.0 0.0 0.0 0.0
3735 1 2 0.0 0.0 0.0 0.0
3736 1 2 0.0 0.0 0.0 0.0
3737 1 2 0.0 0.0 0.0 0.0
3738 1 2 0.0 0.0 0.0 0.0
3739 1 2 0.0 0.0 0.0 0.0
3740 1 2 0.0 0.0 0.0 0.0
3741 1 2 0.0 0.0 0.0 0.0
3742 1 2 0.0 0.0 0.0 0.0
3743 1 2 0.0 0.0 0.0 0.0
3744 1 2 0.0 0.0 0.0 0.0
3745 1 2 0.0 0.0 0.0 0.0
3746 1 2 0.0 0.0 0.0 0.0
3747 1 2 0.0 0.0 0.0 0.0
3748 1 2 0.0 0.0 0.0 0.0
3749 1 2 0.0 0.0 0.0 0.0
3750 1 2 0.0 0.0 0.0 0.0
3751 1 2 0.0 0.0 0.0 0.0
3752 1 2 0.0 0.0 0.0 0.0
3753 1 2 0.0 0.0 0.0 0.0
3754 1 2 0.0 0.0 0.0 0.0
3755 1 2 0.0 0.0 0.0 0.0
3756 1 2 0.0 0.0 0.0 0.0
3757 1 2 0.0 0.0 0.0 0.0
3758 1 2 0.0 0.0 0.0 0.0
3759 1 2 0.0 0.0 0.0 0.0
3760 1 2 0.0 0.0 0.0 0.0
3761 1 2 0.0 0.0 0.0 0.0
3762 1 2 0.0 0.0 0.0 0.0
3763 1 2 0.0 0.0 0.0 0.0
3764 1 2 0.0 0.0 0.0 0.0
3765 1 2 0.0 0.0 0.0 0.0
3766 1 2 0.0 0.0 0.0 0.0
3767 1 2 0.0 0.0 0.0 0.0
3768 1 2 0.0 0.0 0.0 0.0
3769 1 2 0.0 0.0 0.0 0.0
3770 1 2 0.0 0.0 0.0 0.0
3771 1 2 0.0 0.0 0.0 0.0
3772 1 2 0.0 0.0 0.0 0.0
3773 1 2 0.0 0.0 0.0 0.0
3774 1 2 0.0 0.0 0.0 0.0
3775 1 2 0.0 0.0 0.0 0.0
3776 1 2 0.0 0.0 0.0 0.0
3777 1 2 0.0 0.0 0.0 0.0
3778 1 2 0.0 0.0 0.0 0.0
3779 1 2 0.0 0.0 0.0 0.0
3780 1 2 0.0 0.0 0.0 0.0
3781 1 2 0.0 0.0 0.0 0.0
3782 1 2 0.0 0.0 0.0 0.0
3783 1 2 0.0 0.0 0.0 0.0
3784 1 2 0.0 0.0 0.0 0.0
3785 1 2 0.0 0.0 0.0 0.0
3786 1 2 0.0 0.0 0.0 0.0
3787 1 2 0.0 0.0 0.0 0.0
3788 1 2 0.0 0.0 0.0 0.0
3789 1 2 0.0 0.0 0.0 0.0
3790 1 2 0.0 0.0 0.0 0.0
3791 1 2 0.0 0.0 0.0 0.0
3792 1 2 0.0 0.0 0.0 0.0
3793 1 2 0.0 0.0 0.0 0.0
3794 1 2 0.0 0.0 0.0 0.0
3795 1 2 0.0 0.0 0.0 0.0
3796 1 2 0.0 0.0 0.0 0.0
3797 1 2 0.0 0.0 0.0 0.0
3798 1 2 0.0 0.0 0.0 0.0
3799 1 2 0.0 0.0 0.0 0.0
3800 1 2 0.0 0.0 0.0 0.0
3801 1 2 0.0 0.0 0.0 0.0
3802 1 2 0.0 0.0 0.0 0.0
3803 1 2 0.0 0.0 0.0 0.0
3804 1 2 0.0 0.0 0.0 0.0
3805 1 2 0.0 0.0 0.0 0.0
3806 1 2 0.0 0.0 0.0 0.0
3807 1 2 0.0 0.0 0.0 0.0
3808 1 2 0.0 0.0 0.0 0.0
3809 1 2 0.0 0.0 0.0 0.0
3810 1 2 0.0 0.0 0.0 0.0
3811 1 2 0.0 0.0 0.0 0.0
3812 1 2 0.0 0.0 0.0 0.0
3813 1 2 0.0 0.0 0.0 0.0
3814 1 2 0.0 0.0 0.0 0.0
3815 1 2 0.0 0.0 0.0 0.0
3816 1 2 0.0 0.0 0.0 0.0
3817 1 2 0.0 0.0 0.0 0.0
3818 1 2 0.0 0.0 0.0 0.0
3819 1 2 0.0 0.0 0.0 0.0
3820 1 2 0.0 0.0 0.0 0.0
3821 1 2 0.0 0.0 0.0 0.0
3822 1 2 0.0 0.0 0.0 0.0
3823 1 2 0.0 0.0 0.0 0.0
3824 1 2 0.0 0.0 0.0 0.0
3825 1 2 0.0 0.0 0.0 0.0
3826 1 2 0.0 0.0 0.0 0.0
3827 1 2 0.0 0.0 0.0 0.0
3828 1 2 0.0 0.0 0.0 0.0
3829 1 2 0.0 0.0 0.0 0.0
3830 1 2 0.0 0.0 0.0 0.0
3831 1 2 0.0 0.0 0.0 0.0
3832 1 2 0.0 0.0 0.0 0.0
3833 1 2 0.0 0.0 0.0 0.0
3834 1 2 0.0 0.0 0.0 0.0
3835 1 2 0.0 0.0 0.0 0.0
3836 1 2 0.0 0.0 0.0 0.0
3837 1 2 0.0 0.0 0.0 0.0
3838 1 2 0.0 0.0 0.0 0.0
3839 1 2 0.0 0.0 0.0 0.0
3840 1 2 0.0 0.0 0.0 0.0
3841 1 2 0.0 0.0 0.0 0.0
3842 1 2 0.0 0.0 0.0 0.0
3843 1 2 0.0 0.0 0.0 0.0
3844 1 2 0.0 0.0 0.0 0.0
3845 1 2 0.0 0.0 0.0 0.0
3846 1 2 0.0 0.0 0.0 0.0
3847 1 2 0.0 0.0 0.0 0.0
3848 1 2 0.0 0.0 0.0 0.0
3849 1 2 0.0 0.0 0.0 0.0
3850 1 2 0.0 0.0 0.0 0.0
3851 1 2 0.0 0.0 0.0 0.0
3852 1 2 0.0 0.0 0.0 0.0
3853 1 2 0.0 0.0 0.0 0.0
3854 1 2 0.0 0.0 0.0 0.0
3855 1 2 0.0 0.0 0.0 0.0
3856 1 2 0.0 0.0 0.0 0.0
3857 1 2 0.0 0.0 0.0 0.0
3858 1 2 0.0 0.0 0.0 0.0
3859 1 2 0.0 0.0 0.0 0.0
3860 1 2 0.0 0.0 0.0 0.0
3861 1 2 0.0 0.0 0.0 0.0
3862 1 2 0.0 0.0 0.0 0.0
3863 1 2 0.0 0.0 0.0 0.0
3864 1 2 0.0 0.0 0.0 0.0
3865 1 2 0.0 0.0 0.0 0.0
3866 1 2 0.0 0.0 0.0 0.0
3867 1 2 0.0 0.0 0.0 0.0
3868 1 2 0.0 0.0 0.0 0.0
3869 1 2 0.0 0.0 0.0 0.0
3870 1 2 0.0 0.0 0.0 0.0
3871 1 2 0.0 0.0 0.0 0.0
3872 1 2 0.0 0.0 0.0 0.0
3873 1 2 0.0 0.0 0.0 0.0
3874 1 2 0.0 0.0 0.0 0.0
3875 1 2 0.0 0.0 0.0 0.0
3876 1 2 0.0 0.0 0.0 0.0
3877 1 2 0.0 0.0 0.0 0.0
3878 1 2 0.0 0.0 0.0 0.0
3879 1 2 0.0 0.0 0.0 0.0
3880 1 2 0.0 0.0 0.0 0.0
3881 1 2 0.0 0.0 0.0 0.0
3882 1 2 0.0 0.0 0.0 0.0
3883 1 2 0.0 0.0 0.0 0.0
3884 1 2 0.0 0.0 0.0 0.0
3885 1 2 0.0 0.0 0.0 0.0
3886 1 2 0.0 0.0 0.0 0.0
3887 1 2 0.0 0.0 0.0 0.0
3888 1 2 0.0 0.0 0.0 0.0
3889 1 2 0.0 0.0 0.0 0.0
3890 1 2 0.0 0.0 0.0 0.0
3891 1 2 0.0 0.0 0.0 0.0
3892 1 2 0.0 0.0 0.0 0.0
3893 1 2 0.0 0.0 0.0 0.0
3894 1 2 0.0 0.0 0.0 0.0
3895 1 2 0.0 0.0 0.0 0.0
3896 1 2 0.0 0.0 0.0 0.0
3897 1 2 0.0 0.0 0.0 0.0
3898 1 2 0.0 0.0 0.0 0.0
3899 1 2 0.0 0.0 0.0 0.0
3900 1 2 0.0 0.0 0.0 0.0
3901 1 2 0.0 0.0 0.0 0.0
3902 1 2 0.0 0.0 0.0 0.0
3903 1 2 0.0 0.0 0.0 0.0
3904 1 2 0.0 0.0 0.0 0.0
3905 1 2 0.0 0.0 0.0 0.0
3906 1 2 0.0 0.0 0.0 0.0
3907 1 2 0.0 0.0 0.0 0.0
3908 1 2 0.0 0.0 0.0 0.0
3909 1 2 0.0 0.0 0.0 0.0
3910 1 2 0.0 0.0 0.0 0.0
3911 1 2 0.0 0.0 0.0 0.0
3912 1 2 0.0 0.0 0.0 0.0
3913 1 2 0.0 0.0 0.0 0.0
3914 1 2 0.0 0.0 0.0 0.0
3915 1 2 0.0 0.0 0.0 0.0
3916 1 2 0.0 0.0 0.0 0.0
3917 1 2 0.0 0.0 0.0 0.0
3918 1 2 0.0 0.0 0.0 0.0
3919 1 2 0.0 0.0 0.0 0.0
3920 1 2 0.0 0.0 0.0 0.0
3921 1 2 0.0 0.0 0.0 0.0
3922 1 2 0.0 0.0 0.0 0.0
3923 1 2 0.0 0.0 0.0 0.0
3924 1 2 0.0 0.0 0.0 0.0
3925 1 2 0.0 0.0 0.0 0.0
3926 1 2 0.0 0.0 0.0 0.0
3927 1 2 0.0 0.0 0.0 0.0
3928 1 2 0.0 0.0 0.0 0.0
3929 1 2 0.0 0.0 0.0 0.0
3930 1 2 0.0 0.0 0.0 0.0
3931 1 2 0.0 0.0 0.0 0.0
3932 1 2 0.0 0.0 0.0 0.0
3933 1 2 0.0 0.0 0.0 0.0
3934 1 2 0.0 0.0 0.0 0.0
3935 1 2 0.0 0.0 0.0 0.0
3936 1 2 0.0 0.0 0.0 0.0
3937 1 2 0.0 0.0 0.0 0.0
3938 1 2 0.0 0.0 0.0 0.0
3939 1 2 0.0 0.0 0.0 0.0
3940 1 2 0.0 0.0 0.0 0.0
3941 1 2 0.0 0.0 0.0 0.0
3942 1 2 0.0 0.0 0.0 0.0
3943 1 2 0.0 0.0 0.0 0.0
3944 1 2 0.0 0.0 0.0 0.0
3945 1 2 0.0 0.0 0.0 0.0
3946 1 2 0.0 0.0 0.0 0.0
3947 1 2 0.0 0.0 0.0 0.0
3948 1 2 0.0 0.0 0.0 0.0
3949 1 2 0.0 0.0 0.0 0.0
3950 1 2 0.0 0.0 0.0 0.0
3951 1 2 0.0 0.0 0.0 0.0
3952 1 2 0.0 0.0 0.0 0.0
3953 1 2 0.0 0.0 0.0 0.0
3954 1 2 0.0 0.0 0.0 0.0
3955 1 2 0.0 0.0 0.0 0.0
3956 1 2 0.0 0.0 0.0 0.0
3957 1 2 0.0 0.0 0.0 0.0
3958 1 2 0.0 0.0 0.0 0.0
3959 1 2 0.0 0.0 0.0 0.0
3960 1 2 0.0 0.0 0.0 0.0
3961 1 2 0.0 0.0 0.0 0.0
3962 1 2 0.0 0.0 0.0 0.0
3963 1 2 0.0 0.0 0.0 0.0
3964 1 2 0.0 0.0 0.0 0.0
3965 1 2 0.0 0.0 0.0 0.0
3966 1 2 0.0 0.0 0.0 0.0
3967 1 2 0.0 0.0 0.0 0.0
3968 1 2 0.0 0.0 0.0 0.0
3969 1 2 0.0 0.0 0.0 0.0
3970 1 2 0.0 0.0 0.0 0.0
3971 1 2 0.0 0.0 0.0 0.0
3972 1 2 0.0 0.0 0.0 0.0
3973 1 2 0.0 0.0 0.0 0.0
3974 1 2 0.0 0.0 0.0 0.0
3975 1 2 0.0 0.0 0.0 0.0
3976 1 2 0.0 0.0 0.0 0.0
3977 1 2 0.0 0.0 0.0 0.0
3978 1 2 0.0 0.0 0.0 0.0
3979 1 2 0.0 0.0 0.0 0.0
3980 1 2 0.0 0.0 0.0 0.0
3981 1 2 0.0 0.0 0.0 0.0
3982 1 2 0.0 0.0 0.0 0.0
3983 1 2 0.0 0.0 0.0 0.0
3984 1 2 0.0 0.0 0.0 0.0
3985 1 2 0.0 0.0 0.0 0.0
3986 1 2 0.0 0.0 0.0 0.0
3987 1 2 0.0 0.0 0.0 0.0
3988 1 2 0.0 0.0 0.0 0.0
3989 1 2 0.0 0.0 0.0 0.0
3990 1 2 0.0 0.0 0.0 0.0
3991 1 2 0.0 0.0 0.0 0.0
3992 1 2 0.0 0.0 0.0 0.0
3993 1 2 0.0 0.0 0.0 0.0
3994 1 2 0.0 0.0 0.0 0.0
3995 1 2 0.0 0.0 0.0 0.0
3996 1 2 0.0 0.0 0.0 0.0
3997 1 2 0.0 0.0 0.0 0.0
3998 1 2 0.0 0.0 0.0 0.0
3999 1 2 0.0 0.0 0.0 0.0
4000 1 2 0.0 0.0 0.0 0.0
4001 1 2 0.0 0.0 0.0 0.0
4002 1 2 0.0 0.0 0.0 0.0
4003 1 2 0.0 0.0 0.0 0.0
4004 1 2 0.0 0.0 0.0 0.0
4005 1 2 0.0 0.0 0.0 0.0
4006 1 2 0.0 0.0 0.0 0.0
4007 1 2 0.0 0.0 0.0 0.0
4008 1 2 0.0 0.0 0.0 0.0
4009 1 2 0.0 0.0 0.0 0.0
4010 1 2 0.0 0.0 0.0 0.0
4011 1 2 0.0 0.0 0.0 0.0
4012 1 2 0.0 0.0 0.0 0.0
4013 1 2 0.0 0.0 0.0 0.0
4014 1 2 0.0 0.0 0.0 0.0
4015 1 2 0.0 0.0 0.0 0.0
4016 1 2 0.0 0.0 0.0 0.0
4017 1 2 0.0 0.0 0.0 0.0
4018 1 2 0.0 0.0 0.0 0.0
4019 1 2 0.0 0.0 0.0 0.0
4020 1 2 0.0 0.0 0.0 0.0
4021 1 2 0.0 0.0 0.0 0.0
4022 1 2 0.0 0.0 0.0 0.0
4023 1 2 0.0 0.0 0.0 0.0
4024 1 2 0.0 0.0 0.0 0.0
4025 1 2 0.0 0.0 0.0 0.0
4026 1 2 0.0 0.0 0.0 0.0
4027 1 2 0.0 0.0 0.0 0.0
4028 1 2 0.0 0.0 0.0 0.0
4029 1 2 0.0 0.0 0.0 0.0
4030 1 2 0.0 0.0 0.0 0.0
4031 1 2 0.0 0.0 0.0 0.0
4032 1 2 0.0 0.0 0.0 0.0
4033 1 2 0.0 0.0 0.0 0.0
4034 1 2 0.0 0.0 0.0 0.0
4035 1 2 0.0 0.0 0.0 0.0
4036 1 2 0.0 0.0 0.0 0.0
4037 1 2 0.0 0.0 0.0 0.0
4038 1 2 0.0 0.0 0.0 0.0
4039 1 2 0.0 0.0 0.0 0.0
4040 1 2 0.0 0.0 0.0 0.0
4041 1 2 0.0 0.0 0.0 0.0
4042 1 2 0.0 0.0 0.0 0.0
4043 1 2 0.0 0.0 0.0 0.0
4044 1 2 0.0 0.0 0.0 0.0
4045 1 2 0.0 0.0 0.0 0.0
4046 1 2 0.0 0.0 0.0 0.0
4047 1 2 0.0 0.0 0.0 0.0
4048 1 2 0.0 0.0 0.0 0.0
4049 1 2 0.0 0.0 0.0 0.0
4050 1 2 0.0 0.0 0.0 0.0
4051 1 2 0.0 0.0 0.0 0.0
4052 1 2 0.0 0.0 0.0 0.0
4053 1 2 0.0 0.0 0.0 0.0
4054 1 2 0.0 0.0 0.0 0.0
4055 1 2 0.0 0.0 0.0 0.0
4056 1 2 0.0 0.0 0.0 0.0
4057 1 2 0.0 0.0 0.0 0.0
4058 1 2 0.0 0.0 0.0 0.0
4059 1 2 0.0 0.0 0.0 0.0
4060 1 2 0.0 0.0 0.0 0.0
4061 1 2 0.0 0.0 0.0 0.0
4062 1 2 0.0 0.0 0.0 0.0
4063 1 2 0.0 0.0 0.0 0.0
4064 1 2 0.0 0.0 0.0 0.0
4065 1 2 0.0 0.0 0.0 0.0
4066 1 2 0.0 0.0 0.0 0.0
4067 1 2 0.0 0.0 0.0 0.0
4068 1 2 0.0 0.0 0.0 0.0
4069 1 2 0.0 0.0 0.0 0.0
4070 1 2 0.0 0.0 0.0 0.0
4071 1 2 0.0 0.0 0.0 0.0
4072 1 2 0.0 0.0 0.0 0.0
4073 1 2 0.0 0.0 0.0 0.0
4074 1 2 0.0 0.0 0.0 0.0
4075 1 2 0.0 0.0 0.0 0.0
4076 1 2 0.0 0.0 0.0 0.0
4077 1 2 0.0 0.0 0.0 0.0
4078 1 2 0.0 0.0 0.0 0.0
4079 1 2 0.0 0.0 0.0 0.0
4080 1 2 0.0 0.0 0.0 0.0
4081 1 2 0.0 0.0 0.0 0.0
4082 1 2 0.0 0.0 0.0 0.0
4083 1 2 0.0 0.0 0.0 0.0
4084 1 2 0.0 0.0 0.0 0.0
4085 1 2 0.0 0.0 0.0 0.0
4086 1 2 0.0 0.0 0.0 0.0
4087 1 2 0.0 0.0 0.0 0.0
4088 1 2 0.0 0.0 0.0 0.0
4089 1 2 0.0 0.0 0.0 0.0
4090 1 2 0.0 0.0 0.0 0.0
4091 1 2 0.0 0.0 0.0 0.0
4092 1 2 0.0 0.0 0.0 0.0
4093 1 2 0.0 0.0 0.0 0.0
4094 1 2 0.0 0.0 0.0 0.0
4095 1 2 0.0 0.0 0.0 0.0
4096 1 2 0.0 0.0 0.0 0.0
4097 1 2 0.0 0.0 0.0 0.0
4098 1 2 0.0 0.0 0.0 0.0
4099 1 2 0.0 0.0 0.0 0.0
4100 1 2 0.0 0.0 0.0 0.0
4101 1 2 0.0 0.0 0.0 0.0
4102 1 2 0.0 0.0 0.0 0.0
4103 1 2 0.0 0.0 0.0 0.0
4104 1 2 0.0 0.0 0.0 0.0
4105 1 2 0.0 0.0 0.0 0.0
4106 1 2 0.0 0.0 0.0 0.0
4107 1 2 0.0 0.0 0.0 0.0
4108 1 2 0.0 0.0 0.0 0.0
4109 1 2 0.0 0.0 0.0 0.0
4110 1 2 0.0 0.0 0.0 0.0
4111 1 2 0.0 0.0 0.0 0.0
4112 1 2 0.0 0.0 0.0 0.0
4113 1 2 0.0 0.0 0.0 0.0
4114 1 2 0.0 0.0 0.0 0.0
4115 1 2 0.0 0.0 0.0 0.0
4116 1 2 0.0 0.0 0.0 0.0
4117 1 2 0.0 0.0 0.0 0.0
4118 1 2 0.0 0.0 0.0 0.0
4119 1 2 0.0 0.0 0.0 0.0
4120 1 2 0.0 0.0 0.0 0.0
4121 1 2 0.0 0.0 0.0 0.0
4122 1 2 0.0 0.0 0.0 0.0
4123 1 2 0.0 0.0 0.0 0.0
4124 1 2 0.0 0.0 0.0 0.0
4125 1 2 0.0 0.0 0.0 0.0
4126 1 2 0.0 0.0 0.0 0.0
4127 1 2 0.0 0.0 0.0 0.0
4128 1 2 0.0 0.0 0.0 0.0
4129 1 2 0.0 0.0 0.0 0.0
4130 1 2 0.0 0.0 0.0 0.0
4131 1 2 0.0 0.0 0.0 0.0
4132 1 2 0.0 0.0 0.0 0.0
4133 1 2 0.0 0.0 0.0 0.0
4134 1 2 0.0 0.0 0.0 0.0
4135 1 2 0.0 0.0 0.0 0.0
4136 1 2 0.0 0.0 0.0 0.0
4137 1 2 0.0 0.0 0.0 0.0
4138 1 2 0.0 0.0 0.0 0.0
4139 1 2 0.0 0.0 0.0 0.0
4140 1 2 0.0 0.0 0.0 0.0
4141 1 2 0.0 0.0 0.0 0.0
4142 1 2 0.0 0.0 0.0 0.0
4143 1 2 0.0 0.0 0.0 0.0
4144 1 2 0.0 0.0 0.0 0.0
4145 1 2 0.0 0.0 0.0 0.0
4146 1 2 0.0 0.0 0.0 0.0
4147 1 2 0.0 0.0 0.0 0.0
4148 1 2 0.0 0.0 0.0 0.0
4149 1 2 0.0 0.0 0.0 0.0
4150 1 2 0.0 0.0 0.0 0.0
4151 1 2 0.0 0.0 0.0 0.0
4152 1 2 0.0 0.0 0.0 0.0
4153 1 2 0.0 0.0 0.0 0.0
4154 1 2 0.0 0.0 0.0 0.0
4155 1 2 0.0 0.0 0.0 0.0
4156 1 2 0.0 0.0 0.0 0.0
4157 1 2 0.0 0.0 0.0 0.0
4158 1 2 0.0 0.0 0.0 0.0
4159 1 2 0.0 0.0 0.0 0.0
4160 1 2 0.0 0.0 0.0 0.0
4161 1 2 0.0 0.0 0.0 0.0
4162 1 2 0.0 0.0 0.0 0.0
4163 1 2 0.0 0.0 0.0 0.0
4164 1 2 0.0 0.0 0.0 0.0
4165 1 2 0.0 0.0 0.0 0.0
4166 1 2 0.0 0.0 0.0 0.0
4167 1 2 0.0 0.0 0.0 0.0
4168 1 2 0.0 0.0 0.0 0.0
4169 1 2 0.0 0.0 0.0 0.0
4170 1 2 0.0 0.0 0.0 0.0
4171 1 2 0.0 0.0 0.0 0.0
4172 1 2 0.0 0.0 0.0 0.0
4173 1 2 0.0 0.0 0.0 0.0
4174 1 2 0.0 0.0 0.0 0.0
4175 1 2 0.0 0.0 0.0 0.0
4176 1 2 0.0 0.0 0.0 0.0
4177 1 2 0.0 0.0 0.0 0.0
4178 1 2 0.0 0.0 0.0 0.0
4179 1 2 0.0 0.0 0.0 0.0
4180 1 2 0.0 0.0 0.0 0.0
4181 1 2 0.0 0.0 0.0 0.0
4182 1 2 0.0 0.0 0.0 0.0
4183 1 2 0.0 0.0 0.0 0.0
4184 1 2 0.0 0.0 0.0 0.0
4185 1 2 0.0 0.0 0.0 0.0
4186 1 2 0.0 0.0 0.0 0.0
4187 1 2 0.0 0.0 0.0 0.0
4188 1 2 0.0 0.0 0.0 0.0
4189 1 2 0.0 0.0 0.0 0.0
4190 1 2 0.0 0.0 0.0 0.0
4191 1 2 0.0 0.0 0.0 0.0
4192 1 2 0.0 0.0 0.0 0.0
4193 1 2 0.0 0.0 0.0 0.0
4194 1 2 0.0 0.0 0.0 0.0
4195 1 2 0.0 0.0 0.0 0.0
4196 1 2 0.0 0.0 0.0 0.0
4197 1 2 0.0 0.0 0.0 0.0
4198 1 2 0.0 0.0 0.0 0.0
4199 1 2 0.0 0.0 0.0 0.0
4200 1 2 0.0 0.0 0.0 0.0
4201 1 2 0.0 0.0 0.0 0.0
4202 1 2 0.0 0.0 0.0 0.0
4203 1 2 0.0 0.0 0.0 0.0
4204 1 2 0.0 0.0 0.0 0.0
4205 1 2 0.0 0.0 0.0 0.0
4206 1 2 0.0 0.0 0.0 0.0
4207 1 2 0.0 0.0 0.0 0.0
4208 1 2 0.0 0.0 0.0 0.0
4209 1 2 0.0 0.0 0.0 0.0
4210 1 2 0.0 0.0 0.0 0.0
4211 1 2 0.0 0.0 0.0 0.0
4212 1 2 0.0 0.0 0.0 0.0
4213 1 2 0.0 0.0 0.0 0.0
4214 1 2 0.0 0.0 0.0 0.0
4215 1 2 0.0 0.0 0.0 0.0
4216 1 2 0.0 0.0 0.0 0.0
4217 1 2 0.0 0.0 0.0 0.0
4218 1 2 0.0 0.0 0.0 0.0
4219 1 2 0.0 0.0 0.0 0.0
4220 1 2 0.0 0.0 0.0 0.0
4221 1 2 0.0 0.0 0.0 0.0
4222 1 2 0.0 0.0 0.0 0.0
4223 1 2 0.0 0.0 0.0 0.0
4224 1 2 0.0 0.0 0.0 0.0
4225 1 2 0.0 0.0 0.0 0.0
4226 1 2 0.0 0.0 0.0 0.0
4227 1 2 0.0 0.0 0.0 0.0
4228 1 2 0.0 0.0 0.0 0.0
4229 1 2 0.0 0.0 0.0 0.0
4230 1 2 0.0 0.0 0.0 0.0
4231 1 2 0.0 0.0 0.0 0.0
4232 1 2 0.0 0.0 0.0 0.0
4233 1 2 0.0 0.0 0.0 0.0
4234 1 2 0.0 0.0 0.0 0.0
4235 1 2 0.0 0.0 0.0 0.0
4236 1 2 0.0 0.0 0.0 0.0
4237 1 2 0.0 0.0 0.0 0.0
4238 1 2 0.0 0.0 0.0 0.0
4239 1 2 0.0 0.0 0.0 0.0
4240 1 2 0.0 0.0 0.0 0.0
4241 1 2 0.0 0.0 0.0 0.0
4242 1 2 0.0 0.0 0.0 0.0
4243 1 2 0.0 0.0 0.0 0.0
4244 1 2 0.0 0.0 0.0 0.0
4245 1 2 0.0 0.0 0.0 0.0
4246 1 2 0.0 0.0 0.0 0.0
4247 1 2 0.0 0.0 0.0 0.0
4248 1 2 0.0 0.0 0.0 0.0
4249 1 2 0.0 0.0 0.0 0.0
4250 1 2 0.0 0.0 0.0 0.0
4251 1 2 0.0 0.0 0.0 0.0
4252 1 2 0.0 0.0 0.0 0.0
4253 1 2 0.0 0.0 0.0 0.0
4254 1 2 0.0 0.0 0.0 0.0
4255 1 2 0.0 0.0 0.0 0.0
4256 1 2 0.0 0.0 0.0 0.0
4257 1 2 0.0 0.0 0.0 0.0
4258 1 2 0.0 0.0 0.0 0.0
4259 1 2 0.0 0.0 0.0 0.0
4260 1 2 0.0 0.0 0.0 0.0
4261 1 2 0.0 0.0 0.0 0.0
4262 1 2 0.0 0.0 0.0 0.0
4263 1 2 0.0 0.0 0.0 0.0
4264 1 2 0.0 0.0 0.0 0.0
4265 1 2 0.0 0.0 0.0 0.0
4266 1 2 0.0 0.0 0.0 0.0
4267 1 2 0.0 0.0 0.0 0.0
4268 1 2 0.0 0.0 0.0 0.0
4269 1 2 0.0 0.0 0.0 0.0
4270 1 2 0.0 0.0 0.0 0.0
4271 1 2 0.0 0.0 0.0 0.0
4272 1 2 0.0 0.0 0.0 0.0
4273 1 2 0.0 0.0 0.0 0.0
4274 1 2 0.0 0.0 0.0 0.0
4275 1 2 0.0 0.0 0.0 0.0
4276 1 2 0.0 0.0 0.0 0.0
4277 1 2 0.0 0.0 0.0 0.0
4278 1 2 0.0 0.0 0.0 0.0
4279 1 2 0.0 0.0 0.0 0.0
4280 1 2 0.0 0.0 0.0 0.0
4281 1 2 0.0 0.0 0.0 0.0
4282 1 2 0.0 0.0 0.0 0.0
4283 1 2 0.0 0.0 0.0 0.0
4284 1 2 0.0 0.0 0.0 0.0
4285 1 2 0.0 0.0 0.0 0.0
4286 1 2 0.0 0.0 0.0 0.0
4287 1 2 0.0 0.0 0.0 0.0
4288 1 2 0.0 0.0 0.0 0.0
4289 1 2 0.0 0.0 0.0 0.0
4290 1 2 0.0 0.0 0.0 0.0
4291 1 2 0.0 0.0 0.0 0.0
4292 1 2 0.0 0.0 0.0 0.0
4293 1 2 0.0 0.0 0.0 0.0
4294 1 2 0.0 0.0 0.0 0.0
4295 1 2 0.0 0.0 0.0 0.0
4296 1 2 0.0 0.0 0.0 0.0
4297 1 2 0.0 0.0 0.0 0.0
4298 1 2 0.0 0.0 0.0 0.0
4299 1 2 0.0 0.0 0.0 0.0
4300 1 2 0.0 0.0 0.0 0.0
4301 1 2 0.0 0.0 0.0 0.0
4302 1 2 0.0 0.0 0.0 0.0
4303 1 2 0.0 0.0 0.0 0.0
4304 1 2 0.0 0.0 0.0 0.0
4305 1 2 0.0 0.0 0.0 0.0
4306 1 2 0.0 0.0 0.0 0.0
4307 1 2 0.0 0.0 0.0 0.0
4308 1 2 0.0 0.0 0.0 0.0
4309 1 2 0.0 0.0 0.0 0.0
4310 1 2 0.0 0.0 0.0 0.0
4311 1 2 0.0 0.0 0.0 0.0
4312 1 2 0.0 0.0 0.0 0.0
4313 1 2 0.0 0.0 0.0 0.0
4314 1 2 0.0 0.0 0.0 0.0
4315 1 2 0.0 0.0 0.0 0.0
4316 1 2 0.0 0.0 0.0 0.0
4317 1 2 0.0 0.0 0.0 0.0
4318 1 2 0.0 0.0 0.0 0.0
4319 1 2 0.0 0.0 0.0 0.0
4320 1 2 0.0 0.0 0.0 0.0
4321 1 2 0.0 0.0 0.0 0.0
4322 1 2 0.0 0.0 0.0 0.0
4323 1 2 0.0 0.0 0.0 0.0
4324 1 2 0.0 0.0 0.0 0.0
4325 1 2 0.0 0.0 0.0 0.0
4326 1 2 0.0 0.0 0.0 0.0
4327 1 2 0.0 0.0 0.0 0.0
4328 1 2 0.0 0.0 0.0 0.0
4329 1 2 0.0 0.0 0.0 0.0
4330 1 2 0.0 0.0 0.0 0.0
4331 1 2 0.0 0.0 0.0 0.0
4332 1 2 0.0 0.0 0.0 0.0
4333 1 2 0.0 0.0 0.0 0.0
4334 1 2 0.0 0.0 0.0 0.0
4335 1 2 0.0 0.0 0.0 0.0
4336 1 2 0.0 0.0 0.0 0.0
4337 1 2 0.0 0.0 0.0 0.0
4338 1 2 0.0 0.0 0.0 0.0
4339 1 2 0.0 0.0 0.0 0.0
4340 1 2 0.0 0.0 0.0 0.0
4341 1 2 0.0 0.0 0.0 0.0
4342 1 2 0.0 0.0 0.0 0.0
4343 1 2 0.0 0.0 0.0 0.0
4344 1 2 0.0 0.0 0.0 0.0
4345 1 2 0.0 0.0 0.0 0.0
4346 1 2 0.0 0.0 0.0 0.0
4347 1 2 0.0 0.0 0.0 0.0
4348 1 2 0.0 0.0 0.0 0.0
4349 1 2 0.0 0.0 0.0 0.0
4350 1 2 0.0 0.0 0.0 0.0
4351 1 2 0.0 0.0 0.0 0.0
4352 1 2 0.0 0.0 0.0 0.0
4353 1 2 0.0 0.0 0.0 0.0
4354 1 2 0.0 0.0 0.0 0.0
4355 1 2 0.0 0.0 0.0 0.0
4356 1 2 0.0 0.0 0.0 0.0
4357 1 2 0.0 0.0 0.0 0.0
4358 1 2 0.0 0.0 0.0 0.0
4359 1 2 0.0 0.0 0.0 0.0
4360 1 2 0.0 0.0 0.0 0.0
4361 1 2 0.0 0.0 0.0 0.0
4362 1 2 0.0 0.0 0.0 0.0
4363 1 2 0.0 0.0 0.0 0.0
4364 1 2 0.0 0.0 0.0 0.0
4365 1 2 0.0 0.0 0.0 0.0
4366 1 2 0.0 0.0 0.0 0.0
4367 1 2 0.0 0.0 0.0 0.0
4368 1 2 0.0 0.0 0.0 0.0
4369 1 2 0.0 0.0 0.0 0.0
4370 1 2 0.0 0.0 0.0 0.0
4371 1 2 0.0 0.0 0.0 0.0
4372 1 2 0.0 0.0 0.0 0.0
4373 1 2 0.0 0.0 0.0 0.0
4374 1 2 0.0 0.0 0.0 0.0
4375 1 2 0.0 0.0 0.0 0.0
4376 1 2 0.0 0.0 0.0 0.0
4377 1 2 0.0 0.0 0.0 0.0
4378 1 2 0.0 0.0 0.0 0.0
4379 1 2 0.0 0.0 0.0 0.0
4380 1 2 0.0 0.0 0.0 0.0
4381 1 2 0.0 0.0 0.0 0.0
4382 1 2 0.0 0.0 0.0 0.0
4383 1 2 0.0 0.0 0.0 0.0
4384 1 2 0.0 0.0 0.0 0.0
4385 1 2 0.0 0.0 0.0 0.0
4386 1 2 0.0 0.0 0.0 0.0
4387 1 2 0.0 0.0 0.0 0.0
4388 1 2 0.0 0.0 0.0 0.0
4389 1 2 0.0 0.0 0.0 0.0
4390 1 2 0.0 0.0 0.0 0.0
4391 1 2 0.0 0.0 0.0 0.0
4392 1 2 0.0 0.0 0.0 0.0
4393 1 2 0.0 0.0 0.0 0.0
4394 1 2 0.0 0.0 0.0 0.0
4395 1 2 0.0 0.0 0.0 0.0
4396 1 2 0.0 0.0 0.0 0.0
4397 1 2 0.0 0.0 0.0 0.0
4398 1 2 0.0 0.0 0.0 0.0
4399 1 2 0.0 0.0 0.0 0.0
4400 1 2 0.0 0.0 0.0 0.0
4401 1 2 0.0 0.0 0.0 0.0
4402 1 2 0.0 0.0 0.0 0.0
4403 1 2 0.0 0.0 0.0 0.0
4404 1 2 0.0 0.0 0.0 0.0
4405 1 2 0.0 0.0 0.0 0.0
4406 1 2 0.0 0.0 0.0 0.0
4407 1 2 0.0 0.0 0.0 0.0
4408 1 2 0.0 0.0 0.0 0.0
4409 1 2 0.0 0.0 0.0 0.0
4410 1 2 0.0 0.0 0.0 0.0
4411 1 2 0.0 0.0 0.0 0.0
4412 1 2 0.0 0.0 0.0 0.0
4413 1 2 0.0 0.0 0.0 0.0
4414 1 2 0.0 0.0 0.0 0.0
4415 1 2 0.0 0.0 0.0 0.0
4416 1 2 0.0 0.0 0.0 0.0
4417 1 2 0.0 0.0 0.0 0.0
4418 1 2 0.0 0.0 0.0 0.0
4419 1 2 0.0 0.0 0.0 0.0
4420 1 2 0.0 0.0 0.0 0.0
4421 1 2 0.0 0.0 0.0 0.0
4422 1 2 0.0 0.0 0.0 0.0
4423 1 2 0.0 0.0 0.0 0.0
4424 1 2 0.0 0.0 0.0 0.0
4425 1 2 0.0 0.0 0.0 0.0
4426 1 2 0.0 0.0 0.0 0.0
4427 1 2 0.0 0.0 0.0 0.0
4428 1 2 0.0 0.0 0.0 0.0
4429 1 2 0.0 0.0 0.0 0.0
4430 1 2 0.0 0.0 0.0 0.0
4431 1 2 0.0 0.0 0.0 0.0
4432 1 2 0.0 0.0 0.0 0.0
4433 1 2 0.0 0.0 0.0 0.0
4434 1 2 0.0 0.0 0.0 0.0
4435 1 2 0.0 0.0 0.0 0.0
4436 1 2 0.0 0.0 0.0 0.0
4437 1 2 0.0 0.0 0.0 0.0
4438 1 2 0.0 0.0 0.0 0.0
4439 1 2 0.0 0.0 0.0 0.0
4440 1 2 0.0 0.0 0.0 0.0
4441 1 2 0.0 0.0 0.0 0.0
4442 1 2 0.0 0.0 0.0 0.0
4443 1 2 0.0 0.0 0.0 0.0
4444 1 2 0.0 0.0 0.0 0.0
4445 1 2 0.0 0.0 0.0 0.0
4446 1 2 0.0 0.0 0.0 0.0
4447 1 2 0.0 0.0 0.0 0.0
4448 1 2 0.0 0.0 0.0 0.0
4449 1 2 0.0 0.0 0.0 0.0
4450 1 2 0.0 0.0 0.0 0.0
4451 1 2 0.0 0.0 0.0 0.0
4452 1 2 0.0 0.0 0.0 0.0
4453 1 2 0.0 0.0 0.0 0.0
4454 1 2 0.0 0.0 0.0 0.0
4455 1 2 0.0 0.0 0.0 0.0
4456 1 2 0.0 0.0 0.0 0.0
4457 1 2 0.0 0.0 0.0 0.0
4458 1 2 0.0 0.0 0.0 0.0
4459 1 2 0.0 0.0 0.0 0.0
4460 1 2 0.0 0.0 0.0 0.0
4461 1 2 0.0 0.0 0.0 0.0
4462 1 2 0.0 0.0 0.0 0.0
4463 1 2 0.0 0.0 0.0 0.0
4464 1 2 0.0 0.0 0.0 0.0
4465 1 2 0.0 0.0 0.0 0.0
4466 1 2 0.0 0.0 0.0 0.0
4467 1 2 0.0 0.0 0.0 0.0
4468 1 2 0.0 0.0 0.0 0.0
4469 1 2 0.0 0.0 0.0 0.0
4470 1 2 0.0 0.0 0.0 0.0
4471 1 2 0.0 0.0 0.0 0.0
4472 1 2 0.0 0.0 0.0 0.0
4473 1 2 0.0 0.0 0.0 0.0
4474 1 2 0.0 0.0 0.0 0.0
4475 1 2 0.0 0.0 0.0 0.0
4476 1 2 0.0 0.0 0.0 0.0
4477 1 2 0.0 0.0 0.0 0.0
4478 1 2 0.0 0.0 0.0 0.0
4479 1 2 0.0 0.0 0.0 0.0
4480 1 2 0.0 0.0 0.0 0.0
4481 1 2 0.0 0.0 0.0 0.0
4482 1 2 0.0 0.0 0.0 0.0
4483 1 2 0.0 0.0 0.0 0.0
4484 1 2 0.0 0.0 0.0 0.0
4485 1 2 0.0 0.0 0.0 0.0
4486 1 2 0.0 0.0 0.0 0.0
4487 1 2 0.0 0.0 0.0 0.0
4488 1 2 0.0 0.0 0.0 0.0
4489 1 2 0.0 0.0 0.0 0.0
4490 1 2 0.0 0.0 0.0 0.0
4491 1 2 0.0 0.0 0.0 0.0
4492 1 2 0.0 0.0 0.0 0.0
4493 1 2 0.0 0.0 0.0 0.0
4494 1 2 0.0 0.0 0.0 0.0
4495 1 2 0.0 0.0 0.0 0.0
4496 1 2 0.0 0.0 0.0 0.0
4497 1 2 0.0 0.0 0.0 0.0
4498 1 2 0.0 0.0 0.0 0.0
4499 1 2 0.0 0.0 0.0 0.0
4500 1 2 0.0 0.0 0.0 0.0
4501 1 2 0.0 0.0 0.0 0.0
4502 1 2 0.0 0.0 0.0 0.0
4503 1 2 0.0 0.0 0.0 0.0
4504 1 2 0.0 0.0 0.0 0.0
4505 1 2 0.0 0.0 0.0 0.0
4506 1 2 0.0 0.0 0.0 0.0
4507 1 2 0.0 0.0 0.0 0.0
4508 1 2 0.0 0.0 0.0 0.0
4509 1 2 0.0 0.0 0.0 0.0
4510 1 2 0.0 0.0 0.0 0.0
4511 1 2 0.0 0.0 0.0 0.0
4512 1 2 0.0 0.0 0.0 0.0
4513 1 2 0.0 0.0 0.0 0.0
4514 1 2 0.0 0.0 0.0 0.0
4515 1 2 0.0 0.0 0.0 0.0
4516 1 2 0.0 0.0 0.0 0.0
4517 1 2 0.0 0.0 0.0 0.0
4518 1 2 0.0 0.0 0.0 0.0
4519 1 2 0.0 0.0 0.0 0.0
4520 1 2 0.0 0.0 0.0 0.0
4521 1 2 0.0 0.0 0.0 0.0
4522 1 2 0.0 0.0 0.0 0.0
4523 1 2 0.0 0.0 0.0 0.0
4524 1 2 0.0 0.0 0.0 0.0
4525 1 2 0.0 0.0 0.0 0.0
4526 1 2 0.0 0.0 0.0 0.0
4527 1 2 0.0 0.0 0.0 0.0
4528 1 2 0.0 0.0 0.0 0.0
4529 1 2 0.0 0.0 0.0 0.0
4530 1 2 0.0 0.0 0.0 0.0
4531 1 2 0.0 0.0 0.0 0.0
4532 1 2 0.0 0.0 0.0 0.0
4533 1 2 0.0 0.0 0.0 0.0
4534 1 2 0.0 0.0 0.0 0.0
4535 1 2 0.0 0.0 0.0 0.0
4536 1 2 0.0 0.0 0.0 0.0
4537 1 2 0.0 0.0 0.0 0.0
4538 1 2 0.0 0.0 0.0 0.0
4539 1 2 0.0 0.0 0.0 0.0
4540 1 2 0.0 0.0 0.0 0.0
4541 1 2 0.0 0.0 0.0 0.0
4542 1 2 0.0 0.0 0.0 0.0
4543 1 2 0.0 0.0 0.0 0.0
4544 1 2 0.0 0.0 0.0 0.0
4545 1 2 0.0 0.0 0.0 0.0
4546 1 2 0.0 0.0 0.0 0.0
4547 1 2 0.0 0.0 0.0 0.0
4548 1 2 0.0 0.0 0.0 0.0
4549 1 2 0.0 0.0 0.0 0.0
4550 1 2 0.0 0.0 0.0 0.0
4551 1 2 0.0 0.0 0.0 0.0
4552 1 2 0.0 0.0 0.0 0.0
4553 1 2 0.0 0.0 0.0 0.0
4554 1 2 0.0 0.0 0.0 0.0
4555 1 2 0.0 0.0 0.0 0.0
4556 1 2 0.0 0.0 0.0 0.0
4557 1 2 0.0 0.0 0.0 0.0
4558 1 2 0.0 0.0 0.0 0.0
4559 1 2 0.0 0.0 0.0 0.0
4560 1 2 0.0 0.0 0.0 0.0
4561 1 2 0.0 0.0 0.0 0.0
4562 1 2 0.0 0.0 0.0 0.0
4563 1 2 0.0 0.0 0.0 0.0
4564 1 2 0.0 0.0 0.0 0.0
4565 1 2 0.0 0.0 0.0 0.0
4566 1 2 0.0 0.0 0.0 0.0
4567 1 2 0.0 0.0 0.0 0.0
4568 1 2 0.0 0.0 0.0 0.0
4569 1 2 0.0 0.0 0.0 0.0
4570 1 2 0.0 0.0 0.0 0.0
4571 1 2 0.0 0.0 0.0 0.0
4572 1 2 0.0 0.0 0.0 0.0
4573 1 2 0.0 0.0 0.0 0.0
4574 1 2 0.0 0.0 0.0 0.0
4575 1 2 0.0 0.0 0.0 0.0
4576 1 2 0.0 0.0 0.0 0.0
4577 1 2 0.0 0.0 0.0 0.0
4578 1 2 0.0 0.0 0.0 0.0
4579 1 2 0.0 0.0 0.0 0.0
4580 1 2 0.0 0.0 0.0 0.0
4581 1 2 0.0 0.0 0.0 0.0
4582 1 2 0.0 0.0 0.0 0.0
4583 1 2 0.0 0.0 0.0 0.0
4584 1 2 0.0 0.0 0.0 0.0
4585 1 2 0.0 0.0 0.0 0.0
4586 1 2 0.0 0.0 0.0 0.0
4587 1 2 0.0 0.0 0.0 0.0
4588 1 2 0.0 0.0 0.0 0.0
4589 1 2 0.0 0.0 0.0 0.0
4590 1 2 0.0 0.0 0.0 0.0
4591 1 2 0.0 0.0 0.0 0.0
4592 1 2 0.0 0.0 0.0 0.0
4593 1 2 0.0 0.0 0.0 0.0
4594 1 2 0.0 0.0 0.0 0.0
4595 1 2 0.0 0.0 0.0 0.0
4596 1 2 0.0 0.0 0.0 0.0
4597 1 2 0.0 0.0 0.0 0.0
4598 1 2 0.0 0.0 0.0 0.0
4599 1 2 0.0 0.0 0.0 0.0
4600 1 2 0.0 0.0 0.0 0.0
4601 1 2 0.0 0.0 0.0 0.0
4602 1 2 0.0 0.0 0.0 0.0
4603 1 2 0.0 0.0 0.0 0.0
4604 1 2 0.0 0.0 0.0 0.0
4605 1 2 0.0 0.0 0.0 0.0
4606 1 2 0.0 0.0 0.0 0.0
4607 1 2 0.0 0.0 0.0 0.0
4608 1 2 0.0 0.0 0.0 0.0
4609 1 2 0.0 0.0 0.0 0.0
4610 1 2 0.0 0.0 0.0 0.0
4611 1 2 0.0 0.0 0.0 0.0
4612 1 2 0.0 0.0 0.0 0.0
4613 1 2 0.0 0.0 0.0 0.0
4614 1 2 0.0 0.0 0.0 0.0
4615 1 2 0.0 0.0 0.0 0.0
4616 1 2 0.0 0.0 0.0 0.0
4617 1 2 0.0 0.0 0.0 0.0
4618 1 2 0.0 0.0 0.0 0.0
4619 1 2 0.0 0.0 0.0 0.0
4620 1 2 0.0 0.0 0.0 0.0
4621 1 2 0.0 0.0 0.0 0.0
4622 1 2 0.0 0.0 0.0 0.0
4623 1 2 0.0 0.0 0.0 0.0
4624 1 2 0.0 0.0 0.0 0.0
4625 1 2 0.0 0.0 0.0 0.0
4626 1 2 0.0 0.0 0.0 0.0
4627 1 2 0.0 0.0 0.0 0.0
4628 1 2 0.0 0.0 0.0 0.0
4629 1 2 0.0 0.0 0.0 0.0
4630 1 2 0.0 0.0 0.0 0.0
4631 1 2 0.0 0.0 0.0 0.0
4632 1 2 0.0 0.0 0.0 0.0
4633 1 2 0.0 0.0 0.0 0.0
4634 1 2 0.0 0.0 0.0 0.0
4635 1 2 0.0 0.0 0.0 0.0
4636 1 2 0.0 0.0 0.0 0.0
4637 1 2 0.0 0.0 0.0 0.0
4638 1 2 0.0 0.0 0.0 0.0
4639 1 2 0.0 0.0 0.0 0.0
4640 1 2 0.0 0.0 0.0 0.0
4641 1 2 0.0 0.0 0.0 0.0
4642 1 2 0.0 0.0 0.0 0.0
4643 1 2 0.0 0.0 0.0 0.0
4644 1 2 0.0 0.0 0.0 0.0
4645 1 2 0.0 0.0 0.0 0.0
4646 1 2 0.0 0.0 0.0 0.0
4647 1 2 0.0 0.0 0.0 0.0
4648 1 2 0.0 0.0 0.0 0.0
4649 1 2 0.0 0.0 0.0 0.0
4650 1 2 0.0 0.0 0.0 0.0
4651 1 2 0.0 0.0 0.0 0.0
4652 1 2 0.0 0.0 0.0 0.0
4653 1 2 0.0 0.0 0.0 0.0
4654 1 2 0.0 0.0 0.0 0.0
4655 1 2 0.0 0.0 0.0 0.0
4656 1 2 0.0 0.0 0.0 0.0
4657 1 2 0.0 0.0 0.0 0.0
4658 1 2 0.0 0.0 0.0 0.0
4659 1 2 0.0 0.0 0.0 0.0
4660 1 2 0.0 0.0 0.0 0.0
4661 1 2 0.0 0.0 0.0 0.0
4662 1 2 0.0 0.0 0.0 0.0
4663 1 2 0.0 0.0 0.0 0.0
4664 1 2 0.0 0.0 0.0 0.0
4665 1 2 0.0 0.0 0.0 0.0
4666 1 2 0.0 0.0 0.0 0.0
4667 1 2 0.0 0.0 0.0 0.0
4668 1 2 0.0 0.0 0.0 0.0
4669 1 2 0.0 0.0 0.0 0.0
4670 1 2 0.0 0.0 0.0 0.0
4671 1 2 0.0 0.0 0.0 0.0
4672 1 2 0.0 0.0 0.0 0.0
4673 1 2 0.0 0.0 0.0 0.0
4674 1 2 0.0 0.0 0.0 0.0
4675 1 2 0.0 0.0 0.0 0.0
4676 1 2 0.0 0.0 0.0 0.0
4677 1 2 0.0 0.0 0.0 0.0
4678 1 2 0.0 0.0 0.0 0.0
4679 1 2 0.0 0.0 0.0 0.0
4680 1 2 0.0 0.0 0.0 0.0
4681 1 2 0.0 0.0 0.0 0.0
4682 1 2 0.0 0.0 0.0 0.0
4683 1 2 0.0 0.0 0.0 0.0
4684 1 2 0.0 0.0 0.0 0.0
4685 1 2 0.0 0.0 0.0 0.0
4686 1 2 0.0 0.0 0.0 0.0
4687 1 2 0.0 0.0 0.0 0.0
4688 1 2 0.0 0.0 0.0 0.0
4689 1 2 0.0 0.0 0.0 0.0
4690 1 2 0.0 0.0 0.0 0.0
4691 1 2 0.0 0.0 0.0 0.0
4692 1 2 0.0 0.0 0.0 0.0
4693 1 2 0.0 0.0 0.0 0.0
4694 1 2 0.0 0.0 0.0 0.0
4695 1 2 0.0 0.0 0.0 0.0
4696 1 2 0.0 0.0 0.0 0.0
4697 1 2 0.0 0.0 0.0 0.0
4698 1 2 0.0 0.0 0.0 0.0
4699 1 2 0.0 0.0 0.0 0.0
4700 1 2 0.0 0.0 0.0 0.0
4701 1 2 0.0 0.0 0.0 0.0
4702 1 2 0.0 0.0 0.0 0.0
4703 1 2 0.0 0.0 0.0 0.0
4704 1 2 0.0 0.0 0.0 0.0
4705 1 2 0.0 0.0 0.0 0.0
4706 1 2 0.0 0.0 0.0 0.0
4707 1 2 0.0 0.0 0.0 0.0
4708 1 2 0.0 0.0 0.0 0.0
4709 1 2 0.0 0.0 0.0 0.0
4710 1 2 0.0 0.0 0.0 0.0
4711 1 2 0.0 0.0 0.0 0.0
4712 1 2 0.0 0.0 0.0 0.0
4713 1 2 0.0 0.0 0.0 0.0
4714 1 2 0.0 0.0 0.0 0.0
4715 1 2 0.0 0.0 0.0 0.0
4716 1 2 0.0 0.0 0.0 0.0
4717 1 2 0.0 0.0 0.0 0.0
4718 1 2 0.0 0.0 0.0 0.0
4719 1 2 0.0 0.0 0.0 0.0
4720 1 2 0.0 0.0 0.0 0.0
4721 1 2 0.0 0.0 0.0 0.0
4722 1 2 0.0 0.0 0.0 0.0
4723 1 2 0.0 0.0 0.0 0.0
4724 1 2 0.0 0.0 0.0 0.0
4725 1 2 0.0 0.0 0.0 0.0
4726 1 2 0.0 0.0 0.0 0.0
4727 1 2 0.0 0.0 0.0 0.0
4728 1 2 0.0 0.0 0.0 0.0
4729 1 2 0.0 0.0 0.0 0.0
4730 1 2 0.0 0.0 0.0 0.0
4731 1 2 0.0 0.0 0.0 0.0
4732 1 2 0.0 0.0 0.0 0.0
4733 1 2 0.0 0.0 0.0 0.0
4734 1 2 0.0 0.0 0.0 0.0
4735 1 2 0.0 0.0 0.0 0.0
4736 1 2 0.0 0.0 0.0 0.0
4737 1 2 0.0 0.0 0.0 0.0
4738 1 2 0.0 0.0 0.0 0.0
4739 1 2 0.0 0.0 0.0 0.0
4740 1 2 0.0 0.0 0.0 0.0
4741 1 2 0.0 0.0 0.0 0.0
4742 1 2 0.0 0.0 0.0 0.0
4743 1 2 0.0 0.0 0.0 0.0
4744 1 2 0.0 0.0 0.0 0.0
4745 1 2 0.0 0.0 0.0 0.0
4746 1 2 0.0 0.0 0.0 0.0
4747 1 2 0.0 0.0 0.0 0.0
4748 1 2 0.0 0.0 0.0 0.0
4749 1 2 0.0 0.0 0.0 0.0
4750 1 2 0.0 0.0 0.0 0.0
4751 1 2 0.0 0.0 0.0 0.0
4752 1 2 0.0 0.0 0.0 0.0
4753 1 2 0.0 0.0 0.0 0.0
4754 1 2 0.0 0.0 0.0 0.0
4755 1 2 0.0 0.0 0.0 0.0
4756 1 2 0.0 0.0 0.0 0.0
4757 1 2 0.0 0.0 0.0 0.0
4758 1 2 0.0 0.0 0.0 0.0
4759 1 2 0.0 0.0 0.0 0.0
4760 1 2 0.0 0.0 0.0 0.0
4761 1 2 0.0 0.0 0.0 0.0
4762 1 2 0.0 0.0 0.0 0.0
4763 1 2 0.0 0.0 0.0 0.0
4764 1 2 0.0 0.0 0.0 0.0
4765 1 2 0.0 0.0 0.0 0.0
4766 1 2 0.0 0.0 0.0 0.0
4767 1 2 0.0 0.0 0.0 0.0
4768 1 2 0.0 0.0 0.0 0.0
4769 1 2 0.0 0.0 0.0 0.0
4770 1 2 0.0 0.0 0.0 0.0
4771 1 2 0.0 0.0 0.0 0.0
4772 1 2 0.0 0.0 0.0 0.0
4773 1 2 0.0 0.0 0.0 0.0
4774 1 2 0.0 0.0 0.0 0.0
4775 1 2 0.0 0.0 0.0 0.0
4776 1 2 0.0 0.0 0.0 0.0
4777 1 2 0.0 0.0 0.0 0.0
4778 1 2 0.0 0.0 0.0 0.0
4779 1 2 0.0 0.0 0.0 0.0
4780 1 2 0.0 0.0 0.0 0.0
4781 1 2 0.0 0.0 0.0 0.0
4782 1 2 0.0 0.0 0.0 0.0
4783 1 2 0.0 0.0 0.0 0.0
4784 1 2 0.0 0.0 0.0 0.0
4785 1 2 0.0 0.0 0.0 0.0
4786 1 2 0.0 0.0 0.0 0.0
4787 1 2 0.0 0.0 0.0 0.0
4788 1 2 0.0 0.0 0.0 0.0
4789 1 2 0.0 0.0 0.0 0.0
4790 1 2 0.0 0.0 0.0 0.0
4791 1 2 0.0 0.0 0.0 0.0
4792 1 2 0.0 0.0 0.0 0.0
4793 1 2 0.0 0.0 0.0 0.0
4794 1 2 0.0 0.0 0.0 0.0
4795 1 2 0.0 0.0 0.0 0.0
4796 1 2 0.0 0.0 0.0 0.0
4797 1 2 0.0 0.0 0.0 0.0
4798 1 2 0.0 0.0 0.0 0.0
4799 1 2 0.0 0.0 0.0 0.0
4800 1 2 0.0 0.0 0.0 0.0
4801 1 2 0.0 0.0 0.0 0.0
4802 1 2 0.0 0.0 0.0 0.0
4803 1 2 0.0 0.0 0.0 0.0
4804 1 2 0.0 0.0 0.0 0.0
4805 1 2 0.0 0.0 0.0 0.0
4806 1 2 0.0 0.0 0.0 0.0
4807 1 2 0.0 0.0 0.0 0.0
4808 1 2 0.0 0.0 0.0 0.0
4809 1 2 0.0 0.0 0.0 0.0
4810 1 2 0.0 0.0 0.0 0.0
4811 1 2 0.0 0.0 0.0 0.0
4812 1 2 0.0 0.0 0.0 0.0
4813 1 2 0.0 0.0 0.0 0.0
4814 1 2 0.0 0.0 0.0 0.0
4815 1 2 0.0 0.0 0.0 0.0
4816 1 2 0.0 0.0 0.0 0.0
4817 1 2 0.0 0.0 0.0 0.0
4818 1 2 0.0 0.0 0.0 0.0
4819 1 2 0.0 0.0 0.0 0.0
4820 1 2 0.0 0.0 0.0 0.0
4821 1 2 0.0 0.0 0.0 0.0
4822 1 2 0.0 0.0 0.0 0.0
4823 1 2 0.0 0.0 0.0 0.0
4824 1 2 0.0 0.0 0.0 0.0
4825 1 2 0.0 0.0 0.0 0.0
4826 1 2 0.0 0.0 0.0 0.0
4827 1 2 0.0 0.0 0.0 0.0
4828 1 2 0.0 0.0 0.0 0.0
4829 1 2 0.0 0.0 0.0 0.0
4830 1 2 0.0 0.0 0.0 0.0
4831 1 2 0.0 0.0 0.0 0.0
4832 1 2 0.0 0.0 0.0 0.0
4833 1 2 0.0 0.0 0.0 0.0
4834 1 2 0.0 0.0 0.0 0.0
4835 1 2 0.0 0.0 0.0 0.0
4836 1 2 0.0 0.0 0.0 0.0
4837 1 2 0.0 0.0 0.0 0.0
4838 1 2 0.0 0.0 0.0 0.0
4839 1 2 0.0 0.0 0.0 0.0
4840 1 2 0.0 0.0 0.0 0.0
4841 1 2 0.0 0.0 0.0 0.0
4842 1 2 0.0 0.0 0.0 0.0
4843 1 2 0.0 0.0 0.0 0.0
4844 1 2 0.0 0.0 0.0 0.0
4845 1 2 0.0 0.0 0.0 0.0
4846 1 2 0.0 0.0 0.0 0.0
4847 1 2 0.0 0.0 0.0 0.0
4848 1 2 0.0 0.0 0.0 0.0
4849 1 2 0.0 0.0 0.0 0.0
4850 1 2 0.0 0.0 0.0 0.0
4851 1 2 0.0 0.0 0.0 0.0
4852 1 2 0.0 0.0 0.0 0.0
4853 1 2 0.0 0.0 0.0 0.0
4854 1 2 0.0 0.0 0.0 0.0
4855 1 2 0.0 0.0 0.0 0.0
4856 1 2 0.0 0.0 0.0 0.0
4857 1 2 0.0 0.0 0.0 0.0
4858 1 2 0.0 0.0 0.0 0.0
4859 1 2 0.0 0.0 0.0 0.0
4860 1 2 0.0 0.0 0.0 0.0
4861 1 2 0.0 0.0 0.0 0.0
4862 1 2 0.0 0.0 0.0 0.0
4863 1 2 0.0 0.0 0.0 0.0
4864 1 2 0.0 0.0 0.0 0.0
4865 1 2 0.0 0.0 0.0 0.0
4866 1 2 0.0 0.0 0.0 0.0
4867 1 2 0.0 0.0 0.0 0.0
4868 1 2 0.0 0.0 0.0 0.0
4869 1 2 0.0 0.0 0.0 0.0
4870 1 2 0.0 0.0 0.0 0.0
4871 1 2 0.0 0.0 0.0 0.0
4872 1 2 0.0 0.0 0.0 0.0
4873 1 2 0.0 0.0 0.0 0.0
4874 1 2 0.0 0.0 0.0 0.0
4875 1 2 0.0 0.0 0.0 0.0
4876 1 2 0.0 0.0 0.0 0.0
4877 1 2 0.0 0.0 0.0 0.0
4878 1 2 0.0 0.0 0.0 0.0
4879 1 2 0.0 0.0 0.0 0.0
4880 1 2 0.0 0.0 0.0 0.0
4881 1 2 0.0 0.0 0.0 0.0
4882 1 2 0.0 0.0 0.0 0.0
4883 1 2 0.0 0.0 0.0 0.0
4884 1 2 0.0 0.0 0.0 0.0
4885 1 2 0.0 0.0 0.0 0.0
4886 1 2 0.0 0.0 0.0 0.0
4887 1 2 0.0 0.0 0.0 0.0
4888 1 2 0.0 0.0 0.0 0.0
4889 1 2 0.0 0.0 0.0 0.0
4890 1 2 0.0 0.0 0.0 0.0
4891 1 2 0.0 0.0 0.0 0.0
4892 1 2 0.0 0.0 0.0 0.0
4893 1 2 0.0 0.0 0.0 0.0
4894 1 2 0.0 0.0 0.0 0.0
4895 1 2 0.0 0.0 0.0 0.0
4896 1 2 0.0 0.0 0.0 0.0
4897 1 2 0.0 0.0 0.0 0.0
4898 1 2 0.0 0.0 0.0 0.0
4899 1 2 0.0 0.0 0.0 0.0
4900 1 2 0.0 0.0 0.0 0.0
4901 1 2 0.0 0.0 0.0 0.0
4902 1 2 0.0 0.0 0.0 0.0
4903 1 2 0.0 0.0 0.0 0.0
4904 1 2 0.0 0.0 0.0 0.0
4905 1 2 0.0 0.0 0.0 0.0
4906 1 2 0.0 0.0 0.0 0.0
4907 1 2 0.0 0.0 0.0 0.0
4908 1 2 0.0 0.0 0.0 0.0
4909 1 2 0.0 0.0 0.0 0.0
4910 1 2 0.0 0.0 0.0 0.0
4911 1 2 0.0 0.0 0.0 0.0
4912 1 2 0.0 0.0 0.0 0.0
4913 1 2 0.0 0.0 0.0 0.0
4914 1 2 0.0 0.0 0.0 0.0
4915 1 2 0.0 0.0 0.0 0.0
4916 1 2 0.0 0.0 0.0 0.0
4917 1 2 0.0 0.0 0.0 0.0
4918 1 2 0.0 0.0 0.0 0.0
4919 1 2 0.0 0.0 0.0 0.0
4920 1 2 0.0 0.0 0.0 0.0
4921 1 2 0.0 0.0 0.0 0.0
4922 1 2 0.0 0.0 0.0 0.0
4923 1 2 0.0 0.0 0.0 0.0
4924 1 2 0.0 0.0 0.0 0.0
4925 1 2 0.0 0.0 0.0 0.0
4926 1 2 0.0 0.0 0.0 0.0
4927 1 2 0.0 0.0 0.0 0.0
4928 1 2 0.0 0.0 0.0 0.0
4929 1 2 0.0 0.0 0.0 0.0
4930 1 2 0.0 0.0 0.0 0.0
4931 1 2 0.0 0.0 0.0 0.0
4932 1 2 0.0 0.0 0.0 0.0
4933 1 2 0.0 0.0 0.0 0.0
4934 1 2 0.0 0.0 0.0 0.0
4935 1 2 0.0 0.0 0.0 0.0
4936 1 2 0.0 0.0 0.0 0.0
4937 1 2 0.0 0.0 0.0 0.0
4938 1 2 0.0 0.0 0.0 0.0
4939 1 2 0.0 0.0 0.0 0.0
4940 1 2 0.0 0.0 0.0 0.0
4941 1 2 0.0 0.0 0.0 0.0
4942 1 2 0.0 0.0 0.0 0.0
4943 1 2 0.0 0.0 0.0 0.0
4944 1 2 0.0 0.0 0.0 0.0
4945 1 2 0.0 0.0 0.0 0.0
4946 1 2 0.0 0.0 0.0 0.0
4947 1 2 0.0 0.0 0.0 0.0
4948 1 2 0.0 0.0 0.0 0.0
4949 1 2 0.0 0.0 0.0 0.0
4950 1 2 0.0 0.0 0.0 0.0
4951 1 2 0.0 0.0 0.0 0.0
4952 1 2 0.0 0.0 0.0 0.0
4953 1 2 0.0 0.0 0.0 0.0
4954 1 2 0.0 0.0 0.0 0.0
4955 1 2 0.0 0.0 0.0 0.0
4956 1 2 0.0 0.0 0.0 0.0
4957 1 2 0.0 0.0 0.0 0.0
4958 1 2 0.0 0.0 0.0 0.0
4959 1 2 0.0 0.0 0.0 0.0
4960 1 2 0.0 0.0 0.0 0.0
4961 1 2 0.0 0.0 0.0 0.0
4962 1 2 0.0 0.0 0.0 0.0
4963 1 2 0.0 0.0 0.0 0.0
4964 1 2 0.0 0.0 0.0 0.0
4965 1 2 0.0 0.0 0.0 0.0
4966 1 2 0.0 0.0 0.0 0.0
4967 1 2 0.0 0.0 0.0 0.0
4968 1 2 0.0 0.0 0.0 0.0
4969 1 2 0.0 0.0 0.0 0.0
4970 1 2 0.0 0.0 0.0 0.0
4971 1 2 0.0 0.0 0.0 0.0
4972 1 2 0.0 0.0 0.0 0.0
4973 1 2 0.0 0.0 0.0 0.0
4974 1 2 0.0 0.0 0.0 0.0
4975 1 2 0.0 0.0 0.0 0.0
4976 1 2 0.0 0.0 0.0 0.0
4977 1 2 0.0 0.0 0.0 0.0
4978 1 2 0.0 0.0 0.0 0.0
4979 1 2 0.0 0.0 0.0 0.0
4980 1 2 0.0 0.0 0.0 0.0
4981 1 2 0.0 0.0 0.0 0.0
4982 1 2 0.0 0.0 0.0 0.0
4983 1 2 0.0 0.0 0.0 0.0
4984 1 2 0.0 0.0 0.0 0.0
4985 1 2 0.0 0.0 0.0 0.0
4986 1 2 0.0 0.0 0.0 0.0
4987 1 2 0.0 0.0 0.0 0.0
4988 1 2 0.0 0.0 0.0 0.0
4989 1 2 0.0 0.0 0.0 0.0
4990 1 2 0.0 0.0 0.0 0.0
4991 1 2 0.0 0.0 0.0 0.0
4992 1 2 0.0 0.0 0.0 0.0
4993 1 2 0.0 0.0 0.0 0.0
4994 1 2 0.0 0.0 0.0 0.0
4995 1 2 0.0 0.0 0.0 0.0
4996 1 2 0.0 0.0 0.0 0.0
4997 1 2 0.0 0.0 0.0 0.0
4998 1 2 0.0 0.0 0.0 0.0
4999 1 2 0.0 0.0 0.0 0.0
5000 1 2 0.0 0.0 0.0 0.0
5001 1 2 0.0 0.0 0.0 0.0
5002 1 2 0.0 0.0 0.0 0.0
5003 1 2 0.0 0.0 0.0 0.0
5004 1 2 0.0 0.0 0.0 0.0
5005 1 2 0.0 0.0 0.0 0.0
5006 1 2 0.0 0.0 0.0 0.0
5007 1 2 0.0 0.0 0.0 0.0
5008 1 2 0.0 0.0 0.0 0.0
5009 1 2 0.0 0.0 0.0 0.0
5010 1 2 0.0 0.0 0.0 0.0
5011 1 2 0.0 0.0 0.0 0.0
5012 1 2 0.0 0.0 0.0 0.0
5013 1 2 0.0 0.0 0.0 0.0
5014 1 2 0.0 0.0 0.0 0.0
5015 1 2 0.0 0.0 0.0 0.0
5016 1 2 0.0 0.0 0.0 0.0
5017 1 2 0.0 0.0 0.0 0.0
5018 1 2 0.0 0.0 0.0 0.0
5019 1 2 0.0 0.0 0.0 0.0
5020 1 2 0.0 0.0 0.0 0.0
5021 1 2 0.0 0.0 0.0 0.0
5022 1 2 0.0 0.0 0.0 0.0
5023 1 2 0.0 0.0 0.0 0.0
5024 1 2 0.0 0.0 0.0 0.0
5025 1 2 0.0 0.0 0.0 0.0
5026 1 2 0.0 0.0 0.0 0.0
5027 1 2 0.0 0.0 0.0 0.0
5028 1 2 0.0 0.0 0.0 0.0
5029 1 2 0.0 0.0 0.0 0.0
5030 1 2 0.0 0.0 0.0 0.0
5031 1 2 0.0 0.0 0.0 0.0
5032 1 2 0.0 0.0 0.0 0.0
5033 1 2 0.0 0.0 0.0 0.0
5034 1 2 0.0 0.0 0.0 0.0
5035 1 2 0.0 0.0 0.0 0.0
5036 1 2 0.0 0.0 0.0 0.0
5037 1 2 0.0 0.0 0.0 0.0
5038 1 2 0.0 0.0 0.0 0.0
5039 1 2 0.0 0.0 0.0 0.0
5040 1 2 0.0 0.0 0.0 0.0
5041 1 2 0.0 0.0 0.0 0.0
5042 1 2 0.0 0.0 0.0 0.0
5043 1 2 0.0 0.0 0.0 0.0
5044 1 2 0.0 0.0 0.0 0.0
5045 1 2 0.0 0.0 0.0 0.0
5046 1 2 0.0 0.0 0.0 0.0
5047 1 2 0.0 0.0 0.0 0.0
5048 1 2 0.0 0.0 0.0 0.0
5049 1 2 0.0 0.0 0.0 0.0
5050 1 2 0.0 0.0 0.0 0.0
5051 1 2 0.0 0.0 0.0 0.0
5052 1 2 0.0 0.0 0.0 0.0
5053 1 2 0.0 0.0 0.0 0.0
5054 1 2 0.0 0.0 0.0 0.0
5055 1 2 0.0 0.0 0.0 0.0
5056 1 2 0.0 0.0 0.0 0.0
5057 1 2 0.0 0.0 0.0 0.0
5058 1 2 0.0 0.0 0.0 0.0
5059 1 2 0.0 0.0 0.0 0.0
5060 1 2 0.0 0.0 0.0 0.0
5061 1 2 0.0 0.0 0.0 0.0
5062 1 2 0.0 0.0 0.0 0.0
5063 1 2 0.0 0.0 0.0 0.0
5064 1 2 0.0 0.0 0.0 0.0
5065 1 2 0.0 0.0 0.0 0.0
5066 1 2 0.0 0.0 0.0 0.0
5067 1 2 0.0 0.0 0.0 0.0
5068 1 2 0.0 0.0 0.0 0.0
5069 1 2 0.0 0.0 0.0 0.0
5070 1 2 0.0 0.0 0.0 0.0
5071 1 2 0.0 0.0 0.0 0.0
5072 1 2 0.0 0.0 0.0 0.0
5073 1 2 0.0 0.0 0.0 0.0
5074 1 2 0.0 0.0 0.0 0.0
5075 1 2 0.0 0.0 0.0 0.0
5076 1 2 0.0 0.0 0.0 0.0
5077 1 2 0.0 0.0 0.0 0.0
5078 1 2 0.0 0.0 0.0 0.0
5079 1 2 0.0 0.0 0.0 0.0
5080 1 2 0.0 0.0 0.0 0.0
5081 1 2 0.0 0.0 0.0 0.0
5082 1 2 0.0 0.0 0.0 0.0
5083 1 2 0.0 0.0 0.0 0.0
5084 1 2 0.0 0.0 0.0 0.0
5085 1 2 0.0 0.0 0.0 0.0
5086 1 2 0.0 0.0 0.0 0.0
5087 1 2 0.0 0.0 0.0 0.0
5088 1 2 0.0 0.0 0.0 0.0
5089 1 2 0.0 0.0 0.0 0.0
5090 1 2 0.0 0.0 0.0 0.0
5091 1 2 0.0 0.0 0.0 0.0
5092 1 2 0.0 0.0 0.0 0.0
5093 1 2 0.0 0.0 0.0 0.0
5094 1 2 0.0 0.0 0.0 0.0
5095 1 2 0.0 0.0 0.0 0.0
5096 1 2 0.0 0.0 0.0 0.0
5097 1 2 0.0 0.0 0.0 0.0
5098 1 2 0.0 0.0 0.0 0.0
5099 1 2 0.0 0.0 0.0 0.0
5100 1 2 0.0 0.0 0.0 0.0
5101 1 2 0.0 0.0 0.0 0.0
5102 1 2 0.0 0.0 0.0 0.0
5103 1 2 0.0 0.0 0.0 0.0
5104 1 2 0.0 0.0 0.0 0.0
5105 1 2 0.0 0.0 0.0 0.0
5106 1 2 0.0 0.0 0.0 0.0
5107 1 2 0.0 0.0 0.0 0.0
5108 1 2 0.0 0.0 0.0 0.0
5109 1 2 0.0 0.0 0.0 0.0
5110 1 2 0.0 0.0 0.0 0.0
5111 1 2 0.0 0.0 0.0 0.0
5112 1 2 0.0 0.0 0.0 0.0
5113 1 2 0.0 0.0 0.0 0.0
5114 1 2 0.0 0.0 0.0 0.0
5115 1 2 0.0 0.0 0.0 0.0
5116 1 2 0.0 0.0 0.0 0.0
5117 1 2 0.0 0.0 0.0 0.0
5118 1 2 0.0 0.0 0.0 0.0
5119 1 2 0.0 0.0 0.0 0.0
5120 1 2 0.0 0.0 0.0 0.0
5121 1 2 0.0 0.0 0.0 0.0
5122 1 2 0.0 0.0 0.0 0.0
5123 1 2 0.0 0.0 0.0 0.0
5124 1 2 0.0 0.0 0.0 0.0
5125 1 2 0.0 0.0 0.0 0.0
5126 1 2 0.0 0.0 0.0 0.0
5127 1 2 0.0 0.0 0.0 0.0
5128 1 2 0.0 0.0 0.0 0.0
5129 1 2 0.0 0.0 0.0 0.0
5130 1 2 0.0 0.0 0.0 0.0
5131 1 2 0.0 0.0 0.0 0.0
5132 1 2 0.0 0.0 0.0 0.0
5133 1 2 0.0 0.0 0.0 0.0
5134 1 2 0.0 0.0 0.0 0.0
5135 1 2 0.0 0.0 0.0 0.0
5136 1 2 0.0 0.0 0.0 0.0
5137 1 2 0.0 0.0 0.0 0.0
5138 1 2 0.0 0.0 0.0 0.0
5139 1 2 0.0 0.0 0.0 0.0
5140 1 2 0.0 0.0 0.0 0.0
5141 1 2 0.0 0.0 0.0 0.0
5142 1 2 0.0 0.0 0.0 0.0
5143 1 2 0.0 0.0 0.0 0.0
5144 1 2 0.0 0.0 0.0 0.0
5145 1 2 0.0 0.0 0.0 0.0
5146 1 2 0.0 0.0 0.0 0.0
5147 1 2 0.0 0.0 0.0 0.0
5148 1 2 0.0 0.0 0.0 0.0
5149 1 2 0.0 0.0 0.0 0.0
5150 1 2 0.0 0.0 0.0 0.0
5151 1 2 0.0 0.0 0.0 0.0
5152 1 2 0.0 0.0 0.0 0.0
5153 1 2 0.0 0.0 0.0 0.0
5154 1 2 0.0 0.0 0.0 0.0
5155 1 2 0.0 0.0 0.0 0.0
5156 1 2 0.0 0.0 0.0 0.0
5157 1 2 0.0 0.0 0.0 0.0
5158 1 2 0.0 0.0 0.0 0.0
5159 1 2 0.0 0.0 0.0 0.0
5160 1 2 0.0 0.0 0.0 0.0
5161 1 2 0.0 0.0 0.0 0.0
5162 1 2 0.0 0.0 0.0 0.0
5163 1 2 0.0 0.0 0.0 0.0
5164 1 2 0.0 0.0 0.0 0.0
5165 1 2 0.0 0.0 0.0 0.0
5166 1 2 0.0 0.0 0.0 0.0
5167 1 2 0.0 0.0 0.0 0.0
5168 1 2 0.0 0.0 0.0 0.0
5169 1 2 0.0 0.0 0.0 0.0
5170 1 2 0.0 0.0 0.0 0.0
5171 1 2 0.0 0.0 0.0 0.0
5172 1 2 0.0 0.0 0.0 0.0
5173 1 2 0.0 0.0 0.0 0.0
5174 1 2 0.0 0.0 0.0 0.0
5175 1 2 0.0 0.0 0.0 0.0
5176 1 2 0.0 0.0 0.0 0.0
5177 1 2 0.0 0.0 0.0 0.0
5178 1 2 0.0 0.0 0.0 0.0
5179 1 2 0.0 0.0 0.0 0.0
5180 1 2 0.0 0.0 0.0 0.0
5181 1 2 0.0 0.0 0.0 0.0
5182 1 2 0.0 0.0 0.0 0.0
5183 1 2 0.0 0.0 0.0 0.0
5184 1 2 0.0 0.0 0.0 0.0
5185 1 2 0.0 0.0 0.0 0.0
5186 1 2 0.0 0.0 0.0 0.0
5187 1 2 0.0 0.0 0.0 0.0
5188 1 2 0.0 0.0 0.0 0.0
5189 1 2 0.0 0.0 0.0 0.0
5190 1 2 0.0 0.0 0.0 0.0
5191 1 2 0.0 0.0 0.0 0.0
5192 1 2 0.0 0.0 0.0 0.0
5193 1 2 0.0 0.0 0.0 0.0
5194 1 2 0.0 0.0 0.0 0.0
5195 1 2 0.0 0.0 0.0 0.0
5196 1 2 0.0 0.0 0.0 0.0
5197 1 2 0.0 0.0 0.0 0.0
5198 1 2 0.0 0.0 0.0 0.0
5199 1 2 0.0 0.0 0.0 0.0
5200 1 2 0.0 0.0 0.0 0.0
5201 1 2 0.0 0.0 0.0 0.0
5202 1 2 0.0 0.0 0.0 0.0
5203 1 2 0.0 0.0 0.0 0.0
5204 1 2 0.0 0.0 0.0 0.0
5205 1 2 0.0 0.0 0.0 0.0
5206 1 2 0.0 0.0 0.0 0.0
5207 1 2 0.0 0.0 0.0 0.0
5208 1 2 0.0 0.0 0.0 0.0
5209 1 2 0.0 0.0 0.0 0.0
5210 1 2 0.0 0.0 0.0 0.0
5211 1 2 0.0 0.0 0.0 0.0
5212 1 2 0.0 0.0 0.0 0.0
5213 1 2 0.0 0.0 0.0 0.0
5214 1 2 0.0 0.0 0.0 0.0
5215 1 2 0.0 0.0 0.0 0.0
5216 1 2 0.0 0.0 0.0 0.0
5217 1 2 0.0 0.0 0.0 0.0
5218 1 2 0.0 0.0 0.0 0.0
5219 1 2 0.0 0.0 0.0 0.0
5220 1 2 0.0 0.0 0.0 0.0
5221 1 2 0.0 0.0 0.0 0.0
5222 1 2 0.0 0.0 0.0 0.0
5223 1 2 0.0 0.0 0.0 0.0
5224 1 2 0.0 0.0 0.0 0.0
5225 1 2 0.0 0.0 0.0 0.0
5226 1 2 0.0 0.0 0.0 0.0
5227 1 2 0.0 0.0 0.0 0.0
5228 1 2 0.0 0.0 0.0 0.0
5229 1 2 0.0 0.0 0.0 0.0
5230 1 2 0.0 0.0 0.0 0.0
5231 1 2 0.0 0.0 0.0 0.0
5232 1 2 0.0 0.0 0.0 0.0
5233 1 2 0.0 0.0 0.0 0.0
5234 1 2 0.0 0.0 0.0 0.0
5235 1 2 0.0 0.0 0.0 0.0
5236 1 2 0.0 0.0 0.0 0.0
5237 1 2 0.0 0.0 0.0 0.0
5238 1 2 0.0 0.0 0.0 0.0
5239 1 2 0.0 0.0 0.0 0.0
5240 1 2 0.0 0.0 0.0 0.0
5241 1 2 0.0 0.0 0.0 0.0
5242 1 2 0.0 0.0 0.0 0.0
5243 1 2 0.0 0.0 0.0 0.0
5244 1 2 0.0 0.0 0.0 0.0
5245 1 2 0.0 0.0 0.0 0.0
5246 1 2 0.0 0.0 0.0 0.0
5247 1 2 0.0 0.0 0.0 0.0
5248 1 2 0.0 0.0 0.0 0.0
5249 1 2 0.0 0.0 0.0 0.0
5250 1 2 0.0 0.0 0.0 0.0
5251 1 2 0.0 0.0 0.0 0.0
5252 1 2 0.0 0.0 0.0 0.0
5253 1 2 0.0 0.0 0.0 0.0
5254 1 2 0.0 0.0 0.0 0.0
5255 1 2 0.0 0.0 0.0 0.0
5256 1 2 0.0 0.0 0.0 0.0
5257 1 2 0.0 0.0 0.0 0.0
5258 1 2 0.0 0.0 0.0 0.0
5259 1 2 0.0 0.0 0.0 0.0
5260 1 2 0.0 0.0 0.0 0.0
5261 1 2 0.0 0.0 0.0 0.0
5262 1 2 0.0 0.0 0.0 0.0
5263 1 2 0.0 0.0 0.0 0.0
5264 1 2 0.0 0.0 0.0 0.0
5265 1 2 0.0 0.0 0.0 0.0
5266 1 2 0.0 0.0 0.0 0.0
5267 1 2 0.0 0.0 0.0 0.0
5268 1 2 0.0 0.0 0.0 0.0
5269 1 2 0.0 0.0 0.0 0.0
5270 1 2 0.0 0.0 0.0 0.0
5271 1 2 0.0 0.0 0.0 0.0
5272 1 2 0.0 0.0 0.0 0.0
5273 1 2 0.0 0.0 0.0 0.0
5274 1 2 0.0 0.0 0.0 0.0
5275 1 2 0.0 0.0 0.0 0.0
5276 1 2 0.0 0.0 0.0 0.0
5277 1 2 0.0 0.0 0.0 0.0
5278 1 2 0.0 0.0 0.0 0.0
5279 1 2 0.0 0.0 0.0 0.0
5280 1 2 0.0 0.0 0.0 0.0
5281 1 2 0.0 0.0 0.0 0.0
5282 1 2 0.0 0.0 0.0 0.0
5283 1 2 0.0 0.0 0.0 0.0
5284 1 2 0.0 0.0 0.0 0.0
5285 1 2 0.0 0.0 0.0 0.0
5286 1 2 0.0 0.0 0.0 0.0
5287 1 2 0.0 0.0 0.0 0.0
5288 1 2 0.0 0.0 0.0 0.0
5289 1 2 0.0 0.0 0.0 0.0
5290 1 2 0.0 0.0 0.0 0.0
5291 1 2 0.0 0.0 0.0 0.0
5292 1 2 0.0 0.0 0.0 0.0
5293 1 2 0.0 0.0 0.0 0.0
5294 1 2 0.0 0.0 0.0 0.0
5295 1 2 0.0 0.0 0.0 0.0
5296 1 2 0.0 0.0 0.0 0.0
5297 1 2 0.0 0.0 0.0 0.0
5298 1 2 0.0 0.0 0.0 0.0
5299 1 2 0.0 0.0 0.0 0.0
5300 1 2 0.0 0.0 0.0 0.0
5301 1 2 0.0 0.0 0.0 0.0
5302 1 2 0.0 0.0 0.0 0.0
5303 1 2 0.0 0.0 0.0 0.0
5304 1 2 0.0 0.0 0.0 0.0
5305 1 2 0.0 0.0 0.0 0.0
5306 1 2 0.0 0.0 0.0 0.0
5307 1 2 0.0 0.0 0.0 0.0
5308 1 2 0.0 0.0 0.0 0.0
5309 1 2 0.0 0.0 0.0 0.0
5310 1 2 0.0 0.0 0.0 0.0
5311 1 2 0.0 0.0 0.0 0.0
5312 1 2 0.0 0.0 0.0 0.0
5313 1 2 0.0 0.0 0.0 0.0
5314 1 2 0.0 0.0 0.0 0.0
5315 1 2 0.0 0.0 0.0 0.0
5316 1 2 0.0 0.0 0.0 0.0
5317 1 2 0.0 0.0 0.0 0.0
5318 1 2 0.0 0.0 0.0 0.0
5319 1 2 0.0 0.0 0.0 0.0
5320 1 2 0.0 0.0 0.0 0.0
5321 1 2 0.0 0.0 0.0 0.0
5322 1 2 0.0 0.0 0.0 0.0
5323 1 2 0.0 0.0 0.0 0.0
5324 1 2 0.0 0.0 0.0 0.0
5325 1 2 0.0 0.0 0.0 0.0
5326 1 2 0.0 0.0 0.0 0.0
5327 1 2 0.0 0.0 0.0 0.0
5328 1 2 0.0 0.0 0.0 0.0
5329 1 2 0.0 0.0 0.0 0.0
5330 1 2 0.0 0.0 0.0 0.0
5331 1 2 0.0 0.0 0.0 0.0
5332 1 2 0.0 0.0 0.0 0.0
5333 1 2 0.0 0.0 0.0 0.0
5334 1 2 0.0 0.0 0.0 0.0
5335 1 2 0.0 0.0 0.0 0.0
5336 1 2 0.0 0.0 0.0 0.0
5337 1 2 0.0 0.0 0.0 0.0
5338 1 2 0.0 0.0 0.0 0.0
5339 1 2 0.0 0.0 0.0 0.0
5340 1 2 0.0 0.0 0.0 0.0
5341 1 2 0.0 0.0 0.0 0.0
5342 1 2 0.0 0.0 0.0 0.0
5343 1 2 0.0 0.0 0.0 0.0
5344 1 2 0.0 0.0 0.0 0.0
5345 1 2 0.0 0.0 0.0 0.0
5346 1 2 0.0 0.0 0.0 0.0
5347 1 2 0.0 0.0 0.0 0.0
5348 1 2 0.0 0.0 0.0 0.0
5349 1 2 0.0 0.0 0.0 0.0
5350 1 2 0.0 0.0 0.0 0.0
5351 1 2 0.0 0.0 0.0 0.0
5352 1 2 0.0 0.0 0.0 0.0
5353 1 2 0.0 0.0 0.0 0.0
5354 1 2 0.0 0.0 0.0 0.0
5355 1 2 0.0 0.0 0.0 0.0
5356 1 2 0.0 0.0 0.0 0.0
5357 1 2 0.0 0.0 0.0 0.0
5358 1 2 0.0 0.0 0.0 0.0
5359 1 2 0.0 0.0 0.0 0.0
5360 1 2 0.0 0.0 0.0 0.0
5361 1 2 0.0 0.0 0.0 0.0
5362 1 2 0.0 0.0 0.0 0.0
5363 1 2 0.0 0.0 0.0 0.0
5364 1 2 0.0 0.0 0.0 0.0
5365 1 2 0.0 0.0 0.0 0.0
5366 1 2 0.0 0.0 0.0 0.0
5367 1 2 0.0 0.0 0.0 0.0
5368 1 2 0.0 0.0 0.0 0.0
5369 1 2 0.0 0.0 0.0 0.0
5370 1 2 0.0 0.0 0.0 0.0
5371 1 2 0.0 0.0 0.0 0.0
5372 1 2 0.0 0.0 0.0 0.0
5373 1 2 0.0 0.0 0.0 0.0
5374 1 2 0.0 0.0 0.0 0.0
5375 1 2 0.0 0.0 0.0 0.0
5376 1 2 0.0 0.0 0.0 0.0
5377 1 2 0.0 0.0 0.0 0.0
5378 1 2 0.0 0.0 0.0 0.0
5379 1 2 0.0 0.0 0.0 0.0
5380 1 2 0.0 0.0 0.0 0.0
5381 1 2 0.0 0.0 0.0 0.0
5382 1 2 0.0 0.0 0.0 0.0
5383 1 2 0.0 0.0 0.0 0.0
5384 1 2 0.0 0.0 0.0 0.0
5385 1 2 0.0 0.0 0.0 0.0
5386 1 2 0.0 0.0 0.0 0.0
5387 1 2 0.0 0.0 0.0 0.0
5388 1 2 0.0 0.0 0.0 0.0
5389 1 2 0.0 0.0 0.0 0.0
5390 1 2 0.0 0.0 0.0 0.0
5391 1 2 0.0 0.0 0.0 0.0
5392 1 2 0.0 0.0 0.0 0.0
5393 1 2 0.0 0.0 0.0 0.0
5394 1 2 0.0 0.0 0.0 0.0
5395 1 2 0.0 0.0 0.0 0.0
5396 1 2 0.0 0.0 0.0 0.0
5397 1 2 0.0 0.0 0.0 0.0
5398 1 2 0.0 0.0 0.0 0.0
5399 1 2 0.0 0.0 0.0 0.0
5400 1 2 0.0 0.0 0.0 0.0
5401 1 2 0.0 0.0 0.0 0.0
5402 1 2 0.0 0.0 0.0 0.0
5403 1 2 0.0 0.0 0.0 0.0
5404 1 2 0.0 0.0 0.0 0.0
5405 1 2 0.0 0.0 0.0 0.0
5406 1 2 0.0 0.0 0.0 0.0
5407 1 2 0.0 0.0 0.0 0.0
5408 1 2 0.0 0.0 0.0 0.0
5409 1 2 0.0 0.0 0.0 0.0
5410 1 2 0.0 0.0 0.0 0.0
5411 1 2 0.0 0.0 0.0 0.0
5412 1 2 0.0 0.0 0.0 0.0
5413 1 2 0.0 0.0 0.0 0.0
5414 1 2 0.0 0.0 0.0 0.0
5415 1 2 0.0 0.0 0.0 0.0
5416 1 2 0.0 0.0 0.0 0.0
5417 1 2 0.0 0.0 0.0 0.0
5418 1 2 0.0 0.0 0.0 0.0
5419 1 2 0.0 0.0 0.0 0.0
5420 1 2 0.0 0.0 0.0 0.0
5421 1 2 0.0 0.0 0.0 0.0
5422 1 2 0.0 0.0 0.0 0.0
5423 1 2 0.0 0.0 0.0 0.0
5424 1 2 0.0 0.0 0.0 0.0
5425 1 2 0.0 0.0 0.0 0.0
5426 1 2 0.0 0.0 0.0 0.0
5427 1 2 0.0 0.0 0.0 0.0
5428 1 2 0.0 0.0 0.0 0.0
5429 1 2 0.0 0.0 0.0 0.0
5430 1 2 0.0 0.0 0.0 0.0
5431 1 2 0.0 0.0 0.0 0.0
5432 1 2 0.0 0.0 0.0 0.0
5433 1 2 0.0 0.0 0.0 0.0
5434 1 2 0.0 0.0 0.0 0.0
5435 1 2 0.0 0.0 0.0 0.0
5436 1 2 0.0 0.0 0.0 0.0
5437 1 2 0.0 0.0 0.0 0.0
5438 1 2 0.0 0.0 0.0 0.0
5439 1 2 0.0 0.0 0.0 0.0
5440 1 2 0.0 0.0 0.0 0.0
5441 1 2 0.0 0.0 0.0 0.0
5442 1 2 0.0 0.0 0.0 0.0
5443 1 2 0.0 0.0 0.0 0.0
5444 1 2 0.0 0.0 0.0 0.0
5445 1 2 0.0 0.0 0.0 0.0
5446 1 2 0.0 0.0 0.0 0.0
5447 1 2 0.0 0.0 0.0 0.0
5448 1 2 0.0 0.0 0.0 0.0
5449 1 2 0.0 0.0 0.0 0.0
5450 1 2 0.0 0.0 0.0 0.0
5451 1 2 0.0 0.0 0.0 0.0
5452 1 2 0.0 0.0 0.0 0.0
5453 1 2 0.0 0.0 0.0 0.0
5454 1 2 0.0 0.0 0.0 0.0
5455 1 2 0.0 0.0 0.0 0.0
5456 1 2 0.0 0.0 0.0 0.0
5457 1 2 0.0 0.0 0.0 0.0
5458 1 2 0.0 0.0 0.0 0.0
5459 1 2 0.0 0.0 0.0 0.0
5460 1 2 0.0 0.0 0.0 0.0
5461 1 2 0.0 0.0 0.0 0.0
5462 1 2 0.0 0.0 0.0 0.0
5463 1 2 0.0 0.0 0.0 0.0
5464 1 2 0.0 0.0 0.0 0.0
5465 1 2 0.0 0.0 0.0 0.0
5466 1 2 0.0 0.0 0.0 0.0
5467 1 2 0.0 0.0 0.0 0.0
5468 1 2 0.0 0.0 0.0 0.0
5469 1 2 0.0 0.0 0.0 0.0
5470 1 2 0.0 0.0 0.0 0.0
5471 1 2 0.0 0.0 0.0 0.0
5472 1 2 0.0 0.0 0.0 0.0
5473 1 2 0.0 0.0 0.0 0.0
5474 1 2 0.0 0.0 0.0 0.0
5475 1 2 0.0 0.0 0.0 0.0
5476 1 2 0.0 0.0 0.0 0.0
5477 1 2 0.0 0.0 0.0 0.0
5478 1 2 0.0 0.0 0.0 0.0
5479 1 2 0.0 0.0 0.0 0.0
5480 1 2 0.0 0.0 0.0 0.0
5481 1 2 0.0 0.0 0.0 0.0
5482 1 2 0.0 0.0 0.0 0.0
5483 1 2 0.0 0.0 0.0 0.0
5484 1 2 0.0 0.0 0.0 0.0
5485 1 2 0.0 0.0 0.0 0.0
5486 1 2 0.0 0.0 0.0 0.0
5487 1 2 0.0 0.0 0.0 0.0
5488 1 2 0.0 0.0 0.0 0.0
5489 1 2 0.0 0.0 0.0 0.0
5490 1 2 0.0 0.0 0.0 0.0
5491 1 2 0.0 0.0 0.0 0.0
5492 1 2 0.0 0.0 0.0 0.0
5493 1 2 0.0 0.0 0.0 0.0
5494 1 2 0.0 0.0 0.0 0.0
5495 1 2 0.0 0.0 0.0 0.0
5496 1 2 0.0 0.0 0.0 0.0
5497 1 2 0.0 0.0 0.0 0.0
5498 1 2 0.0 0.0 0.0 0.0
5499 1 2 0.0 0.0 0.0 0.0
5500 1 2 0.0 0.0 0.0 0.0
5501 1 2 0.0 0.0 0.0 0.0
5502 1 2 0.0 0.0 0.0 0.0
5503 1 2 0.0 0.0 0.0 0.0
5504 1 2 0.0 0.0 0.0 0.0
5505 1 2 0.0 0.0 0.0 0.0
5506 1 2 0.0 0.0 0.0 0.0
5507 1 2 0.0 0.0 0.0 0.0
5508 1 2 0.0 0.0 0.0 0.0
5509 1 2 0.0 0.0 0.0 0.0
5510 1 2 0.0 0.0 0.0 0.0
5511 1 2 0.0 0.0 0.0 0.0
5512 1 2 0.0 0.0 0.0 0.0
5513 1 2 0.0 0.0 0.0 0.0
5514 1 2 0.0 0.0 0.0 0.0
5515 1 2 0.0 0.0 0.0 0.0
5516 1 2 0.0 0.0 0.0 0.0
5517 1 2 0.0 0.0 0.0 0.0
5518 1 2 0.0 0.0 0.0 0.0
5519 1 2 0.0 0.0 0.0 0.0
5520 1 2 0.0 0.0 0.0 0.0
5521 1 2 0.0 0.0 0.0 0.0
5522 1 2 0.0 0.0 0.0 0.0
5523 1 2 0.0 0.0 0.0 0.0
5524 1 2 0.0 0.0 0.0 0.0
5525 1 2 0.0 0.0 0.0 0.0
5526 1 2 0.0 0.0 0.0 0.0
5527 1 2 0.0 0.0 0.0 0.0
5528 1 2 0.0 0.0 0.0 0.0
5529 1 2 0.0 0.0 0.0 0.0
5530 1 2 0.0 0.0 0.0 0.0
5531 1 2 0.0 0.0 0.0 0.0
5532 1 2 0.0 0.0 0.0 0.0
5533 1 2 0.0 0.0 0.0 0.0
5534 1 2 0.0 0.0 0.0 0.0
5535 1 2 0.0 0.0 0.0 0.0
5536 1 2 0.0 0.0 0.0 0.0
5537 1 2 0.0 0.0 0.0 0.0
5538 1 2 0.0 0.0 0.0 0.0
5539 1 2 0.0 0.0 0.0 0.0
5540 1 2 0.0 0.0 0.0 0.0
5541 1 2 0.0 0.0 0.0 0.0
5542 1 2 0.0 0.0 0.0 0.0
5543 1 2 0.0 0.0 0.0 0.0
5544 1 2 0.0 0.0 0.0 0.0
5545 1 2 0.0 0.0 0.0 0.0
5546 1 2 0.0 0.0 0.0 0.0
5547 1 2 0.0 0.0 0.0 0.0
5548 1 2 0.0 0.0 0.0 0.0
5549 1 2 0.0 0.0 0.0 0.0
5550 1 2 0.0 0.0 0.0 0.0
5551 1 2 0.0 0.0 0.0 0.0
5552 1 2 0.0 0.0 0.0 0.0
5553 1 2 0.0 0.0 0.0 0.0
5554 1 2 0.0 0.0 0.0 0.0
5555 1 2 0.0 0.0 0.0 0.0
5556 1 2 0.0 0.0 0.0 0.0
5557 1 2 0.0 0.0 0.0 0.0
5558 1 2 0.0 0.0 0.0 0.0
5559 1 2 0.0 0.0 0.0 0.0
5560 1 2 0.0 0.0 0.0 0.0
5561 1 2 0.0 0.0 0.0 0.0
5562 1 2 0.0 0.0 0.0 0.0
5563 1 2 0.0 0.0 0.0 0.0
5564 1 2 0.0 0.0 0.0 0.0
5565 1 2 0.0 0.0 0.0 0.0
5566 1 2 0.0 0.0 0.0 0.0
5567 1 2 0.0 0.0 0.0 0.0
5568 1 2 0.0 0.0 0.0 0.0
5569 1 2 0.0 0.0 0.0 0.0
5570 1 2 0.0 0.0 0.0 0.0
5571 1 2 0.0 0.0 0.0 0.0
5572 1 2 0.0 0.0 0.0 0.0
5573 1 2 0.0 0.0 0.0 0.0
5574 1 2 0.0 0.0 0.0 0.0
5575 1 2 0.0 0.0 0.0 0.0
5576 1 2 0.0 0.0 0.0 0.0
5577 1 2 0.0 0.0 0.0 0.0
5578 1 2 0.0 0.0 0.0 0.0
5579 1 2 0.0 0.0 0.0 0.0
5580 1 2 0.0 0.0 0.0 0.0
5581 1 2 0.0 0.0 0.0 0.0
5582 1 2 0.0 0.0 0.0 0.0
5583 1 2 0.0 0.0 0.0 0.0
5584 1 2 0.0 0.0 0.0 0.0
5585 1 2 0.0 0.0 0.0 0.0
5586 1 2 0.0 0.0 0.0 0.0
5587 1 2 0.0 0.0 0.0 0.0
5588 1 2 0.0 0.0 0.0 0.0
5589 1 2 0.0 0.0 0.0 0.0
5590 1 2 0.0 0.0 0.0 0.0
5591 1 2 0.0 0.0 0.0 0.0
5592 1 2 0.0 0.0 0.0 0.0
5593 1 2 0.0 0.0 0.0 0.0
5594 1 2 0.0 0.0 0.0 0.0
5595 1 2 0.0 0.0 0.0 0.0
5596 1 2 0.0 0.0 0.0 0.0
5597 1 2 0.0 0.0 0.0 0.0
5598 1 2 0.0 0.0 0.0 0.0
5599 1 2 0.0 0.0 0.0 0.0
5600 1 2 0.0 0.0 0.0 0.0
5601 1 2 0.0 0.0 0.0 0.0
5602 1 2 0.0 0.0 0.0 0.0
5603 1 2 0.0 0.0 0.0 0.0
5604 1 2 0.0 0.0 0.0 0.0
5605 1 2 0.0 0.0 0.0 0.0
5606 1 2 0.0 0.0 0.0 0.0
5607 1 2 0.0 0.0 0.0 0.0
5608 1 2 0.0 0.0 0.0 0.0
5609 1 2 0.0 0.0 0.0 0.0
5610 1 2 0.0 0.0 0.0 0.0
5611 1 2 0.0 0.0 0.0 0.0
5612 1 2 0.0 0.0 0.0 0.0
5613 1 2 0.0 0.0 0.0 0.0
5614 1 2 0.0 0.0 0.0 0.0
5615 1 2 0.0 0.0 0.0 0.0
5616 1 2 0.0 0.0 0.0 0.0
5617 1 2 0.0 0.0 0.0 0.0
5618 1 2 0.0 0.0 0.0 0.0
5619 1 2 0.0 0.0 0.0 0.0
5620 1 2 0.0 0.0 0.0 0.0
5621 1 2 0.0 0.0 0.0 0.0
5622 1 2 0.0 0.0 0.0 0.0
5623 1 2 0.0 0.0 0.0 0.0
5624 1 2 0.0 0.0 0.0 0.0
5625 1 2 0.0 0.0 0.0 0.0
5626 1 2 0.0 0.0 0.0 0.0
5627 1 2 0.0 0.0 0.0 0.0
5628 1 2 0.0 0.0 0.0 0.0
5629 1 2 0.0 0.0 0.0 0.0
5630 1 2 0.0 0.0 0.0 0.0
5631 1 2 0.0 0.0 0.0 0.0
5632 1 2 0.0 0.0 0.0 0.0
5633 1 2 0.0 0.0 0.0 0.0
5634 1 2 0.0 0.0 0.0 0.0
5635 1 2 0.0 0.0 0.0 0.0
5636 1 2 0.0 0.0 0.0 0.0
5637 1 2 0.0 0.0 0.0 0.0
5638 1 2 0.0 0.0 0.0 0.0
5639 1 2 0.0 0.0 0.0 0.0
5640 1 2 0.0 0.0 0.0 0.0
5641 1 2 0.0 0.0 0.0 0.0
5642 1 2 0.0 0.0 0.0 0.0
5643 1 2 0.0 0.0 0.0 0.0
5644 1 2 0.0 0.0 0.0 0.0
5645 1 2 0.0 0.0 0.0 0.0
5646 1 2 0.0 0.0 0.0 0.0
5647 1 2 0.0 0.0 0.0 0.0
5648 1 2 0.0 0.0 0.0 0.0
5649 1 2 0.0 0.0 0.0 0.0
5650 1 2 0.0 0.0 0.0 0.0
5651 1 2 0.0 0.0 0.0 0.0
5652 1 2 0.0 0.0 0.0 0.0
5653 1 2 0.0 0.0 0.0 0.0
5654 1 2 0.0 0.0 0.0 0.0
5655 1 2 0.0 0.0 0.0 0.0
5656 1 2 0.0 0.0 0.0 0.0
5657 1 2 0.0 0.0 0.0 0.0
5658 1 2 0.0 0.0 0.0 0.0
5659 1 2 0.0 0.0 0.0 0.0
5660 1 2 0.0 0.0 0.0 0.0
5661 1 2 0.0 0.0 0.0 0.0
5662 1 2 0.0 0.0 0.0 0.0
5663 1 2 0.0 0.0 0.0 0.0
5664 1 2 0.0 0.0 0.0 0.0
5665 1 2 0.0 0.0 0.0 0.0
5666 1 2 0.0 0.0 0.0 0.0
5667 1 2 0.0 0.0 0.0 0.0
5668 1 2 0.0 0.0 0.0 0.0
5669 1 2 0.0 0.0 0.0 0.0
5670 1 2 0.0 0.0 0.0 0.0
5671 1 2 0.0 0.0 0.0 0.0
5672 1 2 0.0 0.0 0.0 0.0
5673 1 2 0.0 0.0 0.0 0.0
5674 1 2 0.0 0.0 0.0 0.0
5675 1 2 0.0 0.0 0.0 0.0
5676 1 2 0.0 0.0 0.0 0.0
5677 1 2 0.0 0.0 0.0 0.0
5678 1 2 0.0 0.0 0.0 0.0
5679 1 2 0.0 0.0 0.0 0.0
5680 1 2 0.0 0.0 0.0 0.0
5681 1 2 0.0 0.0 0.0 0.0
5682 1 2 0.0 0.0 0.0 0.0
5683 1 2 0.0 0.0 0.0 0.0
5684 1 2 0.0 0.0 0.0 0.0
5685 1 2 0.0 0.0 0.0 0.0
5686 1 2 0.0 0.0 0.0 0.0
5687 1 2 0.0 0.0 0.0 0.0
5688 1 2 0.0 0.0 0.0 0.0
5689 1 2 0.0 0.0 0.0 0.0
5690 1 2 0.0 0.0 0.0 0.0
5691 1 2 0.0 0.0 0.0 0.0
5692 1 2 0.0 0.0 0.0 0.0
5693 1 2 0.0 0.0 0.0 0.0
5694 1 2 0.0 0.0 0.0 0.0
5695 1 2 0.0 0.0 0.0 0.0
5696 1 2 0.0 0.0 0.0 0.0
5697 1 2 0.0 0.0 0.0 0.0
5698 1 2 0.0 0.0 0.0 0.0
5699 1 2 0.0 0.0 0.0 0.0
5700 1 2 0.0 0.0 0.0 0.0
5701 1 2 0.0 0.0 0.0 0.0
5702 1 2 0.0 0.0 0.0 0.0
5703 1 2 0.0 0.0 0.0 0.0
5704 1 2 0.0 0.0 0.0 0.0
5705 1 2 0.0 0.0 0.0 0.0
5706 1 2 0.0 0.0 0.0 0.0
5707 1 2 0.0 0.0 0.0 0.0
5708 1 2 0.0 0.0 0.0 0.0
5709 1 2 0.0 0.0 0.0 0.0
5710 1 2 0.0 0.0 0.0 0.0
5711 1 2 0.0 0.0 0.0 0.0
5712 1 2 0.0 0.0 0.0 0.0
5713 1 2 0.0 0.0 0.0 0.0
5714 1 2 0.0 0.0 0.0 0.0
5715 1 2 0.0 0.0 0.0 0.0
5716 1 2 0.0 0.0 0.0 0.0
5717 1 2 0.0 0.0 0.0 0.0
5718 1 2 0.0 0.0 0.0 0.0
5719 1 2 0.0 0.0 0.0 0.0
5720 1 2 0.0 0.0 0.0 0.0
5721 1 2 0.0 0.0 0.0 0.0
5722 1 2 0.0 0.0 0.0 0.0
5723 1 2 0.0 0.0 0.0 0.0
5724 1 2 0.0 0.0 0.0 0.0
5725 1 2 0.0 0.0 0.0 0.0
5726 1 2 0.0 0.0 0.0 0.0
5727 1 2 0.0 0.0 0.0 0.0
5728 1 2 0.0 0.0 0.0 0.0
5729 1 2 0.0 0.0 0.0 0.0
5730 1 2 0.0 0.0 0.0 0.0
5731 1 2 0.0 0.0 0.0 0.0
5732 1 2 0.0 0.0 0.0 0.0
5733 1 2 0.0 0.0 0.0 0.0
5734 1 2 0.0 0.0 0.0 0.0
5735 1 2 0.0 0.0 0.0 0.0
5736 1 2 0.0 0.0 0.0 0.0
5737 1 2 0.0 0.0 0.0 0.0
5738 1 2 0.0 0.0 0.0 0.0
5739 1 2 0.0 0.0 0.0 0.0
5740 1 2 0.0 0.0 0.0 0.0
5741 1 2 0.0 0.0 0.0 0.0
5742 1 2 0.0 0.0 0.0 0.0
5743 1 2 0.0 0.0 0.0 0.0
5744 1 2 0.0 0.0 0.0 0.0
5745 1 2 0.0 0.0 0.0 0.0
5746 1 2 0.0 0.0 0.0 0.0
5747 1 2 0.0 0.0 0.0 0.0
5748 1 2 0.0 0.0 0.0 0.0
5749 1 2 0.0 0.0 0.0 0.0
5750 1 2 0.0 0.0 0.0 0.0
5751 1 2 0.0 0.0 0.0 0.0
5752 1 2 0.0 0.0 0.0 0.0
5753 1 2 0.0 0.0 0.0 0.0
5754 1 2 0.0 0.0 0.0 0.0
5755 1 2 0.0 0.0 0.0 0.0
5756 1 2 0.0 0.0 0.0 0.0
5757 1 2 0.0 0.0 0.0 0.0
5758 1 2 0.0 0.0 0.0 0.0
5759 1 2 0.0 0.0 0.0 0.0
5760 1 2 0.0 0.0 0.0 0.0
5761 1 2 0.0 0.0 0.0 0.0
5762 1 2 0.0 0.0 0.0 0.0
5763 1 2 0.0 0.0 0.0 0.0
5764 1 2 0.0 0.0 0.0 0.0
5765 1 2 0.0 0.0 0.0 0.0
5766 1 2 0.0 0.0 0.0 0.0
5767 1 2 0.0 0.0 0.0 0.0
5768 1 2 0.0 0.0 0.0 0.0
5769 1 2 0.0 0.0 0.0 0.0
5770 1 2 0.0 0.0 0.0 0.0
5771 1 2 0.0 0.0 0.0 0.0
5772 1 2 0.0 0.0 0.0 0.0
5773 1 2 0.0 0.0 0.0 0.0
5774 1 2 0.0 0.0 0.0 0.0
5775 1 2 0.0 0.0 0.0 0.0
5776 1 2 0.0 0.0 0.0 0.0
5777 1 2 0.0 0.0 0.0 0.0
5778 1 2 0.0 0.0 0.0 0.0
5779 1 2 0.0 0.0 0.0 0.0
5780 1 2 0.0 0.0 0.0 0.0
5781 1 2 0.0 0.0 0.0 0.0
5782 1 2 0.0 0.0 0.0 0.0
5783 1 2 0.0 0.0 0.0 0.0
5784 1 2 0.0 0.0 0.0 0.0
5785 1 2 0.0 0.0 0.0 0.0
5786 1 2 0.0 0.0 0.0 0.0
5787 1 2 0.0 0.0 0.0 0.0
5788 1 2 0.0 0.0 0.0 0.0
5789 1 2 0.0 0.0 0.0 0.0
5790 1 2 0.0 0.0 0.0 0.0
5791 1 2 0.0 0.0 0.0 0.0
5792 1 2 0.0 0.0 0.0 0.0
5793 1 2 0.0 0.0 0.0 0.0
5794 1 2 0.0 0.0 0.0 0.0
5795 1 2 0.0 0.0 0.0 0.0
5796 1 2 0.0 0.0 0.0 0.0
5797 1 2 0.0 0.0 0.0 0.0
5798 1 2 0.0 0.0 0.0 0.0
5799 1 2 0.0 0.0 0.0 0.0
5800 1 2 0.0 0.0 0.0 0.0
5801 1 2 0.0 0.0 0.0 0.0
5802 1 2 0.0 0.0 0.0 0.0
5803 1 2 0.0 0.0 0.0 0.0
5804 1 2 0.0 0.0 0.0 0.0
5805 1 2 0.0 0.0 0.0 0.0
5806 1 2 0.0 0.0 0.0 0.0
5807 1 2 0.0 0.0 0.0 0.0
5808 1 2 0.0 0.0 0.0 0.0
5809 1 2 0.0 0.0 0.0 0.0
5810 1 2 0.0 0.0 0.0 0.0
5811 1 2 0.0 0.0 0.0 0.0
5812 1 2 0.0 0.0 0.0 0.0
5813 1 2 0.0 0.0 0.0 0.0
5814 1 2 0.0 0.0 0.0 0.0
5815 1 2 0.0 0.0 0.0 0.0
5816 1 2 0.0 0.0 0.0 0.0
5817 1 2 0.0 0.0 0.0 0.0
5818 1 2 0.0 0.0 0.0 0.0
5819 1 2 0.0 0.0 0.0 0.0
5820 1 2 0.0 0.0 0.0 0.0
5821 1 2 0.0 0.0 0.0 0.0
5822 1 2 0.0 0.0 0.0 0.0
5823 1 2 0.0 0.0 0.0 0.0
5824 1 2 0.0 0.0 0.0 0.0
5825 1 2 0.0 0.0 0.0 0.0
5826 1 2 0.0 0.0 0.0 0.0
5827 1 2 0.0 0.0 0.0 0.0
5828 1 2 0.0 0.0 0.0 0.0
5829 1 2 0.0 0.0 0.0 0.0
5830 1 2 0.0 0.0 0.0 0.0
5831 1 2 0.0 0.0 0.0 0.0
5832 1 2 0.0 0.0 0.0 0.0
5833 1 2 0.0 0.0 0.0 0.0
5834 1 2 0.0 0.0 0.0 0.0
5835 1 2 0.0 0.0 0.0 0.0
5836 1 2 0.0 0.0 0.0 0.0
5837 1 2 0.0 0.0 0.0 0.0
5838 1 2 0.0 0.0 0.0 0.0
5839 1 2 0.0 0.0 0.0 0.0
5840 1 2 0.0 0.0 0.0 0.0
5841 1 2 0.0 0.0 0.0 0.0
5842 1 2 0.0 0.0 0.0 0.0
5843 1 2 0.0 0.0 0.0 0.0
5844 1 2 0.0 0.0 0.0 0.0
5845 1 2 0.0 0.0 0.0 0.0
5846 1 2 0.0 0.0 0.0 0.0
5847 1 2 0.0 0.0 0.0 0.0
5848 1 2 0.0 0.0 0.0 0.0
5849 1 2 0.0 0.0 0.0 0.0
5850 1 2 0.0 0.0 0.0 0.0
5851 1 2 0.0 0.0 0.0 0.0
5852 1 2 0.0 0.0 0.0 0.0
5853 1 2 0.0 0.0 0.0 0.0
5854 1 2 0.0 0.0 0.0 0.0
5855 1 2 0.0 0.0 0.0 0.0
5856 1 2 0.0 0.0 0.0 0.0
5857 1 2 0.0 0.0 0.0 0.0
5858 1 2 0.0 0.0 0.0 0.0
5859 1 2 0.0 0.0 0.0 0.0
5860 1 2 0.0 0.0 0.0 0.0
5861 1 2 0.0 0.0 0.0 0.0
5862 1 2 0.0 0.0 0.0 0.0
5863 1 2 0.0 0.0 0.0 0.0
5864 1 2 0.0 0.0 0.0 0.0
5865 1 2 0.0 0.0 0.0 0.0
5866 1 2 0.0 0.0 0.0 0.0
5867 1 2 0.0 0.0 0.0 0.0
5868 1 2 0.0 0.0 0.0 0.0
5869 1 2 0.0 0.0 0.0 0.0
5870 1 2 0.0 0.0 0.0 0.0
5871 1 2 0.0 0.0 0.0 0.0
5872 1 2 0.0 0.0 0.0 0.0
5873 1 2 0.0 0.0 0.0 0.0
5874 1 2 0.0 0.0 0.0 0.0
5875 1 2 0.0 0.0 0.0 0.0
5876 1 2 0.0 0.0 0.0 0.0
5877 1 2 0.0 0.0 0.0 0.0
5878 1 2 0.0 0.0 0.0 0.0
5879 1 2 0.0 0.0 0.0 0.0
5880 1 2 0.0 0.0 0.0 0.0
5881 1 2 0.0 0.0 0.0 0.0
5882 1 2 0.0 0.0 0.0 0.0
5883 1 2 0.0 0.0 0.0 0.0
5884 1 2 0.0 0.0 0.0 0.0
5885 1 2 0.0 0.0 0.0 0.0
5886 1 2 0.0 0.0 0.0 0.0
5887 1 2 0.0 0.0 0.0 0.0
5888 1 2 0.0 0.0 0.0 0.0
5889 1 2 0.0 0.0 0.0 0.0
5890 1 2 0.0 0.0 0.0 0.0
5891 1 2 0.0 0.0 0.0 0.0
5892 1 2 0.0 0.0 0.0 0.0
5893 1 2 0.0 0.0 0.0 0.0
5894 1 2 0.0 0.0 0.0 0.0
5895 1 2 0.0 0.0 0.0 0.0
5896 1 2 0.0 0.0 0.0 0.0
5897 1 2 0.0 0.0 0.0 0.0
5898 1 2 0.0 0.0 0.0 0.0
5899 1 2 0.0 0.0 0.0 0.0
5900 1 2 0.0 0.0 0.0 0.0
5901 1 2 0.0 0.0 0.0 0.0
5902 1 2 0.0 0.0 0.0 0.0
5903 1 2 0.0 0.0 0.0 0.0
5904 1 2 0.0 0.0 0.0 0.0
5905 1 2 0.0 0.0 0.0 0.0
5906 1 2 0.0 0.0 0.0 0.0
5907 1 2 0.0 0.0 0.0 0.0
5908 1 2 0.0 0.0 0.0 0.0
5909 1 2 0.0 0.0 0.0 0.0
5910 1 2 0.0 0.0 0.0 0.0
5911 1 2 0.0 0.0 0.0 0.0
5912 1 2 0.0 0.0 0.0 0.0
5913 1 2 0.0 0.0 0.0 0.0
5914 1 2 0.0 0.0 0.0 0.0
5915 1 2 0.0 0.0 0.0 0.0
5916 1 2 0.0 0.0 0.0 0.0
5917 1 2 0.0 0.0 0.0 0.0
5918 1 2 0.0 0.0 0.0 0.0
5919 1 2 0.0 0.0 0.0 0.0
5920 1 2 0.0 0.0 0.0 0.0
5921 1 2 0.0 0.0 0.0 0.0
5922 1 2 0.0 0.0 0.0 0.0
5923 1 2 0.0 0.0 0.0 0.0
5924 1 2 0.0 0.0 0.0 0.0
5925 1 2 0.0 0.0 0.0 0.0
5926 1 2 0.0 0.0 0.0 0.0
5927 1 2 0.0 0.0 0.0 0.0
5928 1 2 0.0 0.0 0.0 0.0
5929 1 2 0.0 0.0 0.0 0.0
5930 1 2 0.0 0.0 0.0 0.0
5931 1 2 0.0 0.0 0.0 0.0
5932 1 2 0.0 0.0 0.0 0.0
5933 1 2 0.0 0.0 0.0 0.0
5934 1 2 0.0 0.0 0.0 0.0
5935 1 2 0.0 0.0 0.0 0.0
5936 1 2 0.0 0.0 0.0 0.0
5937 1 2 0.0 0.0 0.0 0.0
5938 1 2 0.0 0.0 0.0 0.0
5939 1 2 0.0 0.0 0.0 0.0
5940 1 2 0.0 0.0 0.0 0.0
5941 1 2 0.0 0.0 0.0 0.0
5942 1 2 0.0 0.0 0.0 0.0
5943 1 2 0.0 0.0 0.0 0.0
5944 1 2 0.0 0.0 0.0 0.0
5945 1 2 0.0 0.0 0.0 0.0
5946 1 2 0.0 0.0 0.0 0.0
5947 1 2 0.0 0.0 0.0 0.0
5948 1 2 0.0 0.0 0.0 0.0
5949 1 2 0.0 0.0 0.0 0.0
5950 1 2 0.0 0.0 0.0 0.0
5951 1 2 0.0 0.0 0.0 0.0
5952 1 2 0.0 0.0 0.0 0.0
5953 1 2 0.0 0.0 0.0 0.0
5954 1 2 0.0 0.0 0.0 0.0
5955 1 2 0.0 0.0 0.0 0.0
5956 1 2 0.0 0.0 0.0 0.0
5957 1 2 0.0 0.0 0.0 0.0
5958 1 2 0.0 0.0 0.0 0.0
5959 1 2 0.0 0.0 0.0 0.0
5960 1 2 0.0 0.0 0.0 0.0
5961 1 2 0.0 0.0 0.0 0.0
5962 1 2 0.0 0.0 0.0 0.0
5963 1 2 0.0 0.0 0.0 0.0
5964 1 2 0.0 0.0 0.0 0.0
5965 1 2 0.0 0.0 0.0 0.0
5966 1 2 0.0 0.0 0.0 0.0
5967 1 2 0.0 0.0 0.0 0.0
5968 1 2 0.0 0.0 0.0 0.0
5969 1 2 0.0 0.0 0.0 0.0
5970 1 2 0.0 0.0 0.0 0.0
5971 1 2 0.0 0.0 0.0 0.0
5972 1 2 0.0 0.0 0.0 0.0
5973 1 2 0.0 0.0 0.0 0.0
5974 1 2 0.0 0.0 0.0 0.0
5975 1 2 0.0 0.0 0.0 0.0
5976 1 2 0.0 0.0 0.0 0.0
5977 1 2 0.0 0.0 0.0 0.0
5978 1 2 0.0 0.0 0.0 0.0
5979 1 2 0.0 0.0 0.0 0.0
5980 1 2 0.0 0.0 0.0 0.0
5981 1 2 0.0 0.0 0.0 0.0
5982 1 2 0.0 0.0 0.0 0.0
5983 1 2 0.0 0.0 0.0 0.0
5984 1 2 0.0 0.0 0.0 0.0
5985 1 2 0.0 0.0 0.0 0.0
5986 1 2 0.0 0.0 0.0 0.0
5987 1 2 0.0 0.0 0.0 0.0
5988 1 2 0.0 0.0 0.0 0.0
5989 1 2 0.0 0.0 0.0 0.0
5990 1 2 0.0 0.0 0.0 0.0
5991 1 2 0.0 0.0 0.0 0.0
5992 1 2 0.0 0.0 0.0 0.0
5993 1 2 0.0 0.0 0.0 0.0
5994 1 2 0.0 0.0 0.0 0.0
5995 1 2 0.0 0.0 0.0 0.0
5996 1 2 0.0 0.0 0.0 0.0
5997 1 2 0.0 0.0 0.0 0.0
5998 1 2 0.0 0.0 0.0 0.0
5999 1 2 0.0 0.0 0.0 0.0
6000 1 2 0.0 0.0 0.0 0.0
6001 1 2 0.0 0.0 0.0 0.0
6002 1 2 0.0 0.0 0.0 0.0
6003 1 2 0.0 0.0 0.0 0.0
6004 1 2 0.0 0.0 0.0 0.0
6005 1 2 0.0 0.0 0.0 0.0
6006 1 2 0.0 0.0 0.0 0.0
6007 1 2 0.0 0.0 0.0 0.0
6008 1 2 0.0 0.0 0.0 0.0
6009 1 2 0.0 0.0 0.0 0.0
6010 1 2 0.0 0.0 0.0 0.0
6011 1 2 0.0 0.0 0.0 0.0
6012 1 2 0.0 0.0 0.0 0.0
6013 1 2 0.0 0.0 0.0 0.0
6014 1 2 0.0 0.0 0.0 0.0
6015 1 2 0.0 0.0 0.0 0.0
6016 1 2 0.0 0.0 0.0 0.0
6017 1 2 0.0 0.0 0.0 0.0
6018 1 2 0.0 0.0 0.0 0.0
6019 1 2 0.0 0.0 0.0 0.0
6020 1 2 0.0 0.0 0.0 0.0
6021 1 2 0.0 0.0 0.0 0.0
6022 1 2 0.0 0.0 0.0 0.0
6023 1 2 0.0 0.0 0.0 0.0
6024 1 2 0.0 0.0 0.0 0.0
6025 1 2 0.0 0.0 0.0 0.0
6026 1 2 0.0 0.0 0.0 0.0
6027 1 2 0.0 0.0 0.0 0.0
6028 1 2 0.0 0.0 0.0 0.0
6029 1 2 0.0 0.0 0.0 0.0
6030 1 2 0.0 0.0 0.0 0.0
6031 1 2 0.0 0.0 0.0 0.0
6032 1 2 0.0 0.0 0.0 0.0
6033 1 2 0.0 0.0 0.0 0.0
6034 1 2 0.0 0.0 0.0 0.0
6035 1 2 0.0 0.0 0.0 0.0
6036 1 2 0.0 0.0 0.0 0.0
6037 1 2 0.0 0.0 0.0 0.0
6038 1 2 0.0 0.0 0.0 0.0
6039 1 2 0.0 0.0 0.0 0.0
6040 1 2 0.0 0.0 0.0 0.0
6041 1 2 0.0 0.0 0.0 0.0
6042 1 2 0.0 0.0 0.0 0.0
6043 1 2 0.0 0.0 0.0 0.0
6044 1 2 0.0 0.0 0.0 0.0
6045 1 2 0.0 0.0 0.0 0.0
6046 1 2 0.0 0.0 0.0 0.0
6047 1 2 0.0 0.0 0.0 0.0
6048 1 2 0.0 0.0 0.0 0.0
6049 1 2 0.0 0.0 0.0 0.0
6050 1 2 0.0 0.0 0.0 0.0
6051 1 2 0.0 0.0 0.0 0.0
6052 1 2 0.0 0.0 0.0 0.0
6053 1 2 0.0 0.0 0.0 0.0
6054 1 2 0.0 0.0 0.0 0.0
6055 1 2 0.0 0.0 0.0 0.0
6056 1 2 0.0 0.0 0.0 0.0
6057 1 2 0.0 0.0 0.0 0.0
6058 1 2 0.0 0.0 0.0 0.0
6059 1 2 0.0 0.0 0.0 0.0
6060 1 2 0.0 0.0 0.0 0.0
6061 1 2 0.0 0.0 0.0 0.0
6062 1 2 0.0 0.0 0.0 0.0
6063 1 2 0.0 0.0 0.0 0.0
6064 1 2 0.0 0.0 0.0 0.0
6065 1 2 0.0 0.0 0.0 0.0
6066 1 2 0.0 0.0 0.0 0.0
6067 1 2 0.0 0.0 0.0 0.0
6068 1 2 0.0 0.0 0.0 0.0
6069 1 2 0.0 0.0 0.0 0.0
6070 1 2 0.0 0.0 0.0 0.0
6071 1 2 0.0 0.0 0.0 0.0
6072 1 2 0.0 0.0 0.0 0.0
6073 1 2 0.0 0.0 0.0 0.0
6074 1 2 0.0 0.0 0.0 0.0
6075 1 2 0.0 0.0 0.0 0.0
6076 1 2 0.0 0.0 0.0 0.0
6077 1 2 0.0 0.0 0.0 0.0
6078 1 2 0.0 0.0 0.0 0.0
6079 1 2 0.0 0.0 0.0 0.0
6080 1 2 0.0 0.0 0.0 0.0
6081 1 2 0.0 0.0 0.0 0.0
6082 1 2 0.0 0.0 0.0 0.0
6083 1 2 0.0 0.0 0.0 0.0
6084 1 2 0.0 0.0 0.0 0.0
6085 1 2 0.0 0.0 0.0 0.0
6086 1 2 0.0 0.0 0.0 0.0
6087 1 2 0.0 0.0 0.0 0.0
6088 1 2 0.0 0.0 0.0 0.0
6089 1 2 0.0 0.0 0.0 0.0
6090 1 2 0.0 0.0 0.0 0.0
6091 1 2 0.0 0.0 0.0 0.0
6092 1 2 0.0 0.0 0.0 0.0
6093 1 2 0.0 0.0 0.0 0.0
6094 1 2 0.0 0.0 0.0 0.0
6095 1 2 0.0 0.0 0.0 0.0
6096 1 2 0.0 0.0 0.0 0.0
6097 1 2 0.0 0.0 0.0 0.0
6098 1 2 0.0 0.0 0.0 0.0
6099 1 2 0.0 0.0 0.0 0.0
6100 1 2 0.0 0.0 0.0 0.0
6101 1 2 0.0 0.0 0.0 0.0
6102 1 2 0.0 0.0 0.0 0.0
6103 1 2 0.0 0.0 0.0 0.0
6104 1 2 0.0 0.0 0.0 0.0
6105 1 2 0.0 0.0 0.0 0.0
6106 1 2 0.0 0.0 0.0 0.0
6107 1 2 0.0 0.0 0.0 0.0
6108 1 2 0.0 0.0 0.0 0.0
6109 1 2 0.0 0.0 0.0 0.0
6110 1 2 0.0 0.0 0.0 0.0
6111 1 2 0.0 0.0 0.0 0.0
6112 1 2 0.0 0.0 0.0 0.0
6113 1 2 0.0 0.0 0.0 0.0
6114 1 2 0.0 0.0 0.0 0.0
6115 1 2 0.0 0.0 0.0 0.0
6116 1 2 0.0 0.0 0.0 0.0
6117 1 2 0.0 0.0 0.0 0.0
6118 1 2 0.0 0.0 0.0 0.0
6119 1 2 0.0 0.0 0.0 0.0
6120 1 2 0.0 0.0 0.0 0.0
6121 1 2 0.0 0.0 0.0 0.0
6122 1 2 0.0 0.0 0.0 0.0
6123 1 2 0.0 0.0 0.0 0.0
6124 1 2 0.0 0.0 0.0 0.0
6125 1 2 0.0 0.0 0.0 0.0
6126 1 2 0.0 0.0 0.0 0.0
6127 1 2 0.0 0.0 0.0 0.0
6128 1 2 0.0 0.0 0.0 0.0
6129 1 2 0.0 0.0 0.0 0.0
6130 1 2 0.0 0.0 0.0 0.0
6131 1 2 0.0 0.0 0.0 0.0
6132 1 2 0.0 0.0 0.0 0.0
6133 1 2 0.0 0.0 0.0 0.0
6134 1 2 0.0 0.0 0.0 0.0
6135 1 2 0.0 0.0 0.0 0.0
6136 1 2 0.0 0.0 0.0 0.0
6137 1 2 0.0 0.0 0.0 0.0
6138 1 2 0.0 0.0 0.0 0.0
6139 1 2 0.0 0.0 0.0 0.0
6140 1 2 0.0 0.0 0.0 0.0
6141 1 2 0.0 0.0 0.0 0.0
6142 1 2 0.0 0.0 0.0 0.0
6143 1 2 0.0 0.0 0.0 0.0
6144 1 2 0.0 0.0 0.0 0.0
6145 1 2 0.0 0.0 0.0 0.0
6146 1 2 0.0 0.0 0.0 0.0
6147 1 2 0.0 0.0 0.0 0.0
6148 1 2 0.0 0.0 0.0 0.0
6149 1 2 0.0 0.0 0.0 0.0
6150 1 2 0.0 0.0 0.0 0.0
6151 1 2 0.0 0.0 0.0 0.0
6152 1 2 0.0 0.0 0.0 0.0
6153 1 2 0.0 0.0 0.0 0.0
6154 1 2 0.0 0.0 0.0 0.0
6155 1 2 0.0 0.0 0.0 0.0
6156 1 2 0.0 0.0 0.0 0.0
6157 1 2 0.0 0.0 0.0 0.0
6158 1 2 0.0 0.0 0.0 0.0
6159 1 2 0.0 0.0 0.0 0.0
6160 1 2 0.0 0.0 0.0 0.0
6161 1 2 0.0 0.0 0.0 0.0
6162 1 2 0.0 0.0 0.0 0.0
6163 1 2 0.0 0.0 0.0 0.0
6164 1 2 0.0 0.0 0.0 0.0
6165 1 2 0.0 0.0 0.0 0.0
6166 1 2 0.0 0.0 0.0 0.0
6167 1 2 0.0 0.0 0.0 0.0
6168 1 2 0.0 0.0 0.0 0.0
6169 1 2 0.0 0.0 0.0 0.0
6170 1 2 0.0 0.0 0.0 0.0
6171 1 2 0.0 0.0 0.0 0.0
6172 1 2 0.0 0.0 0.0 0.0
6173 1 2 0.0 0.0 0.0 0.0
6174 1 2 0.0 0.0 0.0 0.0
6175 1 2 0.0 0.0 0.0 0.0
6176 1 2 0.0 0.0 0.0 0.0
6177 1 2 0.0 0.0 0.0 0.0
6178 1 2 0.0 0.0 0.0 0.0
6179 1 2 0.0 0.0 0.0 0.0
6180 1 2 0.0 0.0 0.0 0.0
6181 1 2 0.0 0.0 0.0 0.0
6182 1 2 0.0 0.0 0.0 0.0
6183 1 2 0.0 0.0 0.0 0.0
6184 1 2 0.0 0.0 0.0 0.0
6185 1 2 0.0 0.0 0.0 0.0
6186 1 2 0.0 0.0 0.0 0.0
6187 1 2 0.0 0.0 0.0 0.0
6188 1 2 0.0 0.0 0.0 0.0
6189 1 2 0.0 0.0 0.0 0.0
6190 1 2 0.0 0.0 0.0 0.0
6191 1 2 0.0 0.0 0.0 0.0
6192 1 2 0.0 0.0 0.0 0.0
6193 1 2 0.0 0.0 0.0 0.0
6194 1 2 0.0 0.0 0.0 0.0
6195 1 2 0.0 0.0 0.0 0.0
6196 1 2 0.0 0.0 0.0 0.0
6197 1 2 0.0 0.0 0.0 0.0
6198 1 2 0.0 0.0 0.0 0.0
6199 1 2 0.0 0.0 0.0 0.0
6200 1 2 0.0 0.0 0.0 0.0
6201 1 2 0.0 0.0 0.0 0.0
6202 1 2 0.0 0.0 0.0 0.0
6203 1 2 0.0 0.0 0.0 0.0
6204 1 2 0.0 0.0 0.0 0.0
6205 1 2 0.0 0.0 0.0 0.0
6206 1 2 0.0 0.0 0.0 0.0
6207 1 2 0.0 0.0 0.0 0.0
6208 1 2 0.0 0.0 0.0 0.0
6209 1 2 0.0 0.0 0.0 0.0
6210 1 2 0.0 0.0 0.0 0.0
6211 1 2 0.0 0.0 0.0 0.0
6212 1 2 0.0 0.0 0.0 0.0
6213 1 2 0.0 0.0 0.0 0.0
6214 1 2 0.0 0.0 0.0 0.0
6215 1 2 0.0 0.0 0.0 0.0
6216 1 2 0.0 0.0 0.0 0.0
6217 1 2 0.0 0.0 0.0 0.0
6218 1 2 0.0 0.0 0.0 0.0
6219 1 2 0.0 0.0 0.0 0.0
6220 1 2 0.0 0.0 0.0 0.0
6221 1 2 0.0 0.0 0.0 0.0
6222 1 2 0.0 0.0 0.0 0.0
6223 1 2 0.0 0.0 0.0 0.0
6224 1 2 0.0 0.0 0.0 0.0
6225 1 2 0.0 0.0 0.0 0.0
6226 1 2 0.0 0.0 0.0 0.0
6227 1 2 0.0 0.0 0.0 0.0
6228 1 2 0.0 0.0 0.0 0.0
6229 1 2 0.0 0.0 0.0 0.0
6230 1 2 0.0 0.0 0.0 0.0
6231 1 2 0.0 0.0 0.0 0.0
6232 1 2 0.0 0.0 0.0 0.0
6233 1 2 0.0 0.0 0.0 0.0
6234 1 2 0.0 0.0 0.0 0.0
6235 1 2 0.0 0.0 0.0 0.0
6236 1 2 0.0 0.0 0.0 0.0
6237 1 2 0.0 0.0 0.0 0.0
6238 1 2 0.0 0.0 0.0 0.0
6239 1 2 0.0 0.0 0.0 0.0
6240 1 2 0.0 0.0 0.0 0.0
6241 1 2 0.0 0.0 0.0 0.0
6242 1 2 0.0 0.0 0.0 0.0
6243 1 2 0.0 0.0 0.0 0.0
6244 1 2 0.0 0.0 0.0 0.0
6245 1 2 0.0 0.0 0.0 0.0
6246 1 2 0.0 0.0 0.0 0.0
6247 1 2 0.0 0.0 0.0 0.0
6248 1 2 0.0 0.0 0.0 0.0
6249 1 2 0.0 0.0 0.0 0.0
6250 1 2 0.0 0.0 0.0 0.0
6251 1 2 0.0 0.0 0.0 0.0
6252 1 2 0.0 0.0 0.0 0.0
6253 1 2 0.0 0.0 0.0 0.0
6254 1 2 0.0 0.0 0.0 0.0
6255 1 2 0.0 0.0 0.0 0.0
6256 1 2 0.0 0.0 0.0 0.0
6257 1 2 0.0 0.0 0.0 0.0
6258 1 2 0.0 0.0 0.0 0.0
6259 1 2 0.0 0.0 0.0 0.0
6260 1 2 0.0 0.0 0.0 0.0
6261 1 2 0.0 0.0 0.0 0.0
6262 1 2 0.0 0.0 0.0 0.0
6263 1 2 0.0 0.0 0.0 0.0
6264 1 2 0.0 0.0 0.0 0.0
6265 1 2 0.0 0.0 0.0 0.0
6266 1 2 0.0 0.0 0.0 0.0
6267 1 2 0.0 0.0 0.0 0.0
6268 1 2 0.0 0.0 0.0 0.0
6269 1 2 0.0 0.0 0.0 0.0
6270 1 2 0.0 0.0 0.0 0.0
6271 1 2 0.0 0.0 0.0 0.0
6272 1 2 0.0 0.0 0.0 0.0
6273 1 2 0.0 0.0 0.0 0.0
6274 1 2 0.0 0.0 0.0 0.0
6275 1 2 0.0 0.0 0.0 0.0
6276 1 2 0.0 0.0 0.0 0.0
6277 1 2 0.0 0.0 0.0 0.0
6278 1 2 0.0 0.0 0.0 0.0
6279 1 2 0.0 0.0 0.0 0.0
6280 1 2 0.0 0.0 0.0 0.0
6281 1 2 0.0 0.0 0.0 0.0
6282 1 2 0.0 0.0 0.0 0.0
6283 1 2 0.0 0.0 0.0 0.0
6284 1 2 0.0 0.0 0.0 0.0
6285 1 2 0.0 0.0 0.0 0.0
6286 1 2 0.0 0.0 0.0 0.0
6287 1 2 0.0 0.0 0.0 0.0
6288 1 2 0.0 0.0 0.0 0.0
6289 1 2 0.0 0.0 0.0 0.0
6290 1 2 0.0 0.0 0.0 0.0
6291 1 2 0.0 0.0 0.0 0.0
6292 1 2 0.0 0.0 0.0 0.0
6293 1 2 0.0 0.0 0.0 0.0
6294 1 2 0.0 0.0 0.0 0.0
6295 1 2 0.0 0.0 0.0 0.0
6296 1 2 0.0 0.0 0.0 0.0
6297 1 2 0.0 0.0 0.0 0.0
6298 1 2 0.0 0.0 0.0 0.0
6299 1 2 0.0 0.0 0.0 0.0
6300 1 2 0.0 0.0 0.0 0.0
6301 1 2 0.0 0.0 0.0 0.0
6302 1 2 0.0 0.0 0.0 0.0
6303 1 2 0.0 0.0 0.0 0.0
6304 1 2 0.0 0.0 0.0 0.0
6305 1 2 0.0 0.0 0.0 0.0
6306 1 2 0.0 0.0 0.0 0.0
6307 1 2 0.0 0.0 0.0 0.0
6308 1 2 0.0 0.0 0.0 0.0
6309 1 2 0.0 0.0 0.0 0.0
6310 1 2 0.0 0.0 0.0 0.0
6311 1 2 0.0 0.0 0.0 0.0
6312 1 2 0.0 0.0 0.0 0.0
6313 1 2 0.0 0.0 0.0 0.0
6314 1 2 0.0 0.0 0.0 0.0
6315 1 2 0.0 0.0 0.0 0.0
6316 1 2 0.0 0.0 0.0 0.0
6317 1 2 0.0 0.0 0.0 0.0
6318 1 2 0.0 0.0 0.0 0.0
6319 1 2 0.0 0.0 0.0 0.0
6320 1 2 0.0 0.0 0.0 0.0
6321 1 2 0.0 0.0 0.0 0.0
6322 1 2 0.0 0.0 0.0 0.0
6323 1 2 0.0 0.0 0.0 0.0
6324 1 2 0.0 0.0 0.0 0.0
6325 1 2 0.0 0.0 0.0 0.0
6326 1 2 0.0 0.0 0.0 0.0
6327 1 2 0.0 0.0 0.0 0.0
6328 1 2 0.0 0.0 0.0 0.0
6329 1 2 0.0 0.0 0.0 0.0
6330 1 2 0.0 0.0 0.0 0.0
6331 1 2 0.0 0.0 0.0 0.0
6332 1 2 0.0 0.0 0.0 0.0
6333 1 2 0.0 0.0 0.0 0.0
6334 1 2 0.0 0.0 0.0 0.0
6335 1 2 0.0 0.0 0.0 0.0
6336 1 2 0.0 0.0 0.0 0.0
6337 1 2 0.0 0.0 0.0 0.0
6338 1 2 0.0 0.0 0.0 0.0
6339 1 2 0.0 0.0 0.0 0.0
6340 1 2 0.0 0.0 0.0 0.0
6341 1 2 0.0 0.0 0.0 0.0
6342 1 2 0.0 0.0 0.0 0.0
6343 1 2 0.0 0.0 0.0 0.0
6344 1 2 0.0 0.0 0.0 0.0
6345 1 2 0.0 0.0 0.0 0.0
6346 1 2 0.0 0.0 0.0 0.0
6347 1 2 0.0 0.0 0.0 0.0
6348 1 2 0.0 0.0 0.0 0.0
6349 1 2 0.0 0.0 0.0 0.0
6350 1 2 0.0 0.0 0.0 0.0
6351 1 2 0.0 0.0 0.0 0.0
6352 1 2 0.0 0.0 0.0 0.0
6353 1 2 0.0 0.0 0.0 0.0
6354 1 2 0.0 0.0 0.0 0.0
6355 1 2 0.0 0.0 0.0 0.0
6356 1 2 0.0 0.0 0.0 0.0
6357 1 2 0.0 0.0 0.0 0.0
6358 1 2 0.0 0.0 0.0 0.0
6359 1 2 0.0 0.0 0.0 0.0
6360 1 2 0.0 0.0 0.0 0.0
6361 1 2 0.0 0.0 0.0 0.0
6362 1 2 0.0 0.0 0.0 0.0
6363 1 2 0.0 0.0 0.0 0.0
6364 1 2 0.0 0.0 0.0 0.0
6365 1 2 0.0 0.0 0.0 0.0
6366 1 2 0.0 0.0 0.0 0.0
6367 1 2 0.0 0.0 0.0 0.0
6368 1 2 0.0 0.0 0.0 0.0
6369 1 2 0.0 0.0 0.0 0.0
6370 1 2 0.0 0.0 0.0 0.0
6371 1 2 0.0 0.0 0.0 0.0
6372 1 2 0.0 0.0 0.0 0.0
6373 1 2 0.0 0.0 0.0 0.0
6374 1 2 0.0 0.0 0.0 0.0
6375 1 2 0.0 0.0 0.0 0.0
6376 1 2 0.0 0.0 0.0 0.0
6377 1 2 0.0 0.0 0.0 0.0
6378 1 2 0.0 0.0 0.0 0.0
6379 1 2 0.0 0.0 0.0 0.0
6380 1 2 0.0 0.0 0.0 0.0
6381 1 2 0.0 0.0 0.0 0.0
6382 1 2 0.0 0.0 0.0 0.0
6383 1 2 0.0 0.0 0.0 0.0
6384 1 2 0.0 0.0 0.0 0.0
6385 1 2 0.0 0.0 0.0 0.0
6386 1 2 0.0 0.0 0.0 0.0
6387 1 2 0.0 0.0 0.0 0.0
6388 1 2 0.0 0.0 0.0 0.0
6389 1 2 0.0 0.0 0.0 0.0
6390 1 2 0.0 0.0 0.0 0.0
6391 1 2 0.0 0.0 0.0 0.0
6392 1 2 0.0 0.0 0.0 0.0
6393 1 2 0.0 0.0 0.0 0.0
6394 1 2 0.0 0.0 0.0 0.0
6395 1 2 0.0 0.0 0.0 0.0
6396 1 2 0.0 0.0 0.0 0.0
6397 1 2 0.0 0.0 0.0 0.0
6398 1 2 0.0 0.0 0.0 0.0
6399 1 2 0.0 0.0 0.0 0.0
6400 1 2 0.0 0.0 0.0 0.0
6401 1 2 0.0 0.0 0.0 0.0
6402 1 2 0.0 0.0 0.0 0.0
6403 1 2 0.0 0.0 0.0 0.0
6404 1 2 0.0 0.0 0.0 0.0
6405 1 2 0.0 0.0 0.0 0.0
6406 1 2 0.0 0.0 0.0 0.0
6407 1 2 0.0 0.0 0.0 0.0
6408 1 2 0.0 0.0 0.0 0.0
6409 1 2 0.0 0.0 0.0 0.0
6410 1 2 0.0 0.0 0.0 0.0
6411 1 2 0.0 0.0 0.0 0.0
6412 1 2 0.0 0.0 0.0 0.0
6413 1 2 0.0 0.0 0.0 0.0
6414 1 2 0.0 0.0 0.0 0.0
6415 1 2 0.0 0.0 0.0 0.0
6416 1 2 0.0 0.0 0.0 0.0
6417 1 2 0.0 0.0 0.0 0.0
6418 1 2 0.0 0.0 0.0 0.0
6419 1 2 0.0 0.0 0.0 0.0
6420 1 2 0.0 0.0 0.0 0.0
6421 1 2 0.0 0.0 0.0 0.0
6422 1 2 0.0 0.0 0.0 0.0
6423 1 2 0.0 0.0 0.0 0.0
6424 1 2 0.0 0.0 0.0 0.0
6425 1 2 0.0 0.0 0.0 0.0
6426 1 2 0.0 0.0 0.0 0.0
6427 1 2 0.0 0.0 0.0 0.0
6428 1 2 0.0 0.0 0.0 0.0
6429 1 2 0.0 0.0 0.0 0.0
6430 1 2 0.0 0.0 0.0 0.0
6431 1 2 0.0 0.0 0.0 0.0
6432 1 2 0.0 0.0 0.0 0.0
6433 1 2 0.0 0.0 0.0 0.0
6434 1 2 0.0 0.0 0.0 0.0
6435 1 2 0.0 0.0 0.0 0.0
6436 1 2 0.0 0.0 0.0 0.0
6437 1 2 0.0 0.0 0.0 0.0
6438 1 2 0.0 0.0 0.0 0.0
6439 1 2 0.0 0.0 0.0 0.0
6440 1 2 0.0 0.0 0.0 0.0
6441 1 2 0.0 0.0 0.0 0.0
6442 1 2 0.0 0.0 0.0 0.0
6443 1 2 0.0 0.0 0.0 0.0
6444 1 2 0.0 0.0 0.0 0.0
6445 1 2 0.0 0.0 0.0 0.0
6446 1 2 0.0 0.0 0.0 0.0
6447 1 2 0.0 0.0 0.0 0.0
6448 1 2 0.0 0.0 0.0 0.0
6449 1 2 0.0 0.0 0.0 0.0
6450 1 2 0.0 0.0 0.0 0.0
6451 1 2 0.0 0.0 0.0 0.0
6452 1 2 0.0 0.0 0.0 0.0
6453 1 2 0.0 0.0 0.0 0.0
6454 1 2 0.0 0.0 0.0 0.0
6455 1 2 0.0 0.0 0.0 0.0
6456 1 2 0.0 0.0 0.0 0.0
6457 1 2 0.0 0.0 0.0 0.0
6458 1 2 0.0 0.0 0.0 0.0
6459 1 2 0.0 0.0 0.0 0.0
6460 1 2 0.0 0.0 0.0 0.0
6461 1 2 0.0 0.0 0.0 0.0
6462 1 2 0.0 0.0 0.0 0.0
6463 1 2 0.0 0.0 0.0 0.0
6464 1 2 0.0 0.0 0.0 0.0
6465 1 2 0.0 0.0 0.0 0.0
6466 1 2 0.0 0.0 0.0 0.0
6467 1 2 0.0 0.0 0.0 0.0
6468 1 2 0.0 0.0 0.0 0.0
6469 1 2 0.0 0.0 0.0 0.0
6470 1 2 0.0 0.0 0.0 0.0
6471 1 2 0.0 0.0 0.0 0.0
6472 1 2 0.0 0.0 0.0 0.0
6473 1 2 0.0 0.0 0.0 0.0
6474 1 2 0.0 0.0 0.0 0.0
6475 1 2 0.0 0.0 0.0 0.0
6476 1 2 0.0 0.0 0.0 0.0
6477 1 2 0.0 0.0 0.0 0.0
6478 1 2 0.0 0.0 0.0 0.0
6479 1 2 0.0 0.0 0.0 0.0
6480 1 2 0.0 0.0 0.0 0.0
6481 1 2 0.0 0.0 0.0 0.0
6482 1 2 0.0 0.0 0.0 0.0
6483 1 2 0.0 0.0 0.0 0.0
6484 1 2 0.0 0.0 0.0 0.0
6485 1 2 0.0 0.0 0.0 0.0
6486 1 2 0.0 0.0 0.0 0.0
6487 1 2 0.0 0.0 0.0 0.0
6488 1 2 0.0 0.0 0.0 0.0
6489 1 2 0.0 0.0 0.0 0.0
6490 1 2 0.0 0.0 0.0 0.0
6491 1 2 0.0 0.0 0.0 0.0
6492 1 2 0.0 0.0 0.0 0.0
6493 1 2 0.0 0.0 0.0 0.0
6494 1 2 0.0 0.0 0.0 0.0
6495 1 2 0.0 0.0 0.0 0.0
6496 1 2 0.0 0.0 0.0 0.0
6497 1 2 0.0 0.0 0.0 0.0
6498 1 2 0.0 0.0 0.0 0.0
6499 1 2 0.0 0.0 0.0 0.0
6500 1 2 0.0 0.0 0.0 0.0
6501 1 2 0.0 0.0 0.0 0.0
6502 1 2 0.0 0.0 0.0 0.0
6503 1 2 0.0 0.0 0.0 0.0
6504 1 2 0.0 0.0 0.0 0.0
6505 1 2 0.0 0.0 0.0 0.0
6506 1 2 0.0 0.0 0.0 0.0
6507 1 2 0.0 0.0 0.0 0.0
6508 1 2 0.0 0.0 0.0 0.0
6509 1 2 0.0 0.0 0.0 0.0
6510 1 2 0.0 0.0 0.0 0.0
6511 1 2 0.0 0.0 0.0 0.0
6512 1 2 0.0 0.0 0.0 0.0
6513 1 2 0.0 0.0 0.0 0.0
6514 1 2 0.0 0.0 0.0 0.0
6515 1 2 0.0 0.0 0.0 0.0
6516 1 2 0.0 0.0 0.0 0.0
6517 1 2 0.0 0.0 0.0 0.0
6518 1 2 0.0 0.0 0.0 0.0
6519 1 2 0.0 0.0 0.0 0.0
6520 1 2 0.0 0.0 0.0 0.0
6521 1 2 0.0 0.0 0.0 0.0
6522 1 2 0.0 0.0 0.0 0.0
6523 1 2 0.0 0.0 0.0 0.0
6524 1 2 0.0 0.0 0.0 0.0
6525 1 2 0.0 0.0 0.0 0.0
6526 1 2 0.0 0.0 0.0 0.0
6527 1 2 0.0 0.0 0.0 0.0
6528 1 2 0.0 0.0 0.0 0.0
6529 1 2 0.0 0.0 0.0 0.0
6530 1 2 0.0 0.0 0.0 0.0
6531 1 2 0.0 0.0 0.0 0.0
6532 1 2 0.0 0.0 0.0 0.0
6533 1 2 0.0 0.0 0.0 0.0
6534 1 2 0.0 0.0 0.0 0.0
6535 1 2 0.0 0.0 0.0 0.0
6536 1 2 0.0 0.0 0.0 0.0
6537 1 2 0.0 0.0 0.0 0.0
6538 1 2 0.0 0.0 0.0 0.0
6539 1 2 0.0 0.0 0.0 0.0
6540 1 2 0.0 0.0 0.0 0.0
6541 1 2 0.0 0.0 0.0 0.0
6542 1 2 0.0 0.0 0.0 0.0
6543 1 2 0.0 0.0 0.0 0.0
6544 1 2 0.0 0.0 0.0 0.0
6545 1 2 0.0 0.0 0.0 0.0
6546 1 2 0.0 0.0 0.0 0.0
6547 1 2 0.0 0.0 0.0 0.0
6548 1 2 0.0 0.0 0.0 0.0
6549 1 2 0.0 0.0 0.0 0.0
6550 1 2 0.0 0.0 0.0 0.0
6551 1 2 0.0 0.0 0.0 0.0
6552 1 2 0.0 0.0 0.0 0.0
6553 1 2 0.0 0.0 0.0 0.0
6554 1 2 0.0 0.0 0.0 0.0
6555 1 2 0.0 0.0 0.0 0.0
6556 1 2 0.0 0.0 0.0 0.0
6557 1 2 0.0 0.0 0.0 0.0
6558 1 2 0.0 0.0 0.0 0.0
6559 1 2 0.0 0.0 0.0 0.0
6560 1 2 0.0 0.0 0.0 0.0
6561 1 2 0.0 0.0 0.0 0.0
6562 1 2 0.0 0.0 0.0 0.0
6563 1 2 0.0 0.0 0.0 0.0
6564 1 2 0.0 0.0 0.0 0.0
6565 1 2 0.0 0.0 0.0 0.0
6566 1 2 0.0 0.0 0.0 0.0
6567 1 2 0.0 0.0 0.0 0.0
6568 1 2 0.0 0.0 0.0 0.0
6569 1 2 0.0 0.0 0.0 0.0
6570 1 2 0.0 0.0 0.0 0.0
6571 1 2 0.0 0.0 0.0 0.0
6572 1 2 0.0 0.0 0.0 0.0
6573 1 2 0.0 0.0 0.0 0.0
6574 1 2 0.0 0.0 0.0 0.0
6575 1 2 0.0 0.0 0.0 0.0
6576 1 2 0.0 0.0 0.0 0.0
6577 1 2 0.0 0.0 0.0 0.0
6578 1 2 0.0 0.0 0.0 0.0
6579 1 2 0.0 0.0 0.0 0.0
6580 1 2 0.0 0.0 0.0 0.0
6581 1 2 0.0 0.0 0.0 0.0
6582 1 2 0.0 0.0 0.0 0.0
6583 1 2 0.0 0.0 0.0 0.0
6584 1 2 0.0 0.0 0.0 0.0
6585 1 2 0.0 0.0 0.0 0.0
6586 1 2 0.0 0.0 0.0 0.0
6587 1 2 0.0 0.0 0.0 0.0
6588 1 2 0.0 0.0 0.0 0.0
6589 1 2 0.0 0.0 0.0 0.0
6590 1 2 0.0 0.0 0.0 0.0
6591 1 2 0.0 0.0 0.0 0.0
6592 1 2 0.0 0.0 0.0 0.0
6593 1 2 0.0 0.0 0.0 0.0
6594 1 2 0.0 0.0 0.0 0.0
6595 1 2 0.0 0.0 0.0 0.0
6596 1 2 0.0 0.0 0.0 0.0
6597 1 2 0.0 0.0 0.0 0.0
6598 1 2 0.0 0.0 0.0 0.0
6599 1 2 0.0 0.0 0.0 0.0
6600 1 2 0.0 0.0 0.0 0.0
6601 1 2 0.0 0.0 0.0 0.0
6602 1 2 0.0 0.0 0.0 0.0
6603 1 2 0.0 0.0 0.0 0.0
6604 1 2 0.0 0.0 0.0 0.0
6605 1 2 0.0 0.0 0.0 0.0
6606 1 2 0.0 0.0 0.0 0.0
6607 1 2 0.0 0.0 0.0 0.0
6608 1 2 0.0 0.0 0.0 0.0
6609 1 2 0.0 0.0 0.0 0.0
6610 1 2 0.0 0.0 0.0 0.0
6611 1 2 0.0 0.0 0.0 0.0
6612 1 2 0.0 0.0 0.0 0.0
6613 1 2 0.0 0.0 0.0 0.0
6614 1 2 0.0 0.0 0.0 0.0
6615 1 2 0.0 0.0 0.0 0.0
6616 1 2 0.0 0.0 0.0 0.0
6617 1 2 0.0 0.0 0.0 0.0
6618 1 2 0.0 0.0 0.0 0.0
6619 1 2 0.0 0.0 0.0 0.0
6620 1 2 0.0 0.0 0.0 0.0
6621 1 2 0.0 0.0 0.0 0.0
6622 1 2 0.0 0.0 0.0 0.0
6623 1 2 0.0 0.0 0.0 0.0
6624 1 2 0.0 0.0 0.0 0.0
6625 1 2 0.0 0.0 0.0 0.0
6626 1 2 0.0 0.0 0.0 0.0
6627 1 2 0.0 0.0 0.0 0.0
6628 1 2 0.0 0.0 0.0 0.0
6629 1 2 0.0 0.0 0.0 0.0
6630 1 2 0.0 0.0 0.0 0.0
6631 1 2 0.0 0.0 0.0 0.0
6632 1 2 0.0 0.0 0.0 0.0
6633 1 2 0.0 0.0 0.0 0.0
6634 1 2 0.0 0.0 0.0 0.0
6635 1 2 0.0 0.0 0.0 0.0
6636 1 2 0.0 0.0 0.0 0.0
6637 1 2 0.0 0.0 0.0 0.0
6638 1 2 0.0 0.0 0.0 0.0
6639 1 2 0.0 0.0 0.0 0.0
6640 1 2 0.0 0.0 0.0 0.0
6641 1 2 0.0 0.0 0.0 0.0
6642 1 2 0.0 0.0 0.0 0.0
6643 1 2 0.0 0.0 0.0 0.0
6644 1 2 0.0 0.0 0.0 0.0
6645 1 2 0.0 0.0 0.0 0.0
6646 1 2 0.0 0.0 0.0 0.0
6647 1 2 0.0 0.0 0.0 0.0
6648 1 2 0.0 0.0 0.0 0.0
6649 1 2 0.0 0.0 0.0 0.0
6650 1 2 0.0 0.0 0.0 0.0
6651 1 2 0.0 0.0 0.0 0.0
6652 1 2 0.0 0.0 0.0 0.0
6653 1 2 0.0 0.0 0.0 0.0
6654 1 2 0.0 0.0 0.0 0.0
6655 1 2 0.0 0.0 0.0 0.0
6656 1 2 0.0 0.0 0.0 0.0
6657 1 2 0.0 0.0 0.0 0.0
6658 1 2 0.0 0.0 0.0 0.0
6659 1 2 0.0 0.0 0.0 0.0
6660 1 2 0.0 0.0 0.0 0.0
6661 1 2 0.0 0.0 0.0 0.0
6662 1 2 0.0 0.0 0.0 0.0
6663 1 2 0.0 0.0 0.0 0.0
6664 1 2 0.0 0.0 0.0 0.0
6665 1 2 0.0 0.0 0.0 0.0
6666 1 2 0.0 0.0 0.0 0.0
6667 1 2 0.0 0.0 0.0 0.0
6668 1 2 0.0 0.0 0.0 0.0
6669 1 2 0.0 0.0 0.0 0.0
6670 1 2 0.0 0.0 0.0 0.0
6671 1 2 0.0 0.0 0.0 0.0
6672 1 2 0.0 0.0 0.0 0.0
6673 1 2 0.0 0.0 0.0 0.0
6674 1 2 0.0 0.0 0.0 0.0
6675 1 2 0.0 0.0 0.0 0.0
6676 1 2 0.0 0.0 0.0 0.0
6677 1 2 0.0 0.0 0.0 0.0
6678 1 2 0.0 0.0 0.0 0.0
6679 1 2 0.0 0.0 0.0 0.0
6680 1 2 0.0 0.0 0.0 0.0
6681 1 2 0.0 0.0 0.0 0.0
6682 1 2 0.0 0.0 0.0 0.0
6683 1 2 0.0 0.0 0.0 0.0
6684 1 2 0.0 0.0 0.0 0.0
6685 1 2 0.0 0.0 0.0 0.0
6686 1 2 0.0 0.0 0.0 0.0
6687 1 2 0.0 0.0 0.0 0.0
6688 1 2 0.0 0.0 0.0 0.0
6689 1 2 0.0 0.0 0.0 0.0
6690 1 2 0.0 0.0 0.0 0.0
6691 1 2 0.0 0.0 0.0 0.0
6692 1 2 0.0 0.0 0.0 0.0
6693 1 2 0.0 0.0 0.0 0.0
6694 1 2 0.0 0.0 0.0 0.0
6695 1 2 0.0 0.0 0.0 0.0
6696 1 2 0.0 0.0 0.0 0.0
6697 1 2 0.0 0.0 0.0 0.0
6698 1 2 0.0 0.0 0.0 0.0
6699 1 2 0.0 0.0 0.0 0.0
6700 1 2 0.0 0.0 0.0 0.0
6701 1 2 0.0 0.0 0.0 0.0
6702 1 2 0.0 0.0 0.0 0.0
6703 1 2 0.0 0.0 0.0 0.0
6704 1 2 0.0 0.0 0.0 0.0
6705 1 2 0.0 0.0 0.0 0.0
6706 1 2 0.0 0.0 0.0 0.0
6707 1 2 0.0 0.0 0.0 0.0
6708 1 2 0.0 0.0 0.0 0.0
6709 1 2 0.0 0.0 0.0 0.0
6710 1 2 0.0 0.0 0.0 0.0
6711 1 2 0.0 0.0 0.0 0.0
6712 1 2 0.0 0.0 0.0 0.0
6713 1 2 0.0 0.0 0.0 0.0
6714 1 2 0.0 0.0 0.0 0.0
6715 1 2 0.0 0.0 0.0 0.0
6716 1 2 0.0 0.0 0.0 0.0
6717 1 2 0.0 0.0 0.0 0.0
6718 1 2 0.0 0.0 0.0 0.0
6719 1 2 0.0 0.0 0.0 0.0
6720 1 2 0.0 0.0 0.0 0.0
6721 1 2 0.0 0.0 0.0 0.0
6722 1 2 0.0 0.0 0.0 0.0
6723 1 2 0.0 0.0 0.0 0.0
6724 1 2 0.0 0.0 0.0 0.0
6725 1 2 0.0 0.0 0.0 0.0
6726 1 2 0.0 0.0 0.0 0.0
6727 1 2 0.0 0.0 0.0 0.0
6728 1 2 0.0 0.0 0.0 0.0
6729 1 2 0.0 0.0 0.0 0.0
6730 1 2 0.0 0.0 0.0 0.0
6731 1 2 0.0 0.0 0.0 0.0
6732 1 2 0.0 0.0 0.0 0.0
6733 1 2 0.0 0.0 0.0 0.0
6734 1 2 0.0 0.0 0.0 0.0
6735 1 2 0.0 0.0 0.0 0.0
6736 1 2 0.0 0.0 0.0 0.0
6737 1 2 0.0 0.0 0.0 0.0
6738 1 2 0.0 0.0 0.0 0.0
6739 1 2 0.0 0.0 0.0 0.0
6740 1 2 0.0 0.0 0.0 0.0
6741 1 2 0.0 0.0 0.0 0.0
6742 1 2 0.0 0.0 0.0 0.0
6743 1 2 0.0 0.0 0.0 0.0
6744 1 2 0.0 0.0 0.0 0.0
6745 1 2 0.0 0.0 0.0 0.0
6746 1 2 0.0 0.0 0.0 0.0
6747 1 2 0.0 0.0 0.0 0.0
6748 1 2 0.0 0.0 0.0 0.0
6749 1 2 0.0 0.0 0.0 0.0
6750 1 2 0.0 0.0 0.0 0.0
6751 1 2 0.0 0.0 0.0 0.0
6752 1 2 0.0 0.0 0.0 0.0
6753 1 2 0.0 0.0 0.0 0.0
6754 1 2 0.0 0.0 0.0 0.0
6755 1 2 0.0 0.0 0.0 0.0
6756 1 2 0.0 0.0 0.0 0.0
6757 1 2 0.0 0.0 0.0 0.0
6758 1 2 0.0 0.0 0.0 0.0
6759 1 2 0.0 0.0 0.0 0.0
6760 1 2 0.0 0.0 0.0 0.0
6761 1 2 0.0 0.0 0.0 0.0
6762 1 2 0.0 0.0 0.0 0.0
6763 1 2 0.0 0.0 0.0 0.0
6764 1 2 0.0 0.0 0.0 0.0
6765 1 2 0.0 0.0 0.0 0.0
6766 1 2 0.0 0.0 0.0 0.0
6767 1 2 0.0 0.0 0.0 0.0
6768 1 2 0.0 0.0 0.0 0.0
6769 1 2 0.0 0.0 0.0 0.0
6770 1 2 0.0 0.0 0.0 0.0
6771 1 2 0.0 0.0 0.0 0.0
6772 1 2 0.0 0.0 0.0 0.0
6773 1 2 0.0 0.0 0.0 0.0
6774 1 2 0.0 0.0 0.0 0.0
6775 1 2 0.0 0.0 0.0 0.0
6776 1 2 0.0 0.0 0.0 0.0
6777 1 2 0.0 0.0 0.0 0.0
6778 1 2 0.0 0.0 0.0 0.0
6779 1 2 0.0 0.0 0.0 0.0
6780 1 2 0.0 0.0 0.0 0.0
6781 1 2 0.0 0.0 0.0 0.0
6782 1 2 0.0 0.0 0.0 0.0
6783 1 2 0.0 0.0 0.0 0.0
6784 1 2 0.0 0.0 0.0 0.0
6785 1 2 0.0 0.0 0.0 0.0
6786 1 2 0.0 0.0 0.0 0.0
6787 1 2 0.0 0.0 0.0 0.0
6788 1 2 0.0 0.0 0.0 0.0
6789 1 2 0.0 0.0 0.0 0.0
6790 1 2 0.0 0.0 0.0 0.0
6791 1 2 0.0 0.0 0.0 0.0
6792 1 2 0.0 0.0 0.0 0.0
6793 1 2 0.0 0.0 0.0 0.0
6794 1 2 0.0 0.0 0.0 0.0
6795 1 2 0.0 0.0 0.0 0.0
6796 1 2 0.0 0.0 0.0 0.0
6797 1 2 0.0 0.0 0.0 0.0
6798 1 2 0.0 0.0 0.0 0.0
6799 1 2 0.0 0.0 0.0 0.0
6800 1 2 0.0 0.0 0.0 0.0
6801 1 2 0.0 0.0 0.0 0.0
6802 1 2 0.0 0.0 0.0 0.0
6803 1 2 0.0 0.0 0.0 0.0
6804 1 2 0.0 0.0 0.0 0.0
6805 1 2 0.0 0.0 0.0 0.0
6806 1 2 0.0 0.0 0.0 0.0
6807 1 2 0.0 0.0 0.0 0.0
6808 1 2 0.0 0.0 0.0 0.0
6809 1 2 0.0 0.0 0.0 0.0
6810 1 2 0.0 0.0 0.0 0.0
6811 1 2 0.0 0.0 0.0 0.0
6812 1 2 0.0 0.0 0.0 0.0
6813 1 2 0.0 0.0 0.0 0.0
6814 1 2 0.0 0.0 0.0 0.0
6815 1 2 0.0 0.0 0.0 0.0
6816 1 2 0.0 0.0 0.0 0.0
6817 1 2 0.0 0.0 0.0 0.0
6818 1 2 0.0 0.0 0.0 0.0
6819 1 2 0.0 0.0 0.0 0.0
6820 1 2 0.0 0.0 0.0 0.0
6821 1 2 0.0 0.0 0.0 0.0
6822 1 2 0.0 0.0 0.0 0.0
6823 1 2 0.0 0.0 0.0 0.0
6824 1 2 0.0 0.0 0.0 0.0
6825 1 2 0.0 0.0 0.0 0.0
6826 1 2 0.0 0.0 0.0 0.0
6827 1 2 0.0 0.0 0.0 0.0
6828 1 2 0.0 0.0 0.0 0.0
6829 1 2 0.0 0.0 0.0 0.0
6830 1 2 0.0 0.0 0.0 0.0
6831 1 2 0.0 0.0 0.0 0.0
6832 1 2 0.0 0.0 0.0 0.0
6833 1 2 0.0 0.0 0.0 0.0
6834 1 2 0.0 0.0 0.0 0.0
6835 1 2 0.0 0.0 0.0 0.0
6836 1 2 0.0 0.0 0.0 0.0
6837 1 2 0.0 0.0 0.0 0.0
6838 1 2 0.0 0.0 0.0 0.0
6839 1 2 0.0 0.0 0.0 0.0
6840 1 2 0.0 0.0 0.0 0.0
6841 1 2 0.0 0.0 0.0 0.0
6842 1 2 0.0 0.0 0.0 0.0
6843 1 2 0.0 0.0 0.0 0.0
6844 1 2 0.0 0.0 0.0 0.0
6845 1 2 0.0 0.0 0.0 0.0
6846 1 2 0.0 0.0 0.0 0.0
6847 1 2 0.0 0.0 0.0 0.0
6848 1 2 0.0 0.0 0.0 0.0
6849 1 2 0.0 0.0 0.0 0.0
6850 1 2 0.0 0.0 0.0 0.0
6851 1 2 0.0 0.0 0.0 0.0
6852 1 2 0.0 0.0 0.0 0.0
6853 1 2 0.0 0.0 0.0 0.0
6854 1 2 0.0 0.0 0.0 0.0
6855 1 2 0.0 0.0 0.0 0.0
6856 1 2 0.0 0.0 0.0 0.0
6857 1 2 0.0 0.0 0.0 0.0
6858 1 2 0.0 0.0 0.0 0.0
6859 1 2 0.0 0.0 0.0 0.0
6860 1 2 0.0 0.0 0.0 0.0
6861 1 2 0.0 0.0 0.0 0.0
6862 1 2 0.0 0.0 0.0 0.0
6863 1 2 0.0 0.0 0.0 0.0
6864 1 2 0.0 0.0 0.0 0.0
6865 1 2 0.0 0.0 0.0 0.0
6866 1 2 0.0 0.0 0.0 0.0
6867 1 2 0.0 0.0 0.0 0.0
6868 1 2 0.0 0.0 0.0 0.0
6869 1 2 0.0 0.0 0.0 0.0
6870 1 2 0.0 0.0 0.0 0.0
6871 1 2 0.0 0.0 0.0 0.0
6872 1 2 0.0 0.0 0.0 0.0
6873 1 2 0.0 0.0 0.0 0.0
6874 1 2 0.0 0.0 0.0 0.0
6875 1 2 0.0 0.0 0.0 0.0
6876 1 2 0.0 0.0 0.0 0.0
6877 1 2 0.0 0.0 0.0 0.0
6878 1 2 0.0 0.0 0.0 0.0
6879 1 2 0.0 0.0 0.0 0.0
6880 1 2 0.0 0.0 0.0 0.0
6881 1 2 0.0 0.0 0.0 0.0
6882 1 2 0.0 0.0 0.0 0.0
6883 1 2 0.0 0.0 0.0 0.0
6884 1 2 0.0 0.0 0.0 0.0
6885 1 2 0.0 0.0 0.0 0.0
6886 1 2 0.0 0.0 0.0 0.0
6887 1 2 0.0 0.0 0.0 0.0
6888 1 2 0.0 0.0 0.0 0.0
6889 1 2 0.0 0.0 0.0 0.0
6890 1 2 0.0 0.0 0.0 0.0
6891 1 2 0.0 0.0 0.0 0.0
6892 1 2 0.0 0.0 0.0 0.0
6893 1 2 0.0 0.0 0.0 0.0
6894 1 2 0.0 0.0 0.0 0.0
6895 1 2 0.0 0.0 0.0 0.0
6896 1 2 0.0 0.0 0.0 0.0
6897 1 2 0.0 0.0 0.0 0.0
6898 1 2 0.0 0.0 0.0 0.0
6899 1 2 0.0 0.0 0.0 0.0
6900 1 2 0.0 0.0 0.0 0.0
6901 1 2 0.0 0.0 0.0 0.0
6902 1 2 0.0 0.0 0.0 0.0
6903 1 2 0.0 0.0 0.0 0.0
6904 1 2 0.0 0.0 0.0 0.0
6905 1 2 0.0 0.0 0.0 0.0
6906 1 2 0.0 0.0 0.0 0.0
6907 1 2 0.0 0.0 0.0 0.0
6908 1 2 0.0 0.0 0.0 0.0
6909 1 2 0.0 0.0 0.0 0.0
6910 1 2 0.0 0.0 0.0 0.0
6911 1 2 0.0 0.0 0.0 0.0
6912 1 2 0.0 0.0 0.0 0.0
6913 1 2 0.0 0.0 0.0 0.0
6914 1 2 0.0 0.0 0.0 0.0
6915 1 2 0.0 0.0 0.0 0.0
6916 1 2 0.0 0.0 0.0 0.0
6917 1 2 0.0 0.0 0.0 0.0
6918 1 2 0.0 0.0 0.0 0.0
6919 1 2 0.0 0.0 0.0 0.0
6920 1 2 0.0 0.0 0.0 0.0
6921 1 2 0.0 0.0 0.0 0.0
6922 1 2 0.0 0.0 0.0 0.0
6923 1 2 0.0 0.0 0.0 0.0
6924 1 2 0.0 0.0 0.0 0.0
6925 1 2 0.0 0.0 0.0 0.0
6926 1 2 0.0 0.0 0.0 0.0
6927 1 2 0.0 0.0 0.0 0.0
6928 1 2 0.0 0.0 0.0 0.0
6929 1 2 0.0 0.0 0.0 0.0
6930 1 2 0.0 0.0 0.0 0.0
6931 1 2 0.0 0.0 0.0 0.0
6932 1 2 0.0 0.0 0.0 0.0
6933 1 2 0.0 0.0 0.0 0.0
6934 1 2 0.0 0.0 0.0 0.0
6935 1 2 0.0 0.0 0.0 0.0
6936 1 2 0.0 0.0 0.0 0.0
6937 1 2 0.0 0.0 0.0 0.0
6938 1 2 0.0 0.0 0.0 0.0
6939 1 2 0.0 0.0 0.0 0.0
6940 1 2 0.0 0.0 0.0 0.0
6941 1 2 0.0 0.0 0.0 0.0
6942 1 2 0.0 0.0 0.0 0.0
6943 1 2 0.0 0.0 0.0 0.0
6944 1 2 0.0 0.0 0.0 0.0
6945 1 2 0.0 0.0 0.0 0.0
6946 1 2 0.0 0.0 0.0 0.0
6947 1 2 0.0 0.0 0.0 0.0
6948 1 2 0.0 0.0 0.0 0.0
6949 1 2 0.0 0.0 0.0 0.0
6950 1 2 0.0 0.0 0.0 0.0
6951 1 2 0.0 0.0 0.0 0.0
6952 1 2 0.0 0.0 0.0 0.0
6953 1 2 0.0 0.0 0.0 0.0
6954 1 2 0.0 0.0 0.0 0.0
6955 1 2 0.0 0.0 0.0 0.0
6956 1 2 0.0 0.0 0.0 0.0
6957 1 2 0.0 0.0 0.0 0.0
6958 1 2 0.0 0.0 0.0 0.0
6959 1 2 0.0 0.0 0.0 0.0
6960 1 2 0.0 0.0 0.0 0.0
6961 1 2 0.0 0.0 0.0 0.0
6962 1 2 0.0 0.0 0.0 0.0
6963 1 2 0.0 0.0 0.0 0.0
6964 1 2 0.0 0.0 0.0 0.0
6965 1 2 0.0 0.0 0.0 0.0
6966 1 2 0.0 0.0 0.0 0.0
6967 1 2 0.0 0.0 0.0 0.0
6968 1 2 0.0 0.0 0.0 0.0
6969 1 2 0.0 0.0 0.0 0.0
6970 1 2 0.0 0.0 0.0 0.0
6971 1 2 0.0 0.0 0.0 0.0
6972 1 2 0.0 0.0 0.0 0.0
6973 1 2 0.0 0.0 0.0 0.0
6974 1 2 0.0 0.0 0.0 0.0
6975 1 2 0.0 0.0 0.0 0.0
6976 1 2 0.0 0.0 0.0 0.0
6977 1 2 0.0 0.0 0.0 0.0
6978 1 2 0.0 0.0 0.0 0.0
6979 1 2 0.0 0.0 0.0 0.0
6980 1 2 0.0 0.0 0.0 0.0
6981 1 2 0.0 0.0 0.0 0.0
6982 1 2 0.0 0.0 0.0 0.0
6983 1 2 0.0 0.0 0.0 0.0
6984 1 2 0.0 0.0 0.0 0.0
6985 1 2 0.0 0.0 0.0 0.0
6986 1 2 0.0 0.0 0.0 0.0
6987 1 2 0.0 0.0 0.0 0.0
6988 1 2 0.0 0.0 0.0 0.0
6989 1 2 0.0 0.0 0.0 0.0
6990 1 2 0.0 0.0 0.0 0.0
6991 1 2 0.0 0.0 0.0 0.0
6992 1 2 0.0 0.0 0.0 0.0
6993 1 2 0.0 0.0 0.0 0.0
6994 1 2 0.0 0.0 0.0 0.0
6995 1 2 0.0 0.0 0.0 0.0
6996 1 2 0.0 0.0 0.0 0.0
6997 1 2 0.0 0.0 0.0 0.0
6998 1 2 0.0 0.0 0.0 0.0
6999 1 2 0.0 0.0 0.0 0.0
7000 1 2 0.0 0.0 0.0 0.0
7001 1 2 0.0 0.0 0.0 0.0
7002 1 2 0.0 0.0 0.0 0.0
7003 1 2 0.0 0.0 0.0 0.0
7004 1 2 0.0 0.0 0.0 0.0
7005 1 2 0.0 0.0 0.0 0.0
7006 1 2 0.0 0.0 0.0 0.0
7007 1 2 0.0 0.0 0.0 0.0
7008 1 2 0.0 0.0 0.0 0.0
7009 1 2 0.0 0.0 0.0 0.0
7010 1 2 0.0 0.0 0.0 0.0
7011 1 2 0.0 0.0 0.0 0.0
7012 1 2 0.0 0.0 0.0 0.0
7013 1 2 0.0 0.0 0.0 0.0
7014 1 2 0.0 0.0 0.0 0.0
7015 1 2 0.0 0.0 0.0 0.0
7016 1 2 0.0 0.0 0.0 0.0
7017 1 2 0.0 0.0 0.0 0.0
7018 1 2 0.0 0.0 0.0 0.0
7019 1 2 0.0 0.0 0.0 0.0
7020 1 2 0.0 0.0 0.0 0.0
7021 1 2 0.0 0.0 0.0 0.0
7022 1 2 0.0 0.0 0.0 0.0
7023 1 2 0.0 0.0 0.0 0.0
7024 1 2 0.0 0.0 0.0 0.0
7025 1 2 0.0 0.0 0.0 0.0
7026 1 2 0.0 0.0 0.0 0.0
7027 1 2 0.0 0.0 0.0 0.0
7028 1 2 0.0 0.0 0.0 0.0
7029 1 2 0.0 0.0 0.0 0.0
7030 1 2 0.0 0.0 0.0 0.0
7031 1 2 0.0 0.0 0.0 0.0
7032 1 2 0.0 0.0 0.0 0.0
7033 1 2 0.0 0.0 0.0 0.0
7034 1 2 0.0 0.0 0.0 0.0
7035 1 2 0.0 0.0 0.0 0.0
7036 1 2 0.0 0.0 0.0 0.0
7037 1 2 0.0 0.0 0.0 0.0
7038 1 2 0.0 0.0 0.0 0.0
7039 1 2 0.0 0.0 0.0 0.0
7040 1 2 0.0 0.0 0.0 0.0
7041 1 2 0.0 0.0 0.0 0.0
7042 1 2 0.0 0.0 0.0 0.0
7043 1 2 0.0 0.0 0.0 0.0
7044 1 2 0.0 0.0 0.0 0.0
7045 1 2 0.0 0.0 0.0 0.0
7046 1 2 0.0 0.0 0.0 0.0
7047 1 2 0.0 0.0 0.0 0.0
7048 1 2 0.0 0.0 0.0 0.0
7049 1 2 0.0 0.0 0.0 0.0
7050 1 2 0.0 0.0 0.0 0.0
7051 1 2 0.0 0.0 0.0 0.0
7052 1 2 0.0 0.0 0.0 0.0
7053 1 2 0.0 0.0 0.0 0.0
7054 1 2 0.0 0.0 0.0 0.0
7055 1 2 0.0 0.0 0.0 0.0
7056 1 2 0.0 0.0 0.0 0.0
7057 1 2 0.0 0.0 0.0 0.0
7058 1 2 0.0 0.0 0.0 0.0
7059 1 2 0.0 0.0 0.0 0.0
7060 1 2 0.0 0.0 0.0 0.0
7061 1 2 0.0 0.0 0.0 0.0
7062 1 2 0.0 0.0 0.0 0.0
7063 1 2 0.0 0.0 0.0 0.0
7064 1 2 0.0 0.0 0.0 0.0
7065 1 2 0.0 0.0 0.0 0.0
7066 1 2 0.0 0.0 0.0 0.0
7067 1 2 0.0 0.0 0.0 0.0
7068 1 2 0.0 0.0 0.0 0.0
7069 1 2 0.0 0.0 0.0 0.0
7070 1 2 0.0 0.0 0.0 0.0
7071 1 2 0.0 0.0 0.0 0.0
7072 1 2 0.0 0.0 0.0 0.0
7073 1 2 0.0 0.0 0.0 0.0
7074 1 2 0.0 0.0 0.0 0.0
7075 1 2 0.0 0.0 0.0 0.0
7076 1 2 0.0 0.0 0.0 0.0
7077 1 2 0.0 0.0 0.0 0.0
7078 1 2 0.0 0.0 0.0 0.0
7079 1 2 0.0 0.0 0.0 0.0
7080 1 2 0.0 0.0 0.0 0.0
7081 1 2 0.0 0.0 0.0 0.0
7082 1 2 0.0 0.0 0.0 0.0
7083 1 2 0.0 0.0 0.0 0.0
7084 1 2 0.0 0.0 0.0 0.0
7085 1 2 0.0 0.0 0.0 0.0
7086 1 2 0.0 0.0 0.0 0.0
7087 1 2 0.0 0.0 0.0 0.0
7088 1 2 0.0 0.0 0.0 0.0
7089 1 2 0.0 0.0 0.0 0.0
7090 1 2 0.0 0.0 0.0 0.0
7091 1 2 0.0 0.0 0.0 0.0
7092 1 2 0.0 0.0 0.0 0.0
7093 1 2 0.0 0.0 0.0 0.0
7094 1 2 0.0 0.0 0.0 0.0
7095 1 2 0.0 0.0 0.0 0.0
7096 1 2 0.0 0.0 0.0 0.0
7097 1 2 0.0 0.0 0.0 0.0
7098 1 2 0.0 0.0 0.0 0.0
7099 1 2 0.0 0.0 0.0 0.0
7100 1 2 0.0 0.0 0.0 0.0
7101 1 2 0.0 0.0 0.0 0.0
7102 1 2 0.0 0.0 0.0 0.0
7103 1 2 0.0 0.0 0.0 0.0
7104 1 2 0.0 0.0 0.0 0.0
7105 1 2 0.0 0.0 0.0 0.0
7106 1 2 0.0 0.0 0.0 0.0
7107 1 2 0.0 0.0 0.0 0.0
7108 1 2 0.0 0.0 0.0 0.0
7109 1 2 0.0 0.0 0.0 0.0
7110 1 2 0.0 0.0 0.0 0.0
7111 1 2 0.0 0.0 0.0 0.0
7112 1 2 0.0 0.0 0.0 0.0
7113 1 2 0.0 0.0 0.0 0.0
7114 1 2 0.0 0.0 0.0 0.0
7115 1 2 0.0 0.0 0.0 0.0
7116 1 2 0.0 0.0 0.0 0.0
7117 1 2 0.0 0.0 0.0 0.0
7118 1 2 0.0 0.0 0.0 0.0
7119 1 2 0.0 0.0 0.0 0.0
7120 1 2 0.0 0.0 0.0 0.0
7121 1 2 0.0 0.0 0.0 0.0
7122 1 2 0.0 0.0 0.0 0.0
7123 1 2 0.0 0.0 0.0 0.0
7124 1 2 0.0 0.0 0.0 0.0
7125 1 2 0.0 0.0 0.0 0.0
7126 1 2 0.0 0.0 0.0 0.0
7127 1 2 0.0 0.0 0.0 0.0
7128 1 2 0.0 0.0 0.0 0.0
7129 1 2 0.0 0.0 0.0 0.0
7130 1 2 0.0 0.0 0.0 0.0
7131 1 2 0.0 0.0 0.0 0.0
7132 1 2 0.0 0.0 0.0 0.0
7133 1 2 0.0 0.0 0.0 0.0
7134 1 2 0.0 0.0 0.0 0.0
7135 1 2 0.0 0.0 0.0 0.0
7136 1 2 0.0 0.0 0.0 0.0
7137 1 2 0.0 0.0 0.0 0.0
7138 1 2 0.0 0.0 0.0 0.0
7139 1 2 0.0 0.0 0.0 0.0
7140 1 2 0.0 0.0 0.0 0.0
7141 1 2 0.0 0.0 0.0 0.0
7142 1 2 0.0 0.0 0.0 0.0
7143 1 2 0.0 0.0 0.0 0.0
7144 1 2 0.0 0.0 0.0 0.0
7145 1 2 0.0 0.0 0.0 0.0
7146 1 2 0.0 0.0 0.0 0.0
7147 1 2 0.0 0.0 0.0 0.0
7148 1 2 0.0 0.0 0.0 0.0
7149 1 2 0.0 0.0 0.0 0.0
7150 1 2 0.0 0.0 0.0 0.0
7151 1 2 0.0 0.0 0.0 0.0
7152 1 2 0.0 0.0 0.0 0.0
7153 1 2 0.0 0.0 0.0 0.0
7154 1 2 0.0 0.0 0.0 0.0
7155 1 2 0.0 0.0 0.0 0.0
7156 1 2 0.0 0.0 0.0 0.0
7157 1 2 0.0 0.0 0.0 0.0
7158 1 2 0.0 0.0 0.0 0.0
7159 1 2 0.0 0.0 0.0 0.0
7160 1 2 0.0 0.0 0.0 0.0
7161 1 2 0.0 0.0 0.0 0.0
7162 1 2 0.0 0.0 0.0 0.0
7163 1 2 0.0 0.0 0.0 0.0
7164 1 2 0.0 0.0 0.0 0.0
7165 1 2 0.0 0.0 0.0 0.0
7166 1 2 0.0 0.0 0.0 0.0
7167 1 2 0.0 0.0 0.0 0.0
7168 1 2 0.0 0.0 0.0 0.0
7169 1 2 0.0 0.0 0.0 0.0
7170 1 2 0.0 0.0 0.0 0.0
7171 1 2 0.0 0.0 0.0 0.0
7172 1 2 0.0 0.0 0.0 0.0
7173 1 2 0.0 0.0 0.0 0.0
7174 1 2 0.0 0.0 0.0 0.0
7175 1 2 0.0 0.0 0.0 0.0
7176 1 2 0.0 0.0 0.0 0.0
7177 1 2 0.0 0.0 0.0 0.0
7178 1 2 0.0 0.0 0.0 0.0
7179 1 2 0.0 0.0 0.0 0.0
7180 1 2 0.0 0.0 0.0 0.0
7181 1 2 0.0 0.0 0.0 0.0
7182 1 2 0.0 0.0 0.0 0.0
7183 1 2 0.0 0.0 0.0 0.0
7184 1 2 0.0 0.0 0.0 0.0
7185 1 2 0.0 0.0 0.0 0.0
7186 1 2 0.0 0.0 0.0 0.0
7187 1 2 0.0 0.0 0.0 0.0
7188 1 2 0.0 0.0 0.0 0.0
7189 1 2 0.0 0.0 0.0 0.0
7190 1 2 0.0 0.0 0.0 0.0
7191 1 2 0.0 0.0 0.0 0.0
7192 1 2 0.0 0.0 0.0 0.0
7193 1 2 0.0 0.0 0.0 0.0
7194 1 2 0.0 0.0 0.0 0.0
7195 1 2 0.0 0.0 0.0 0.0
7196 1 2 0.0 0.0 0.0 0.0
7197 1 2 0.0 0.0 0.0 0.0
7198 1 2 0.0 0.0 0.0 0.0
7199 1 2 0.0 0.0 0.0 0.0
7200 1 2 0.0 0.0 0.0 0.0
7201 1 2 0.0 0.0 0.0 0.0
7202 1 2 0.0 0.0 0.0 0.0
7203 1 2 0.0 0.0 0.0 0.0
7204 1 2 0.0 0.0 0.0 0.0
7205 1 2 0.0 0.0 0.0 0.0
7206 1 2 0.0 0.0 0.0 0.0
7207 1 2 0.0 0.0 0.0 0.0
7208 1 2 0.0 0.0 0.0 0.0
7209 1 2 0.0 0.0 0.0 0.0
7210 1 2 0.0 0.0 0.0 0.0
7211 1 2 0.0 0.0 0.0 0.0
7212 1 2 0.0 0.0 0.0 0.0
7213 1 2 0.0 0.0 0.0 0.0
7214 1 2 0.0 0.0 0.0 0.0
7215 1 2 0.0 0.0 0.0 0.0
7216 1 2 0.0 0.0 0.0 0.0
7217 1 2 0.0 0.0 0.0 0.0
7218 1 2 0.0 0.0 0.0 0.0
7219 1 2 0.0 0.0 0.0 0.0
7220 1 2 0.0 0.0 0.0 0.0
7221 1 2 0.0 0.0 0.0 0.0
7222 1 2 0.0 0.0 0.0 0.0
7223 1 2 0.0 0.0 0.0 0.0
7224 1 2 0.0 0.0 0.0 0.0
7225 1 2 0.0 0.0 0.0 0.0
7226 1 2 0.0 0.0 0.0 0.0
7227 1 2 0.0 0.0 0.0 0.0
7228 1 2 0.0 0.0 0.0 0.0
7229 1 2 0.0 0.0 0.0 0.0
7230 1 2 0.0 0.0 0.0 0.0
7231 1 2 0.0 0.0 0.0 0.0
7232 1 2 0.0 0.0 0.0 0.0
7233 1 2 0.0 0.0 0.0 0.0
7234 1 2 0.0 0.0 0.0 0.0
7235 1 2 0.0 0.0 0.0 0.0
7236 1 2 0.0 0.0 0.0 0.0
7237 1 2 0.0 0.0 0.0 0.0
7238 1 2 0.0 0.0 0.0 0.0
7239 1 2 0.0 0.0 0.0 0.0
7240 1 2 0.0 0.0 0.0 0.0
7241 1 2 0.0 0.0 0.0 0.0
7242 1 2 0.0 0.0 0.0 0.0
7243 1 2 0.0 0.0 0.0 0.0
7244 1 2 0.0 0.0 0.0 0.0
7245 1 2 0.0 0.0 0.0 0.0
7246 1 2 0.0 0.0 0.0 0.0
7247 1 2 0.0 0.0 0.0 0.0
7248 1 2 0.0 0.0 0.0 0.0
7249 1 2 0.0 0.0 0.0 0.0
7250 1 2 0.0 0.0 0.0 0.0
7251 1 2 0.0 0.0 0.0 0.0
7252 1 2 0.0 0.0 0.0 0.0
7253 1 2 0.0 0.0 0.0 0.0
7254 1 2 0.0 0.0 0.0 0.0
7255 1 2 0.0 0.0 0.0 0.0
7256 1 2 0.0 0.0 0.0 0.0
7257 1 2 0.0 0.0 0.0 0.0
7258 1 2 0.0 0.0 0.0 0.0
7259 1 2 0.0 0.0 0.0 0.0
7260 1 2 0.0 0.0 0.0 0.0
7261 1 2 0.0 0.0 0.0 0.0
7262 1 2 0.0 0.0 0.0 0.0
7263 1 2 0.0 0.0 0.0 0.0
7264 1 2 0.0 0.0 0.0 0.0
7265 1 2 0.0 0.0 0.0 0.0
7266 1 2 0.0 0.0 0.0 0.0
7267 1 2 0.0 0.0 0.0 0.0
7268 1 2 0.0 0.0 0.0 0.0
7269 1 2 0.0 0.0 0.0 0.0
7270 1 2 0.0 0.0 0.0 0.0
7271 1 2 0.0 0.0 0.0 0.0
7272 1 2 0.0 0.0 0.0 0.0
7273 1 2 0.0 0.0 0.0 0.0
7274 1 2 0.0 0.0 0.0 0.0
7275 1 2 0.0 0.0 0.0 0.0
7276 1 2 0.0 0.0 0.0 0.0
7277 1 2 0.0 0.0 0.0 0.0
7278 1 2 0.0 0.0 0.0 0.0
7279 1 2 0.0 0.0 0.0 0.0
7280 1 2 0.0 0.0 0.0 0.0
7281 1 2 0.0 0.0 0.0 0.0
7282 1 2 0.0 0.0 0.0 0.0
7283 1 2 0.0 0.0 0.0 0.0
7284 1 2 0.0 0.0 0.0 0.0
7285 1 2 0.0 0.0 0.0 0.0
7286 1 2 0.0 0.0 0.0 0.0
7287 1 2 0.0 0.0 0.0 0.0
7288 1 2 0.0 0.0 0.0 0.0
7289 1 2 0.0 0.0 0.0 0.0
7290 1 2 0.0 0.0 0.0 0.0
7291 1 2 0.0 0.0 0.0 0.0
7292 1 2 0.0 0.0 0.0 0.0
7293 1 2 0.0 0.0 0.0 0.0
7294 1 2 0.0 0.0 0.0 0.0
7295 1 2 0.0 0.0 0.0 0.0
7296 1 2 0.0 0.0 0.0 0.0
7297 1 2 0.0 0.0 0.0 0.0
7298 1 2 0.0 0.0 0.0 0.0
7299 1 2 0.0 0.0 0.0 0.0
7300 1 2 0.0 0.0 0.0 0.0
7301 1 2 0.0 0.0 0.0 0.0
7302 1 2 0.0 0.0 0.0 0.0
7303 1 2 0.0 0.0 0.0 0.0
7304 1 2 0.0 0.0 0.0 0.0
7305 1 2 0.0 0.0 0.0 0.0
7306 1 2 0.0 0.0 0.0 0.0
7307 1 2 0.0 0.0 0.0 0.0
7308 1 2 0.0 0.0 0.0 0.0
7309 1 2 0.0 0.0 0.0 0.0
7310 1 2 0.0 0.0 0.0 0.0
7311 1 2 0.0 0.0 0.0 0.0
7312 1 2 0.0 0.0 0.0 0.0
7313 1 2 0.0 0.0 0.0 0.0
7314 1 2 0.0 0.0 0.0 0.0
7315 1 2 0.0 0.0 0.0 0.0
7316 1 2 0.0 0.0 0.0 0.0
7317 1 2 0.0 0.0 0.0 0.0
7318 1 2 0.0 0.0 0.0 0.0
7319 1 2 0.0 0.0 0.0 0.0
7320 1 2 0.0 0.0 0.0 0.0
7321 1 2 0.0 0.0 0.0 0.0
7322 1 2 0.0 0.0 0.0 0.0
7323 1 2 0.0 0.0 0.0 0.0
7324 1 2 0.0 0.0 0.0 0.0
7325 1 2 0.0 0.0 0.0 0.0
7326 1 2 0.0 0.0 0.0 0.0
7327 1 2 0.0 0.0 0.0 0.0
7328 1 2 0.0 0.0 0.0 0.0
7329 1 2 0.0 0.0 0.0 0.0
7330 1 2 0.0 0.0 0.0 0.0
7331 1 2 0.0 0.0 0.0 0.0
7332 1 2 0.0 0.0 0.0 0.0
7333 1 2 0.0 0.0 0.0 0.0
7334 1 2 0.0 0.0 0.0 0.0
7335 1 2 0.0 0.0 0.0 0.0
7336 1 2 0.0 0.0 0.0 0.0
7337 1 2 0.0 0.0 0.0 0.0
7338 1 2 0.0 0.0 0.0 0.0
7339 1 2 0.0 0.0 0.0 0.0
7340 1 2 0.0 0.0 0.0 0.0
7341 1 2 0.0 0.0 0.0 0.0
7342 1 2 0.0 0.0 0.0 0.0
7343 1 2 0.0 0.0 0.0 0.0
7344 1 2 0.0 0.0 0.0 0.0
7345 1 2 0.0 0.0 0.0 0.0
7346 1 2 0.0 0.0 0.0 0.0
7347 1 2 0.0 0.0 0.0 0.0
7348 1 2 0.0 0.0 0.0 0.0
7349 1 2 0.0 0.0 0.0 0.0
7350 1 2 0.0 0.0 0.0 0.0
7351 1 2 0.0 0.0 0.0 0.0
7352 1 2 0.0 0.0 0.0 0.0
7353 1 2 0.0 0.0 0.0 0.0
7354 1 2 0.0 0.0 0.0 0.0
7355 1 2 0.0 0.0 0.0 0.0
7356 1 2 0.0 0.0 0.0 0.0
7357 1 2 0.0 0.0 0.0 0.0
7358 1 2 0.0 0.0 0.0 0.0
7359 1 2 0.0 0.0 0.0 0.0
7360 1 2 0.0 0.0 0.0 0.0
7361 1 2 0.0 0.0 0.0 0.0
7362 1 2 0.0 0.0 0.0 0.0
7363 1 2 0.0 0.0 0.0 0.0
7364 1 2 0.0 0.0 0.0 0.0
7365 1 2 0.0 0.0 0.0 0.0
7366 1 2 0.0 0.0 0.0 0.0
7367 1 2 0.0 0.0 0.0 0.0
7368 1 2 0.0 0.0 0.0 0.0
7369 1 2 0.0 0.0 0.0 0.0
7370 1 2 0.0 0.0 0.0 0.0
7371 1 2 0.0 0.0 0.0 0.0
7372 1 2 0.0 0.0 0.0 0.0
7373 1 2 0.0 0.0 0.0 0.0
7374 1 2 0.0 0.0 0.0 0.0
7375 1 2 0.0 0.0 0.0 0.0
7376 1 2 0.0 0.0 0.0 0.0
7377 1 2 0.0 0.0 0.0 0.0
7378 1 2 0.0 0.0 0.0 0.0
7379 1 2 0.0 0.0 0.0 0.0
7380 1 2 0.0 0.0 0.0 0.0
7381 1 2 0.0 0.0 0.0 0.0
7382 1 2 0.0 0.0 0.0 0.0
7383 1 2 0.0 0.0 0.0 0.0
7384 1 2 0.0 0.0 0.0 0.0
7385 1 2 0.0 0.0 0.0 0.0
7386 1 2 0.0 0.0 0.0 0.0
7387 1 2 0.0 0.0 0.0 0.0
7388 1 2 0.0 0.0 0.0 0.0
7389 1 2 0.0 0.0 0.0 0.0
7390 1 2 0.0 0.0 0.0 0.0
7391 1 2 0.0 0.0 0.0 0.0
7392 1 2 0.0 0.0 0.0 0.0
7393 1 2 0.0 0.0 0.0 0.0
7394 1 2 0.0 0.0 0.0 0.0
7395 1 2 0.0 0.0 0.0 0.0
7396 1 2 0.0 0.0 0.0 0.0
7397 1 2 0.0 0.0 0.0 0.0
7398 1 2 0.0 0.0 0.0 0.0
7399 1 2 0.0 0.0 0.0 0.0
7400 1 2 0.0 0.0 0.0 0.0
7401 1 2 0.0 0.0 0.0 0.0
7402 1 2 0.0 0.0 0.0 0.0
7403 1 2 0.0 0.0 0.0 0.0
7404 1 2 0.0 0.0 0.0 0.0
7405 1 2 0.0 0.0 0.0 0.0
7406 1 2 0.0 0.0 0.0 0.0
7407 1 2 0.0 0.0 0.0 0.0
7408 1 2 0.0 0.0 0.0 0.0
7409 1 2 0.0 0.0 0.0 0.0
7410 1 2 0.0 0.0 0.0 0.0
7411 1 2 0.0 0.0 0.0 0.0
7412 1 2 0.0 0.0 0.0 0.0
7413 1 2 0.0 0.0 0.0 0.0
7414 1 2 0.0 0.0 0.0 0.0
7415 1 2 0.0 0.0 0.0 0.0
7416 1 2 0.0 0.0 0.0 0.0
7417 1 2 0.0 0.0 0.0 0.0
7418 1 2 0.0 0.0 0.0 0.0
7419 1 2 0.0 0.0 0.0 0.0
7420 1 2 0.0 0.0 0.0 0.0
7421 1 2 0.0 0.0 0.0 0.0
7422 1 2 0.0 0.0 0.0 0.0
7423 1 2 0.0 0.0 0.0 0.0
7424 1 2 0.0 0.0 0.0 0.0
7425 1 2 0.0 0.0 0.0 0.0
7426 1 2 0.0 0.0 0.0 0.0
7427 1 2 0.0 0.0 0.0 0.0
7428 1 2 0.0 0.0 0.0 0.0
7429 1 2 0.0 0.0 0.0 0.0
7430 1 2 0.0 0.0 0.0 0.0
7431 1 2 0.0 0.0 0.0 0.0
7432 1 2 0.0 0.0 0.0 0.0
7433 1 2 0.0 0.0 0.0 0.0
7434 1 2 0.0 0.0 0.0 0.0
7435 1 2 0.0 0.0 0.0 0.0
7436 1 2 0.0 0.0 0.0 0.0
7437 1 2 0.0 0.0 0.0 0.0
7438 1 2 0.0 0.0 0.0 0.0
7439 1 2 0.0 0.0 0.0 0.0
7440 1 2 0.0 0.0 0.0 0.0
7441 1 2 0.0 0.0 0.0 0.0
7442 1 2 0.0 0.0 0.0 0.0
7443 1 2 0.0 0.0 0.0 0.0
7444 1 2 0.0 0.0 0.0 0.0
7445 1 2 0.0 0.0 0.0 0.0
7446 1 2 0.0 0.0 0.0 0.0
7447 1 2 0.0 0.0 0.0 0.0
7448 1 2 0.0 0.0 0.0 0.0
7449 1 2 0.0 0.0 0.0 0.0
7450 1 2 0.0 0.0 0.0 0.0
7451 1 2 0.0 0.0 0.0 0.0
7452 1 2 0.0 0.0 0.0 0.0
7453 1 2 0.0 0.0 0.0 0.0
7454 1 2 0.0 0.0 0.0 0.0
7455 1 2 0.0 0.0 0.0 0.0
7456 1 2 0.0 0.0 0.0 0.0
7457 1 2 0.0 0.0 0.0 0.0
7458 1 2 0.0 0.0 0.0 0.0
7459 1 2 0.0 0.0 0.0 0.0
7460 1 2 0.0 0.0 0.0 0.0
7461 1 2 0.0 0.0 0.0 0.0
7462 1 2 0.0 0.0 0.0 0.0
7463 1 2 0.0 0.0 0.0 0.0
7464 1 2 0.0 0.0 0.0 0.0
7465 1 2 0.0 0.0 0.0 0.0
7466 1 2 0.0 0.0 0.0 0.0
7467 1 2 0.0 0.0 0.0 0.0
7468 1 2 0.0 0.0 0.0 0.0
7469 1 2 0.0 0.0 0.0 0.0
7470 1 2 0.0 0.0 0.0 0.0
7471 1 2 0.0 0.0 0.0 0.0
7472 1 2 0.0 0.0 0.0 0.0
7473 1 2 0.0 0.0 0.0 0.0
7474 1 2 0.0 0.0 0.0 0.0
7475 1 2 0.0 0.0 0.0 0.0
7476 1 2 0.0 0.0 0.0 0.0
7477 1 2 0.0 0.0 0.0 0.0
7478 1 2 0.0 0.0 0.0 0.0
7479 1 2 0.0 0.0 0.0 0.0
7480 1 2 0.0 0.0 0.0 0.0
7481 1 2 0.0 0.0 0.0 0.0
7482 1 2 0.0 0.0 0.0 0.0
7483 1 2 0.0 0.0 0.0 0.0
7484 1 2 0.0 0.0 0.0 0.0
7485 1 2 0.0 0.0 0.0 0.0
7486 1 2 0.0 0.0 0.0 0.0
7487 1 2 0.0 0.0 0.0 0.0
7488 1 2 0.0 0.0 0.0 0.0
7489 1 2 0.0 0.0 0.0 0.0
7490 1 2 0.0 0.0 0.0 0.0
7491 1 2 0.0 0.0 0.0 0.0
7492 1 2 0.0 0.0 0.0 0.0
7493 1 2 0.0 0.0 0.0 0.0
7494 1 2 0.0 0.0 0.0 0.0
7495 1 2 0.0 0.0 0.0 0.0
7496 1 2 0.0 0.0 0.0 0.0
7497 1 2 0.0 0.0 0.0 0.0
7498 1 2 0.0 0.0 0.0 0.0
7499 1 2 0.0 0.0 0.0 0.0
7500 1 2 0.0 0.0 0.0 0.0
7501 1 2 0.0 0.0 0.0 0.0
7502 1 2 0.0 0.0 0.0 0.0
7503 1 2 0.0 0.0 0.0 0.0
7504 1 2 0.0 0.0 0.0 0.0
7505 1 2 0.0 0.0 0.0 0.0
7506 1 2 0.0 0.0 0.0 0.0
7507 1 2 0.0 0.0 0.0 0.0
7508 1 2 0.0 0.0 0.0 0.0
7509 1 2 0.0 0.0 0.0 0.0
7510 1 2 0.0 0.0 0.0 0.0
7511 1 2 0.0 0.0 0.0 0.0
7512 1 2 0.0 0.0 0.0 0.0
7513 1 2 0.0 0.0 0.0 0.0
7514 1 2 0.0 0.0 0.0 0.0
7515 1 2 0.0 0.0 0.0 0.0
7516 1 2 0.0 0.0 0.0 0.0
7517 1 2 0.0 0.0 0.0 0.0
7518 1 2 0.0 0.0 0.0 0.0
7519 1 2 0.0 0.0 0.0 0.0
7520 1 2 0.0 0.0 0.0 0.0
7521 1 2 0.0 0.0 0.0 0.0
7522 1 2 0.0 0.0 0.0 0.0
7523 1 2 0.0 0.0 0.0 0.0
7524 1 2 0.0 0.0 0.0 0.0
7525 1 2 0.0 0.0 0.0 0.0
7526 1 2 0.0 0.0 0.0 0.0
7527 1 2 0.0 0.0 0.0 0.0
7528 1 2 0.0 0.0 0.0 0.0
7529 1 2 0.0 0.0 0.0 0.0
7530 1 2 0.0 0.0 0.0 0.0
7531 1 2 0.0 0.0 0.0 0.0
7532 1 2 0.0 0.0 0.0 0.0
7533 1 2 0.0 0.0 0.0 0.0
7534 1 2 0.0 0.0 0.0 0.0
7535 1 2 0.0 0.0 0.0 0.0
7536 1 2 0.0 0.0 0.0 0.0
7537 1 2 0.0 0.0 0.0 0.0
7538 1 2 0.0 0.0 0.0 0.0
7539 1 2 0.0 0.0 0.0 0.0
7540 1 2 0.0 0.0 0.0 0.0
7541 1 2 0.0 0.0 0.0 0.0
7542 1 2 0.0 0.0 0.0 0.0
7543 1 2 0.0 0.0 0.0 0.0
7544 1 2 0.0 0.0 0.0 0.0
7545 1 2 0.0 0.0 0.0 0.0
7546 1 2 0.0 0.0 0.0 0.0
7547 1 2 0.0 0.0 0.0 0.0
7548 1 2 0.0 0.0 0.0 0.0
7549 1 2 0.0 0.0 0.0 0.0
7550 1 2 0.0 0.0 0.0 0.0
7551 1 2 0.0 0.0 0.0 0.0
7552 1 2 0.0 0.0 0.0 0.0
7553 1 2 0.0 0.0 0.0 0.0
7554 1 2 0.0 0.0 0.0 0.0
7555 1 2 0.0 0.0 0.0 0.0
7556 1 2 0.0 0.0 0.0 0.0
7557 1 2 0.0 0.0 0.0 0.0
7558 1 2 0.0 0.0 0.0 0.0
7559 1 2 0.0 0.0 0.0 0.0
7560 1 2 0.0 0.0 0.0 0.0
7561 1 2 0.0 0.0 0.0 0.0
7562 1 2 0.0 0.0 0.0 0.0
7563 1 2 0.0 0.0 0.0 0.0
7564 1 2 0.0 0.0 0.0 0.0
7565 1 2 0.0 0.0 0.0 0.0
7566 1 2 0.0 0.0 0.0 0.0
7567 1 2 0.0 0.0 0.0 0.0
7568 1 2 0.0 0.0 0.0 0.0
7569 1 2 0.0 0.0 0.0 0.0
7570 1 2 0.0 0.0 0.0 0.0
7571 1 2 0.0 0.0 0.0 0.0
7572 1 2 0.0 0.0 0.0 0.0
7573 1 2 0.0 0.0 0.0 0.0
7574 1 2 0.0 0.0 0.0 0.0
7575 1 2 0.0 0.0 0.0 0.0
7576 1 2 0.0 0.0 0.0 0.0
7577 1 2 0.0 0.0 0.0 0.0
7578 1 2 0.0 0.0 0.0 0.0
7579 1 2 0.0 0.0 0.0 0.0
7580 1 2 0.0 0.0 0.0 0.0
7581 1 2 0.0 0.0 0.0 0.0
7582 1 2 0.0 0.0 0.0 0.0
7583 1 2 0.0 0.0 0.0 0.0
7584 1 2 0.0 0.0 0.0 0.0
7585 1 2 0.0 0.0 0.0 0.0
7586 1 2 0.0 0.0 0.0 0.0
7587 1 2 0.0 0.0 0.0 0.0
7588 1 2 0.0 0.0 0.0 0.0
7589 1 2 0.0 0.0 0.0 0.0
7590 1 2 0.0 0.0 0.0 0.0
7591 1 2 0.0 0.0 0.0 0.0
7592 1 2 0.0 0.0 0.0 0.0
7593 1 2 0.0 0.0 0.0 0.0
7594 1 2 0.0 0.0 0.0 0.0
7595 1 2 0.0 0.0 0.0 0.0
7596 1 2 0.0 0.0 0.0 0.0
7597 1 2 0.0 0.0 0.0 0.0
7598 1 2 0.0 0.0 0.0 0.0
7599 1 2 0.0 0.0 0.0 0.0
7600 1 2 0.0 0.0 0.0 0.0
7601 1 2 0.0 0.0 0.0 0.0
7602 1 2 0.0 0.0 0.0 0.0
7603 1 2 0.0 0.0 0.0 0.0
7604 1 2 0.0 0.0 0.0 0.0
7605 1 2 0.0 0.0 0.0 0.0
7606 1 2 0.0 0.0 0.0 0.0
7607 1 2 0.0 0.0 0.0 0.0
7608 1 2 0.0 0.0 0.0 0.0
7609 1 2 0.0 0.0 0.0 0.0
7610 1 2 0.0 0.0 0.0 0.0
7611 1 2 0.0 0.0 0.0 0.0
7612 1 2 0.0 0.0 0.0 0.0
7613 1 2 0.0 0.0 0.0 0.0
7614 1 2 0.0 0.0 0.0 0.0
7615 1 2 0.0 0.0 0.0 0.0
7616 1 2 0.0 0.0 0.0 0.0
7617 1 2 0.0 0.0 0.0 0.0
7618 1 2 0.0 0.0 0.0 0.0
7619 1 2 0.0 0.0 0.0 0.0
7620 1 2 0.0 0.0 0.0 0.0
7621 1 2 0.0 0.0 0.0 0.0
7622 1 2 0.0 0.0 0.0 0.0
7623 1 2 0.0 0.0 0.0 0.0
7624 1 2 0.0 0.0 0.0 0.0
7625 1 2 0.0 0.0 0.0 0.0
7626 1 2 0.0 0.0 0.0 0.0
7627 1 2 0.0 0.0 0.0 0.0
7628 1 2 0.0 0.0 0.0 0.0
7629 1 2 0.0 0.0 0.0 0.0
7630 1 2 0.0 0.0 0.0 0.0
7631 1 2 0.0 0.0 0.0 0.0
7632 1 2 0.0 0.0 0.0 0.0
7633 1 2 0.0 0.0 0.0 0.0
7634 1 2 0.0 0.0 0.0 0.0
7635 1 2 0.0 0.0 0.0 0.0
7636 1 2 0.0 0.0 0.0 0.0
7637 1 2 0.0 0.0 0.0 0.0
7638 1 2 0.0 0.0 0.0 0.0
7639 1 2 0.0 0.0 0.0 0.0
7640 1 2 0.0 0.0 0.0 0.0
7641 1 2 0.0 0.0 0.0 0.0
7642 1 2 0.0 0.0 0.0 0.0
7643 1 2 0.0 0.0 0.0 0.0
7644 1 2 0.0 0.0 0.0 0.0
7645 1 2 0.0 0.0 0.0 0.0
7646 1 2 0.0 0.0 0.0 0.0
7647 1 2 0.0 0.0 0.0 0.0
7648 1 2 0.0 0.0 0.0 0.0
7649 1 2 0.0 0.0 0.0 0.0
7650 1 2 0.0 0.0 0.0 0.0
7651 1 2 0.0 0.0 0.0 0.0
7652 1 2 0.0 0.0 0.0 0.0
7653 1 2 0.0 0.0 0.0 0.0
7654 1 2 0.0 0.0 0.0 0.0
7655 1 2 0.0 0.0 0.0 0.0
7656 1 2 0.0 0.0 0.0 0.0
7657 1 2 0.0 0.0 0.0 0.0
7658 1 2 0.0 0.0 0.0 0.0
7659 1 2 0.0 0.0 0.0 0.0
7660 1 2 0.0 0.0 0.0 0.0
7661 1 2 0.0 0.0 0.0 0.0
7662 1 2 0.0 0.0 0.0 0.0
7663 1 2 0.0 0.0 0.0 0.0
7664 1 2 0.0 0.0 0.0 0.0
7665 1 2 0.0 0.0 0.0 0.0
7666 1 2 0.0 0.0 0.0 0.0
7667 1 2 0.0 0.0 0.0 0.0
7668 1 2 0.0 0.0 0.0 0.0
7669 1 2 0.0 0.0 0.0 0.0
7670 1 2 0.0 0.0 0.0 0.0
7671 1 2 0.0 0.0 0.0 0.0
7672 1 2 0.0 0.0 0.0 0.0
7673 1 2 0.0 0.0 0.0 0.0
7674 1 2 0.0 0.0 0.0 0.0
7675 1 2 0.0 0.0 0.0 0.0
7676 1 2 0.0 0.0 0.0 0.0
7677 1 2 0.0 0.0 0.0 0.0
7678 1 2 0.0 0.0 0.0 0.0
7679 1 2 0.0 0.0 0.0 0.0
7680 1 2 0.0 0.0 0.0 0.0
7681 1 2 0.0 0.0 0.0 0.0
7682 1 2 0.0 0.0 0.0 0.0
7683 1 2 0.0 0.0 0.0 0.0
7684 1 2 0.0 0.0 0.0 0.0
7685 1 2 0.0 0.0 0.0 0.0
7686 1 2 0.0 0.0 0.0 0.0
7687 1 2 0.0 0.0 0.0 0.0
7688 1 2 0.0 0.0 0.0 0.0
7689 1 2 0.0 0.0 0.0 0.0
7690 1 2 0.0 0.0 0.0 0.0
7691 1 2 0.0 0.0 0.0 0.0
7692 1 2 0.0 0.0 0.0 0.0
7693 1 2 0.0 0.0 0.0 0.0
7694 1 2 0.0 0.0 0.0 0.0
7695 1 2 0.0 0.0 0.0 0.0
7696 1 2 0.0 0.0 0.0 0.0
7697 1 2 0.0 0.0 0.0 0.0
7698 1 2 0.0 0.0 0.0 0.0
7699 1 2 0.0 0.0 0.0 0.0
7700 1 2 0.0 0.0 0.0 0.0
7701 1 2 0.0 0.0 0.0 0.0
7702 1 2 0.0 0.0 0.0 0.0
7703 1 2 0.0 0.0 0.0 0.0
7704 1 2 0.0 0.0 0.0 0.0
7705 1 2 0.0 0.0 0.0 0.0
7706 1 2 0.0 0.0 0.0 0.0
7707 1 2 0.0 0.0 0.0 0.0
7708 1 2 0.0 0.0 0.0 0.0
7709 1 2 0.0 0.0 0.0 0.0
7710 1 2 0.0 0.0 0.0 0.0
7711 1 2 0.0 0.0 0.0 0.0
7712 1 2 0.0 0.0 0.0 0.0
7713 1 2 0.0 0.0 0.0 0.0
7714 1 2 0.0 0.0 0.0 0.0
7715 1 2 0.0 0.0 0.0 0.0
7716 1 2 0.0 0.0 0.0 0.0
7717 1 2 0.0 0.0 0.0 0.0
7718 1 2 0.0 0.0 0.0 0.0
7719 1 2 0.0 0.0 0.0 0.0
7720 1 2 0.0 0.0 0.0 0.0
7721 1 2 0.0 0.0 0.0 0.0
7722 1 2 0.0 0.0 0.0 0.0
7723 1 2 0.0 0.0 0.0 0.0
7724 1 2 0.0 0.0 0.0 0.0
7725 1 2 0.0 0.0 0.0 0.0
7726 1 2 0.0 0.0 0.0 0.0
7727 1 2 0.0 0.0 0.0 0.0
7728 1 2 0.0 0.0 0.0 0.0
7729 1 2 0.0 0.0 0.0 0.0
7730 1 2 0.0 0.0 0.0 0.0
7731 1 2 0.0 0.0 0.0 0.0
7732 1 2 0.0 0.0 0.0 0.0
7733 1 2 0.0 0.0 0.0 0.0
7734 1 2 0.0 0.0 0.0 0.0
7735 1 2 0.0 0.0 0.0 0.0
7736 1 2 0.0 0.0 0.0 0.0
7737 1 2 0.0 0.0 0.0 0.0
7738 1 2 0.0 0.0 0.0 0.0
7739 1 2 0.0 0.0 0.0 0.0
7740 1 2 0.0 0.0 0.0 0.0
7741 1 2 0.0 0.0 0.0 0.0
7742 1 2 0.0 0.0 0.0 0.0
7743 1 2 0.0 0.0 0.0 0.0
7744 1 2 0.0 0.0 0.0 0.0
7745 1 2 0.0 0.0 0.0 0.0
7746 1 2 0.0 0.0 0.0 0.0
7747 1 2 0.0 0.0 0.0 0.0
7748 1 2 0.0 0.0 0.0 0.0
7749 1 2 0.0 0.0 0.0 0.0
7750 1 2 0.0 0.0 0.0 0.0
7751 1 2 0.0 0.0 0.0 0.0
7752 1 2 0.0 0.0 0.0 0.0
7753 1 2 0.0 0.0 0.0 0.0
7754 1 2 0.0 0.0 0.0 0.0
7755 1 2 0.0 0.0 0.0 0.0
7756 1 2 0.0 0.0 0.0 0.0
7757 1 2 0.0 0.0 0.0 0.0
7758 1 2 0.0 0.0 0.0 0.0
7759 1 2 0.0 0.0 0.0 0.0
7760 1 2 0.0 0.0 0.0 0.0
7761 1 2 0.0 0.0 0.0 0.0
7762 1 2 0.0 0.0 0.0 0.0
7763 1 2 0.0 0.0 0.0 0.0
7764 1 2 0.0 0.0 0.0 0.0
7765 1 2 0.0 0.0 0.0 0.0
7766 1 2 0.0 0.0 0.0 0.0
7767 1 2 0.0 0.0 0.0 0.0
7768 1 2 0.0 0.0 0.0 0.0
7769 1 2 0.0 0.0 0.0 0.0
7770 1 2 0.0 0.0 0.0 0.0
7771 1 2 0.0 0.0 0.0 0.0
7772 1 2 0.0 0.0 0.0 0.0
7773 1 2 0.0 0.0 0.0 0.0
7774 1 2 0.0 0.0 0.0 0.0
7775 1 2 0.0 0.0 0.0 0.0
7776 1 2 0.0 0.0 0.0 0.0
7777 1 2 0.0 0.0 0.0 0.0
7778 1 2 0.0 0.0 0.0 0.0
7779 1 2 0.0 0.0 0.0 0.0
7780 1 2 0.0 0.0 0.0 0.0
7781 1 2 0.0 0.0 0.0 0.0
7782 1 2 0.0 0.0 0.0 0.0
7783 1 2 0.0 0.0 0.0 0.0
7784 1 2 0.0 0.0 0.0 0.0
7785 1 2 0.0 0.0 0.0 0.0
7786 1 2 0.0 0.0 0.0 0.0
7787 1 2 0.0 0.0 0.0 0.0
7788 1 2 0.0 0.0 0.0 0.0
7789 1 2 0.0 0.0 0.0 0.0
7790 1 2 0.0 0.0 0.0 0.0
7791 1 2 0.0 0.0 0.0 0.0
7792 1 2 0.0 0.0 0.0 0.0
7793 1 2 0.0 0.0 0.0 0.0
7794 1 2 0.0 0.0 0.0 0.0
7795 1 2 0.0 0.0 0.0 0.0
7796 1 2 0.0 0.0 0.0 0.0
7797 1 2 0.0 0.0 0.0 0.0
7798 1 2 0.0 0.0 0.0 0.0
7799 1 2 0.0 0.0 0.0 0.0
7800 1 2 0.0 0.0 0.0 0.0
7801 1 2 0.0 0.0 0.0 0.0
7802 1 2 0.0 0.0 0.0 0.0
7803 1 2 0.0 0.0 0.0 0.0
7804 1 2 0.0 0.0 0.0 0.0
7805 1 2 0.0 0.0 0.0 0.0
7806 1 2 0.0 0.0 0.0 0.0
7807 1 2 0.0 0.0 0.0 0.0
7808 1 2 0.0 0.0 0.0 0.0
7809 1 2 0.0 0.0 0.0 0.0
7810 1 2 0.0 0.0 0.0 0.0
7811 1 2 0.0 0.0 0.0 0.0
7812 1 2 0.0 0.0 0.0 0.0
7813 1 2 0.0 0.0 0.0 0.0
7814 1 2 0.0 0.0 0.0 0.0
7815 1 2 0.0 0.0 0.0 0.0
7816 1 2 0.0 0.0 0.0 0.0
7817 1 2 0.0 0.0 0.0 0.0
7818 1 2 0.0 0.0 0.0 0.0
7819 1 2 0.0 0.0 0.0 0.0
7820 1 2 0.0 0.0 0.0 0.0
7821 1 2 0.0 0.0 0.0 0.0
7822 1 2 0.0 0.0 0.0 0.0
7823 1 2 0.0 0.0 0.0 0.0
7824 1 2 0.0 0.0 0.0 0.0
7825 1 2 0.0 0.0 0.0 0.0
7826 1 2 0.0 0.0 0.0 0.0
7827 1 2 0.0 0.0 0.0 0.0
7828 1 2 0.0 0.0 0.0 0.0
7829 1 2 0.0 0.0 0.0 0.0
7830 1 2 0.0 0.0 0.0 0.0
7831 1 2 0.0 0.0 0.0 0.0
7832 1 2 0.0 0.0 0.0 0.0
7833 1 2 0.0 0.0 0.0 0.0
7834 1 2 0.0 0.0 0.0 0.0
7835 1 2 0.0 0.0 0.0 0.0
7836 1 2 0.0 0.0 0.0 0.0
7837 1 2 0.0 0.0 0.0 0.0
7838 1 2 0.0 0.0 0.0 0.0
7839 1 2 0.0 0.0 0.0 0.0
7840 1 2 0.0 0.0 0.0 0.0
7841 1 2 0.0 0.0 0.0 0.0
7842 1 2 0.0 0.0 0.0 0.0
7843 1 2 0.0 0.0 0.0 0.0
7844 1 2 0.0 0.0 0.0 0.0
7845 1 2 0.0 0.0 0.0 0.0
7846 1 2 0.0 0.0 0.0 0.0
7847 1 2 0.0 0.0 0.0 0.0
7848 1 2 0.0 0.0 0.0 0.0
7849 1 2 0.0 0.0 0.0 0.0
7850 1 2 0.0 0.0 0.0 0.0
7851 1 2 0.0 0.0 0.0 0.0
7852 1 2 0.0 0.0 0.0 0.0
7853 1 2 0.0 0.0 0.0 0.0
7854 1 2 0.0 0.0 0.0 0.0
7855 1 2 0.0 0.0 0.0 0.0
7856 1 2 0.0 0.0 0.0 0.0
7857 1 2 0.0 0.0 0.0 0.0
7858 1 2 0.0 0.0 0.0 0.0
7859 1 2 0.0 0.0 0.0 0.0
7860 1 2 0.0 0.0 0.0 0.0
7861 1 2 0.0 0.0 0.0 0.0
7862 1 2 0.0 0.0 0.0 0.0
7863 1 2 0.0 0.0 0.0 0.0
7864 1 2 0.0 0.0 0.0 0.0
7865 1 2 0.0 0.0 0.0 0.0
7866 1 2 0.0 0.0 0.0 0.0
7867 1 2 0.0 0.0 0.0 0.0
7868 1 2 0.0 0.0 0.0 0.0
7869 1 2 0.0 0.0 0.0 0.0
7870 1 2 0.0 0.0 0.0 0.0
7871 1 2 0.0 0.0 0.0 0.0
7872 1 2 0.0 0.0 0.0 0.0
7873 1 2 0.0 0.0 0.0 0.0
7874 1 2 0.0 0.0 0.0 0.0
7875 1 2 0.0 0.0 0.0 0.0
7876 1 2 0.0 0.0 0.0 0.0
7877 1 2 0.0 0.0 0.0 0.0
7878 1 2 0.0 0.0 0.0 0.0
7879 1 2 0.0 0.0 0.0 0.0
7880 1 2 0.0 0.0 0.0 0.0
7881 1 2 0.0 0.0 0.0 0.0
7882 1 2 0.0 0.0 0.0 0.0
7883 1 2 0.0 0.0 0.0 0.0
7884 1 2 0.0 0.0 0.0 0.0
7885 1 2 0.0 0.0 0.0 0.0
7886 1 2 0.0 0.0 0.0 0.0
7887 1 2 0.0 0.0 0.0 0.0
7888 1 2 0.0 0.0 0.0 0.0
7889 1 2 0.0 0.0 0.0 0.0
7890 1 2 0.0 0.0 0.0 0.0
7891 1 2 0.0 0.0 0.0 0.0
7892 1 2 0.0 0.0 0.0 0.0
7893 1 2 0.0 0.0 0.0 0.0
7894 1 2 0.0 0.0 0.0 0.0
7895 1 2 0.0 0.0 0.0 0.0
7896 1 2 0.0 0.0 0.0 0.0
7897 1 2 0.0 0.0 0.0 0.0
7898 1 2 0.0 0.0 0.0 0.0
7899 1 2 0.0 0.0 0.0 0.0
7900 1 2 0.0 0.0 0.0 0.0
7901 1 2 0.0 0.0 0.0 0.0
7902 1 2 0.0 0.0 0.0 0.0
7903 1 2 0.0 0.0 0.0 0.0
7904 1 2 0.0 0.0 0.0 0.0
7905 1 2 0.0 0.0 0.0 0.0
7906 1 2 0.0 0.0 0.0 0.0
7907 1 2 0.0 0.0 0.0 0.0
7908 1 2 0.0 0.0 0.0 0.0
7909 1 2 0.0 0.0 0.0 0.0
7910 1 2 0.0 0.0 0.0 0.0
7911 1 2 0.0 0.0 0.0 0.0
7912 1 2 0.0 0.0 0.0 0.0
7913 1 2 0.0 0.0 0.0 0.0
7914 1 2 0.0 0.0 0.0 0.0
7915 1 2 0.0 0.0 0.0 0.0
7916 1 2 0.0 0.0 0.0 0.0
7917 1 2 0.0 0.0 0.0 0.0
7918 1 2 0.0 0.0 0.0 0.0
7919 1 2 0.0 0.0 0.0 0.0
7920 1 2 0.0 0.0 0.0 0.0
7921 1 2 0.0 0.0 0.0 0.0
7922 1 2 0.0 0.0 0.0 0.0
7923 1 2 0.0 0.0 0.0 0.0
7924 1 2 0.0 0.0 0.0 0.0
7925 1 2 0.0 0.0 0.0 0.0
7926 1 2 0.0 0.0 0.0 0.0
7927 1 2 0.0 0.0 0.0 0.0
7928 1 2 0.0 0.0 0.0 0.0
7929 1 2 0.0 0.0 0.0 0.0
7930 1 2 0.0 0.0 0.0 0.0
7931 1 2 0.0 0.0 0.0 0.0
7932 1 2 0.0 0.0 0.0 0.0
7933 1 2 0.0 0.0 0.0 0.0
7934 1 2 0.0 0.0 0.0 0.0
7935 1 2 0.0 0.0 0.0 0.0
7936 1 2 0.0 0.0 0.0 0.0
7937 1 2 0.0 0.0 0.0 0.0
7938 1 2 0.0 0.0 0.0 0.0
7939 1 2 0.0 0.0 0.0 0.0
7940 1 2 0.0 0.0 0.0 0.0
7941 1 2 0.0 0.0 0.0 0.0
7942 1 2 0.0 0.0 0.0 0.0
7943 1 2 0.0 0.0 0.0 0.0
7944 1 2 0.0 0.0 0.0 0.0
7945 1 2 0.0 0.0 0.0 0.0
7946 1 2 0.0 0.0 0.0 0.0
7947 1 2 0.0 0.0 0.0 0.0
7948 1 2 0.0 0.0 0.0 0.0
7949 1 2 0.0 0.0 0.0 0.0
7950 1 2 0.0 0.0 0.0 0.0
7951 1 2 0.0 0.0 0.0 0.0
7952 1 2 0.0 0.0 0.0 0.0
7953 1 2 0.0 0.0 0.0 0.0
7954 1 2 0.0 0.0 0.0 0.0
7955 1 2 0.0 0.0 0.0 0.0
7956 1 2 0.0 0.0 0.0 0.0
7957 1 2 0.0 0.0 0.0 0.0
7958 1 2 0.0 0.0 0.0 0.0
7959 1 2 0.0 0.0 0.0 0.0
7960 1 2 0.0 0.0 0.0 0.0
7961 1 2 0.0 0.0 0.0 0.0
7962 1 2 0.0 0.0 0.0 0.0
7963 1 2 0.0 0.0 0.0 0.0
7964 1 2 0.0 0.0 0.0 0.0
7965 1 2 0.0 0.0 0.0 0.0
7966 1 2 0.0 0.0 0.0 0.0
7967 1 2 0.0 0.0 0.0 0.0
7968 1 2 0.0 0.0 0.0 0.0
7969 1 2 0.0 0.0 0.0 0.0
7970 1 2 0.0 0.0 0.0 0.0
7971 1 2 0.0 0.0 0.0 0.0
7972 1 2 0.0 0.0 0.0 0.0
7973 1 2 0.0 0.0 0.0 0.0
7974 1 2 0.0 0.0 0.0 0.0
7975 1 2 0.0 0.0 0.0 0.0
7976 1 2 0.0 0.0 0.0 0.0
7977 1 2 0.0 0.0 0.0 0.0
7978 1 2 0.0 0.0 0.0 0.0
7979 1 2 0.0 0.0 0.0 0.0
7980 1 2 0.0 0.0 0.0 0.0
7981 1 2 0.0 0.0 0.0 0.0
7982 1 2 0.0 0.0 0.0 0.0
7983 1 2 0.0 0.0 0.0 0.0
7984 1 2 0.0 0.0 0.0 0.0
7985 1 2 0.0 0.0 0.0 0.0
7986 1 2 0.0 0.0 0.0 0.0
7987 1 2 0.0 0.0 0.0 0.0
7988 1 2 0.0 0.0 0.0 0.0
7989 1 2 0.0 0.0 0.0 0.0
7990 1 2 0.0 0.0 0.0 0.0
7991 1 2 0.0 0.0 0.0 0.0
7992 1 2 0.0 0.0 0.0 0.0
7993 1 2 0.0 0.0 0.0 0.0
7994 1 2 0.0 0.0 0.0 0.0
7995 1 2 0.0 0.0 0.0 0.0
7996 1 2 0.0 0.0 0.0 0.0
7997 1 2 0.0 0.0 0.0 0.0
7998 1 2 0.0 0.0 0.0 0.0
7999 1 2 0.0 0.0 0.0 0.0
8000 1 2 0.0 0.0 0.0 0.0
8001 1 2 0.0 0.0 0.0 0.0
8002 1 2 0.0 0.0 0.0 0.0
8003 1 2 0.0 0.0 0.0 0.0
8004 1 2 0.0 0.0 0.0 0.0
8005 1 2 0.0 0.0 0.0 0.0
8006 1 2 0.0 0.0 0.0 0.0
8007 1 2 0.0 0.0 0.0 0.0
8008 1 2 0.0 0.0 0.0 0.0
8009 1 2 0.0 0.0 0.0 0.0
8010 1 2 0.0 0.0 0.0 0.0
8011 1 2 0.0 0.0 0.0 0.0
8012 1 2 0.0 0.0 0.0 0.0
8013 1 2 0.0 0.0 0.0 0.0
8014 1 2 0.0 0.0 0.0 0.0
8015 1 2 0.0 0.0 0.0 0.0
8016 1 2 0.0 0.0 0.0 0.0
8017 1 2 0.0 0.0 0.0 0.0
8018 1 2 0.0 0.0 0.0 0.0
8019 1 2 0.0 0.0 0.0 0.0
8020 1 2 0.0 0.0 0.0 0.0
8021 1 2 0.0 0.0 0.0 0.0
8022 1 2 0.0 0.0 0.0 0.0
8023 1 2 0.0 0.0 0.0 0.0
8024 1 2 0.0 0.0 0.0 0.0
8025 1 2 0.0 0.0 0.0 0.0
8026 1 2 0.0 0.0 0.0 0.0
8027 1 2 0.0 0.0 0.0 0.0
8028 1 2 0.0 0.0 0.0 0.0
8029 1 2 0.0 0.0 0.0 0.0
8030 1 2 0.0 0.0 0.0 0.0
8031 1 2 0.0 0.0 0.0 0.0
8032 1 2 0.0 0.0 0.0 0.0
8033 1 2 0.0 0.0 0.0 0.0
8034 1 2 0.0 0.0 0.0 0.0
8035 1 2 0.0 0.0 0.0 0.0
8036 1 2 0.0 0.0 0.0 0.0
8037 1 2 0.0 0.0 0.0 0.0
8038 1 2 0.0 0.0 0.0 0.0
8039 1 2 0.0 0.0 0.0 0.0
8040 1 2 0.0 0.0 0.0 0.0
8041 1 2 0.0 0.0 0.0 0.0
8042 1 2 0.0 0.0 0.0 0.0
8043 1 2 0.0 0.0 0.0 0.0
8044 1 2 0.0 0.0 0.0 0.0
8045 1 2 0.0 0.0 0.0 0.0
8046 1 2 0.0 0.0 0.0 0.0
8047 1 2 0.0 0.0 0.0 0.0
8048 1 2 0.0 0.0 0.0 0.0
8049 1 2 0.0 0.0 0.0 0.0
8050 1 2 0.0 0.0 0.0 0.0
8051 1 2 0.0 0.0 0.0 0.0
8052 1 2 0.0 0.0 0.0 0.0
8053 1 2 0.0 0.0 0.0 0.0
8054 1 2 0.0 0.0 0.0 0.0
8055 1 2 0.0 0.0 0.0 0.0
8056 1 2 0.0 0.0 0.0 0.0
8057 1 2 0.0 0.0 0.0 0.0
8058 1 2 0.0 0.0 0.0 0.0
8059 1 2 0.0 0.0 0.0 0.0
8060 1 2 0.0 0.0 0.0 0.0
8061 1 2 0.0 0.0 0.0 0.0
8062 1 2 0.0 0.0 0.0 0.0
8063 1 2 0.0 0.0 0.0 0.0
8064 1 2 0.0 0.0 0.0 0.0
8065 1 2 0.0 0.0 0.0 0.0
8066 1 2 0.0 0.0 0.0 0.0
8067 1 2 0.0 0.0 0.0 0.0
8068 1 2 0.0 0.0 0.0 0.0
8069 1 2 0.0 0.0 0.0 0.0
8070 1 2 0.0 0.0 0.0 0.0
8071 1 2 0.0 0.0 0.0 0.0
8072 1 2 0.0 0.0 0.0 0.0
8073 1 2 0.0 0.0 0.0 0.0
8074 1 2 0.0 0.0 0.0 0.0
8075 1 2 0.0 0.0 0.0 0.0
8076 1 2 0.0 0.0 0.0 0.0
8077 1 2 0.0 0.0 0.0 0.0
8078 1 2 0.0 0.0 0.0 0.0
8079 1 2 0.0 0.0 0.0 0.0
8080 1 2 0.0 0.0 0.0 0.0
8081 1 2 0.0 0.0 0.0 0.0
8082 1 2 0.0 0.0 0.0 0.0
8083 1 2 0.0 0.0 0.0 0.0
8084 1 2 0.0 0.0 0.0 0.0
8085 1 2 0.0 0.0 0.0 0.0
8086 1 2 0.0 0.0 0.0 0.0
8087 1 2 0.0 0.0 0.0 0.0
8088 1 2 0.0 0.0 0.0 0.0
8089 1 2 0.0 0.0 0.0 0.0
8090 1 2 0.0 0.0 0.0 0.0
8091 1 2 0.0 0.0 0.0 0.0
8092 1 2 0.0 0.0 0.0 0.0
8093 1 2 0.0 0.0 0.0 0.0
8094 1 2 0.0 0.0 0.0 0.0
8095 1 2 0.0 0.0 0.0 0.0
8096 1 2 0.0 0.0 0.0 0.0
8097 1 2 0.0 0.0 0.0 0.0
8098 1 2 0.0 0.0 0.0 0.0
8099 1 2 0.0 0.0 0.0 0.0
8100 1 2 0.0 0.0 0.0 0.0
8101 1 2 0.0 0.0 0.0 0.0
8102 1 2 0.0 0.0 0.0 0.0
8103 1 2 0.0 0.0 0.0 0.0
8104 1 2 0.0 0.0 0.0 0.0
8105 1 2 0.0 0.0 0.0 0.0
8106 1 2 0.0 0.0 0.0 0.0
8107 1 2 0.0 0.0 0.0 0.0
8108 1 2 0.0 0.0 0.0 0.0
8109 1 2 0.0 0.0 0.0 0.0
8110 1 2 0.0 0.0 0.0 0.0
8111 1 2 0.0 0.0 0.0 0.0
8112 1 2 0.0 0.0 0.0 0.0
8113 1 2 0.0 0.0 0.0 0.0
8114 1 2 0.0 0.0 0.0 0.0
8115 1 2 0.0 0.0 0.0 0.0
8116 1 2 0.0 0.0 0.0 0.0
8117 1 2 0.0 0.0 0.0 0.0
8118 1 2 0.0 0.0 0.0 0.0
8119 1 2 0.0 0.0 0.0 0.0
8120 1 2 0.0 0.0 0.0 0.0
8121 1 2 0.0 0.0 0.0 0.0
8122 1 2 0.0 0.0 0.0 0.0
8123 1 2 0.0 0.0 0.0 0.0
8124 1 2 0.0 0.0 0.0 0.0
8125 1 2 0.0 0.0 0.0 0.0
8126 1 2 0.0 0.0 0.0 0.0
8127 1 2 0.0 0.0 0.0 0.0
8128 1 2 0.0 0.0 0.0 0.0
8129 1 2 0.0 0.0 0.0 0.0
8130 1 2 0.0 0.0 0.0 0.0
8131 1 2 0.0 0.0 0.0 0.0
8132 1 2 0.0 0.0 0.0 0.0
8133 1 2 0.0 0.0 0.0 0.0
8134 1 2 0.0 0.0 0.0 0.0
8135 1 2 0.0 0.0 0.0 0.0
8136 1 2 0.0 0.0 0.0 0.0
8137 1 2 0.0 0.0 0.0 0.0
8138 1 2 0.0 0.0 0.0 0.0
8139 1 2 0.0 0.0 0.0 0.0
8140 1 2 0.0 0.0 0.0 0.0
8141 1 2 0.0 0.0 0.0 0.0
8142 1 2 0.0 0.0 0.0 0.0
8143 1 2 0.0 0.0 0.0 0.0
8144 1 2 0.0 0.0 0.0 0.0
8145 1 2 0.0 0.0 0.0 0.0
8146 1 2 0.0 0.0 0.0 0.0
8147 1 2 0.0 0.0 0.0 0.0
8148 1 2 0.0 0.0 0.0 0.0
8149 1 2 0.0 0.0 0.0 0.0
8150 1 2 0.0 0.0 0.0 0.0
8151 1 2 0.0 0.0 0.0 0.0
8152 1 2 0.0 0.0 0.0 0.0
8153 1 2 0.0 0.0 0.0 0.0
8154 1 2 0.0 0.0 0.0 0.0
8155 1 2 0.0 0.0 0.0 0.0
8156 1 2 0.0 0.0 0.0 0.0
8157 1 2 0.0 0.0 0.0 0.0
8158 1 2 0.0 0.0 0.0 0.0
8159 1 2 0.0 0.0 0.0 0.0
8160 1 2 0.0 0.0 0.0 0.0
8161 1 2 0.0 0.0 0.0 0.0
8162 1 2 0.0 0.0 0.0 0.0
8163 1 2 0.0 0.0 0.0 0.0
8164 1 2 0.0 0.0 0.0 0.0
8165 1 2 0.0 0.0 0.0 0.0
8166 1 2 0.0 0.0 0.0 0.0
8167 1 2 0.0 0.0 0.0 0.0
8168 1 2 0.0 0.0 0.0 0.0
8169 1 2 0.0 0.0 0.0 0.0
8170 1 2 0.0 0.0 0.0 0.0
8171 1 2 0.0 0.0 0.0 0.0
8172 1 2 0.0 0.0 0.0 0.0
8173 1 2 0.0 0.0 0.0 0.0
8174 1 2 0.0 0.0 0.0 0.0
8175 1 2 0.0 0.0 0.0 0.0
8176 1 2 0.0 0.0 0.0 0.0
8177 1 2 0.0 0.0 0.0 0.0
8178 1 2 0.0 0.0 0.0 0.0
8179 1 2 0.0 0.0 0.0 0.0
8180 1 2 0.0 0.0 0.0 0.0
8181 1 2 0.0 0.0 0.0 0.0
8182 1 2 0.0 0.0 0.0 0.0
8183 1 2 0.0 0.0 0.0 0.0
8184 1 2 0.0 0.0 0.0 0.0
8185 1 2 0.0 0.0 0.0 0.0
8186 1 2 0.0 0.0 0.0 0.0
8187 1 2 0.0 0.0 0.0 0.0
8188 1 2 0.0 0.0 0.0 0.0
8189 1 2 0.0 0.0 0.0 0.0
8190 1 2 0.0 0.0 0.0 0.0
8191 1 2 0.0 0.0 0.0 0.0
8192 1 2 0.0 0.0 0.0 0.0
8193 1 2 0.0 0.0 0.0 0.0
8194 1 2 0.0 0.0 0.0 0.0
8195 1 2 0.0 0.0 0.0 0.0
8196 1 2 0.0 0.0 0.0 0.0
8197 1 2 0.0 0.0 0.0 0.0
8198 1 2 0.0 0.0 0.0 0.0
8199 1 2 0.0 0.0 0.0 0.0
8200 1 2 0.0 0.0 0.0 0.0
8201 1 2 0.0 0.0 0.0 0.0
8202 1 2 0.0 0.0 0.0 0.0
8203 1 2 0.0 0.0 0.0 0.0
8204 1 2 0.0 0.0 0.0 0.0
8205 1 2 0.0 0.0 0.0 0.0
8206 1 2 0.0 0.0 0.0 0.0
8207 1 2 0.0 0.0 0.0 0.0
8208 1 2 0.0 0.0 0.0 0.0
8209 1 2 0.0 0.0 0.0 0.0
8210 1 2 0.0 0.0 0.0 0.0
8211 1 2 0.0 0.0 0.0 0.0
8212 1 2 0.0 0.0 0.0 0.0
8213 1 2 0.0 0.0 0.0 0.0
8214 1 2 0.0 0.0 0.0 0.0
8215 1 2 0.0 0.0 0.0 0.0
8216 1 2 0.0 0.0 0.0 0.0
8217 1 2 0.0 0.0 0.0 0.0
8218 1 2 0.0 0.0 0.0 0.0
8219 1 2 0.0 0.0 0.0 0.0
8220 1 2 0.0 0.0 0.0 0.0
8221 1 2 0.0 0.0 0.0 0.0
8222 1 2 0.0 0.0 0.0 0.0
8223 1 2 0.0 0.0 0.0 0.0
8224 1 2 0.0 0.0 0.0 0.0
8225 1 2 0.0 0.0 0.0 0.0
8226 1 2 0.0 0.0 0.0 0.0
8227 1 2 0.0 0.0 0.0 0.0
8228 1 2 0.0 0.0 0.0 0.0
8229 1 2 0.0 0.0 0.0 0.0
8230 1 2 0.0 0.0 0.0 0.0
8231 1 2 0.0 0.0 0.0 0.0
8232 1 2 0.0 0.0 0.0 0.0
8233 1 2 0.0 0.0 0.0 0.0
8234 1 2 0.0 0.0 0.0 0.0
8235 1 2 0.0 0.0 0.0 0.0
8236 1 2 0.0 0.0 0.0 0.0
8237 1 2 0.0 0.0 0.0 0.0
8238 1 2 0.0 0.0 0.0 0.0
8239 1 2 0.0 0.0 0.0 0.0
8240 1 2 0.0 0.0 0.0 0.0
8241 1 2 0.0 0.0 0.0 0.0
8242 1 2 0.0 0.0 0.0 0.0
8243 1 2 0.0 0.0 0.0 0.0
8244 1 2 0.0 0.0 0.0 0.0
8245 1 2 0.0 0.0 0.0 0.0
8246 1 2 0.0 0.0 0.0 0.0
8247 1 2 0.0 0.0 0.0 0.0
8248 1 2 0.0 0.0 0.0 0.0
8249 1 2 0.0 0.0 0.0 0.0
8250 1 2 0.0 0.0 0.0 0.0
8251 1 2 0.0 0.0 0.0 0.0
8252 1 2 0.0 0.0 0.0 0.0
8253 1 2 0.0 0.0 0.0 0.0
8254 1 2 0.0 0.0 0.0 0.0
8255 1 2 0.0 0.0 0.0 0.0
8256 1 2 0.0 0.0 0.0 0.0
8257 1 2 0.0 0.0 0.0 0.0
8258 1 2 0.0 0.0 0.0 0.0
8259 1 2 0.0 0.0 0.0 0.0
8260 1 2 0.0 0.0 0.0 0.0
8261 1 2 0.0 0.0 0.0 0.0
8262 1 2 0.0 0.0 0.0 0.0
8263 1 2 0.0 0.0 0.0 0.0
8264 1 2 0.0 0.0 0.0 0.0
8265 1 2 0.0 0.0 0.0 0.0
8266 1 2 0.0 0.0 0.0 0.0
8267 1 2 0.0 0.0 0.0 0.0
8268 1 2 0.0 0.0 0.0 0.0
8269 1 2 0.0 0.0 0.0 0.0
8270 1 2 0.0 0.0 0.0 0.0
8271 1 2 0.0 0.0 0.0 0.0
8272 1 2 0.0 0.0 0.0 0.0
8273 1 2 0.0 0.0 0.0 0.0
8274 1 2 0.0 0.0 0.0 0.0
8275 1 2 0.0 0.0 0.0 0.0
8276 1 2 0.0 0.0 0.0 0.0
8277 1 2 0.0 0.0 0.0 0.0
8278 1 2 0.0 0.0 0.0 0.0
8279 1 2 0.0 0.0 0.0 0.0
8280 1 2 0.0 0.0 0.0 0.0
8281 1 2 0.0 0.0 0.0 0.0
8282 1 2 0.0 0.0 0.0 0.0
8283 1 2 0.0 0.0 0.0 0.0
8284 1 2 0.0 0.0 0.0 0.0
8285 1 2 0.0 0.0 0.0 0.0
8286 1 2 0.0 0.0 0.0 0.0
8287 1 2 0.0 0.0 0.0 0.0
8288 1 2 0.0 0.0 0.0 0.0
8289 1 2 0.0 0.0 0.0 0.0
8290 1 2 0.0 0.0 0.0 0.0
8291 1 2 0.0 0.0 0.0 0.0
8292 1 2 0.0 0.0 0.0 0.0
8293 1 2 0.0 0.0 0.0 0.0
8294 1 2 0.0 0.0 0.0 0.0
8295 1 2 0.0 0.0 0.0 0.0
8296 1 2 0.0 0.0 0.0 0.0
8297 1 2 0.0 0.0 0.0 0.0
8298 1 2 0.0 0.0 0.0 0.0
8299 1 2 0.0 0.0 0.0 0.0
8300 1 2 0.0 0.0 0.0 0.0
8301 1 2 0.0 0.0 0.0 0.0
8302 1 2 0.0 0.0 0.0 0.0
8303 1 2 0.0 0.0 0.0 0.0
8304 1 2 0.0 0.0 0.0 0.0
8305 1 2 0.0 0.0 0.0 0.0
8306 1 2 0.0 0.0 0.0 0.0
8307 1 2 0.0 0.0 0.0 0.0
8308 1 2 0.0 0.0 0.0 0.0
8309 1 2 0.0 0.0 0.0 0.0
8310 1 2 0.0 0.0 0.0 0.0
8311 1 2 0.0 0.0 0.0 0.0
8312 1 2 0.0 0.0 0.0 0.0
8313 1 2 0.0 0.0 0.0 0.0
8314 1 2 0.0 0.0 0.0 0.0
8315 1 2 0.0 0.0 0.0 0.0
8316 1 2 0.0 0.0 0.0 0.0
8317 1 2 0.0 0.0 0.0 0.0
8318 1 2 0.0 0.0 0.0 0.0
8319 1 2 0.0 0.0 0.0 0.0
8320 1 2 0.0 0.0 0.0 0.0
8321 1 2 0.0 0.0 0.0 0.0
8322 1 2 0.0 0.0 0.0 0.0
8323 1 2 0.0 0.0 0.0 0.0
8324 1 2 0.0 0.0 0.0 0.0
8325 1 2 0.0 0.0 0.0 0.0
8326 1 2 0.0 0.0 0.0 0.0
8327 1 2 0.0 0.0 0.0 0.0
8328 1 2 0.0 0.0 0.0 0.0
8329 1 2 0.0 0.0 0.0 0.0
8330 1 2 0.0 0.0 0.0 0.0
8331 1 2 0.0 0.0 0.0 0.0
8332 1 2 0.0 0.0 0.0 0.0
8333 1 2 0.0 0.0 0.0 0.0
8334 1 2 0.0 0.0 0.0 0.0
8335 1 2 0.0 0.0 0.0 0.0
8336 1 2 0.0 0.0 0.0 0.0
8337 1 2 0.0 0.0 0.0 0.0
8338 1 2 0.0 0.0 0.0 0.0
8339 1 2 0.0 0.0 0.0 0.0
8340 1 2 0.0 0.0 0.0 0.0
8341 1 2 0.0 0.0 0.0 0.0
8342 1 2 0.0 0.0 0.0 0.0
8343 1 2 0.0 0.0 0.0 0.0
8344 1 2 0.0 0.0 0.0 0.0
8345 1 2 0.0 0.0 0.0 0.0
8346 1 2 0.0 0.0 0.0 0.0
8347 1 2 0.0 0.0 0.0 0.0
8348 1 2 0.0 0.0 0.0 0.0
8349 1 2 0.0 0.0 0.0 0.0
8350 1 2 0.0 0.0 0.0 0.0
8351 1 2 0.0 0.0 0.0 0.0
8352 1 2 0.0 0.0 0.0 0.0
8353 1 2 0.0 0.0 0.0 0.0
8354 1 2 0.0 0.0 0.0 0.0
8355 1 2 0.0 0.0 0.0 0.0
8356 1 2 0.0 0.0 0.0 0.0
8357 1 2 0.0 0.0 0.0 0.0
8358 1 2 0.0 0.0 0.0 0.0
8359 1 2 0.0 0.0 0.0 0.0
8360 1 2 0.0 0.0 0.0 0.0
8361 1 2 0.0 0.0 0.0 0.0
8362 1 2 0.0 0.0 0.0 0.0
8363 1 2 0.0 0.0 0.0 0.0
8364 1 2 0.0 0.0 0.0 0.0
8365 1 2 0.0 0.0 0.0 0.0
8366 1 2 0.0 0.0 0.0 0.0
8367 1 2 0.0 0.0 0.0 0.0
8368 1 2 0.0 0.0 0.0 0.0
8369 1 2 0.0 0.0 0.0 0.0
8370 1 2 0.0 0.0 0.0 0.0
8371 1 2 0.0 0.0 0.0 0.0
8372 1 2 0.0 0.0 0.0 0.0
8373 1 2 0.0 0.0 0.0 0.0
8374 1 2 0.0 0.0 0.0 0.0
8375 1 2 0.0 0.0 0.0 0.0
8376 1 2 0.0 0.0 0.0 0.0
8377 1 2 0.0 0.0 0.0 0.0
8378 1 2 0.0 0.0 0.0 0.0
8379 1 2 0.0 0.0 0.0 0.0
8380 1 2 0.0 0.0 0.0 0.0
8381 1 2 0.0 0.0 0.0 0.0
8382 1 2 0.0 0.0 0.0 0.0
8383 1 2 0.0 0.0 0.0 0.0
8384 1 2 0.0 0.0 0.0 0.0
8385 1 2 0.0 0.0 0.0 0.0
8386 1 2 0.0 0.0 0.0 0.0
8387 1 2 0.0 0.0 0.0 0.0
8388 1 2 0.0 0.0 0.0 0.0
8389 1 2 0.0 0.0 0.0 0.0
8390 1 2 0.0 0.0 0.0 0.0
8391 1 2 0.0 0.0 0.0 0.0
8392 1 2 0.0 0.0 0.0 0.0
8393 1 2 0.0 0.0 0.0 0.0
8394 1 2 0.0 0.0 0.0 0.0
8395 1 2 0.0 0.0 0.0 0.0
8396 1 2 0.0 0.0 0.0 0.0
8397 1 2 0.0 0.0 0.0 0.0
8398 1 2 0.0 0.0 0.0 0.0
8399 1 2 0.0 0.0 0.0 0.0
8400 1 2 0.0 0.0 0.0 0.0
8401 1 2 0.0 0.0 0.0 0.0
8402 1 2 0.0 0.0 0.0 0.0
8403 1 2 0.0 0.0 0.0 0.0
8404 1 2 0.0 0.0 0.0 0.0
8405 1 2 0.0 0.0 0.0 0.0
8406 1 2 0.0 0.0 0.0 0.0
8407 1 2 0.0 0.0 0.0 0.0
8408 1 2 0.0 0.0 0.0 0.0
8409 1 2 0.0 0.0 0.0 0.0
8410 1 2 0.0 0.0 0.0 0.0
8411 1 2 0.0 0.0 0.0 0.0
8412 1 2 0.0 0.0 0.0 0.0
8413 1 2 0.0 0.0 0.0 0.0
8414 1 2 0.0 0.0 0.0 0.0
8415 1 2 0.0 0.0 0.0 0.0
8416 1 2 0.0 0.0 0.0 0.0
8417 1 2 0.0 0.0 0.0 0.0
8418 1 2 0.0 0.0 0.0 0.0
8419 1 2 0.0 0.0 0.0 0.0
8420 1 2 0.0 0.0 0.0 0.0
8421 1 2 0.0 0.0 0.0 0.0
8422 1 2 0.0 0.0 0.0 0.0
8423 1 2 0.0 0.0 0.0 0.0
8424 1 2 0.0 0.0 0.0 0.0
8425 1 2 0.0 0.0 0.0 0.0
8426 1 2 0.0 0.0 0.0 0.0
8427 1 2 0.0 0.0 0.0 0.0
8428 1 2 0.0 0.0 0.0 0.0
8429 1 2 0.0 0.0 0.0 0.0
8430 1 2 0.0 0.0 0.0 0.0
8431 1 2 0.0 0.0 0.0 0.0
8432 1 2 0.0 0.0 0.0 0.0
8433 1 2 0.0 0.0 0.0 0.0
8434 1 2 0.0 0.0 0.0 0.0
8435 1 2 0.0 0.0 0.0 0.0
8436 1 2 0.0 0.0 0.0 0.0
8437 1 2 0.0 0.0 0.0 0.0
8438 1 2 0.0 0.0 0.0 0.0
8439 1 2 0.0 0.0 0.0 0.0
8440 1 2 0.0 0.0 0.0 0.0
8441 1 2 0.0 0.0 0.0 0.0
8442 1 2 0.0 0.0 0.0 0.0
8443 1 2 0.0 0.0 0.0 0.0
8444 1 2 0.0 0.0 0.0 0.0
8445 1 2 0.0 0.0 0.0 0.0
8446 1 2 0.0 0.0 0.0 0.0
8447 1 2 0.0 0.0 0.0 0.0
8448 1 2 0.0 0.0 0.0 0.0
8449 1 2 0.0 0.0 0.0 0.0
8450 1 2 0.0 0.0 0.0 0.0
8451 1 2 0.0 0.0 0.0 0.0
8452 1 2 0.0 0.0 0.0 0.0
8453 1 2 0.0 0.0 0.0 0.0
8454 1 2 0.0 0.0 0.0 0.0
8455 1 2 0.0 0.0 0.0 0.0
8456 1 2 0.0 0.0 0.0 0.0
8457 1 2 0.0 0.0 0.0 0.0
8458 1 2 0.0 0.0 0.0 0.0
8459 1 2 0.0 0.0 0.0 0.0
8460 1 2 0.0 0.0 0.0 0.0
8461 1 2 0.0 0.0 0.0 0.0
8462 1 2 0.0 0.0 0.0 0.0
8463 1 2 0.0 0.0 0.0 0.0
8464 1 2 0.0 0.0 0.0 0.0
8465 1 2 0.0 0.0 0.0 0.0
8466 1 2 0.0 0.0 0.0 0.0
8467 1 2 0.0 0.0 0.0 0.0
8468 1 2 0.0 0.0 0.0 0.0
8469 1 2 0.0 0.0 0.0 0.0
8470 1 2 0.0 0.0 0.0 0.0
8471 1 2 0.0 0.0 0.0 0.0
8472 1 2 0.0 0.0 0.0 0.0
8473 1 2 0.0 0.0 0.0 0.0
8474 1 2 0.0 0.0 0.0 0.0
8475 1 2 0.0 0.0 0.0 0.0
8476 1 2 0.0 0.0 0.0 0.0
8477 1 2 0.0 0.0 0.0 0.0
8478 1 2 0.0 0.0 0.0 0.0
8479 1 2 0.0 0.0 0.0 0.0
8480 1 2 0.0 0.0 0.0 0.0
8481 1 2 0.0 0.0 0.0 0.0
8482 1 2 0.0 0.0 0.0 0.0
8483 1 2 0.0 0.0 0.0 0.0
8484 1 2 0.0 0.0 0.0 0.0
8485 1 2 0.0 0.0 0.0 0.0
8486 1 2 0.0 0.0 0.0 0.0
8487 1 2 0.0 0.0 0.0 0.0
8488 1 2 0.0 0.0 0.0 0.0
8489 1 2 0.0 0.0 0.0 0.0
8490 1 2 0.0 0.0 0.0 0.0
8491 1 2 0.0 0.0 0.0 0.0
8492 1 2 0.0 0.0 0.0 0.0
8493 1 2 0.0 0.0 0.0 0.0
8494 1 2 0.0 0.0 0.0 0.0
8495 1 2 0.0 0.0 0.0 0.0
8496 1 2 0.0 0.0 0.0 0.0
8497 1 2 0.0 0.0 0.0 0.0
8498 1 2 0.0 0.0 0.0 0.0
8499 1 2 0.0 0.0 0.0 0.0
8500 1 2 0.0 0.0 0.0 0.0
8501 1 2 0.0 0.0 0.0 0.0
8502 1 2 0.0 0.0 0.0 0.0
8503 1 2 0.0 0.0 0.0 0.0
8504 1 2 0.0 0.0 0.0 0.0
8505 1 2 0.0 0.0 0.0 0.0
8506 1 2 0.0 0.0 0.0 0.0
8507 1 2 0.0 0.0 0.0 0.0
8508 1 2 0.0 0.0 0.0 0.0
8509 1 2 0.0 0.0 0.0 0.0
8510 1 2 0.0 0.0 0.0 0.0
8511 1 2 0.0 0.0 0.0 0.0
8512 1 2 0.0 0.0 0.0 0.0
8513 1 2 0.0 0.0 0.0 0.0
8514 1 2 0.0 0.0 0.0 0.0
8515 1 2 0.0 0.0 0.0 0.0
8516 1 2 0.0 0.0 0.0 0.0
8517 1 2 0.0 0.0 0.0 0.0
8518 1 2 0.0 0.0 0.0 0.0
8519 1 2 0.0 0.0 0.0 0.0
8520 1 2 0.0 0.0 0.0 0.0
8521 1 2 0.0 0.0 0.0 0.0
8522 1 2 0.0 0.0 0.0 0.0
8523 1 2 0.0 0.0 0.0 0.0
8524 1 2 0.0 0.0 0.0 0.0
8525 1 2 0.0 0.0 0.0 0.0
8526 1 2 0.0 0.0 0.0 0.0
8527 1 2 0.0 0.0 0.0 0.0
8528 1 2 0.0 0.0 0.0 0.0
8529 1 2 0.0 0.0 0.0 0.0
8530 1 2 0.0 0.0 0.0 0.0
8531 1 2 0.0 0.0 0.0 0.0
8532 1 2 0.0 0.0 0.0 0.0
8533 1 2 0.0 0.0 0.0 0.0
8534 1 2 0.0 0.0 0.0 0.0
8535 1 2 0.0 0.0 0.0 0.0
8536 1 2 0.0 0.0 0.0 0.0
8537 1 2 0.0 0.0 0.0 0.0
8538 1 2 0.0 0.0 0.0 0.0
8539 1 2 0.0 0.0 0.0 0.0
8540 1 2 0.0 0.0 0.0 0.0
8541 1 2 0.0 0.0 0.0 0.0
8542 1 2 0.0 0.0 0.0 0.0
8543 1 2 0.0 0.0 0.0 0.0
8544 1 2 0.0 0.0 0.0 0.0
8545 1 2 0.0 0.0 0.0 0.0
8546 1 2 0.0 0.0 0.0 0.0
8547 1 2 0.0 0.0 0.0 0.0
8548 1 2 0.0 0.0 0.0 0.0
8549 1 2 0.0 0.0 0.0 0.0
8550 1 2 0.0 0.0 0.0 0.0
8551 1 2 0.0 0.0 0.0 0.0
8552 1 2 0.0 0.0 0.0 0.0
8553 1 2 0.0 0.0 0.0 0.0
8554 1 2 0.0 0.0 0.0 0.0
8555 1 2 0.0 0.0 0.0 0.0
8556 1 2 0.0 0.0 0.0 0.0
8557 1 2 0.0 0.0 0.0 0.0
8558 1 2 0.0 0.0 0.0 0.0
8559 1 2 0.0 0.0 0.0 0.0
8560 1 2 0.0 0.0 0.0 0.0
8561 1 2 0.0 0.0 0.0 0.0
8562 1 2 0.0 0.0 0.0 0.0
8563 1 2 0.0 0.0 0.0 0.0
8564 1 2 0.0 0.0 0.0 0.0
8565 1 2 0.0 0.0 0.0 0.0
8566 1 2 0.0 0.0 0.0 0.0
8567 1 2 0.0 0.0 0.0 0.0
8568 1 2 0.0 0.0 0.0 0.0
8569 1 2 0.0 0.0 0.0 0.0
8570 1 2 0.0 0.0 0.0 0.0
8571 1 2 0.0 0.0 0.0 0.0
8572 1 2 0.0 0.0 0.0 0.0
8573 1 2 0.0 0.0 0.0 0.0
8574 1 2 0.0 0.0 0.0 0.0
8575 1 2 0.0 0.0 0.0 0.0
8576 1 2 0.0 0.0 0.0 0.0
8577 1 2 0.0 0.0 0.0 0.0
8578 1 2 0.0 0.0 0.0 0.0
8579 1 2 0.0 0.0 0.0 0.0
8580 1 2 0.0 0.0 0.0 0.0
8581 1 2 0.0 0.0 0.0 0.0
8582 1 2 0.0 0.0 0.0 0.0
8583 1 2 0.0 0.0 0.0 0.0
8584 1 2 0.0 0.0 0.0 0.0
8585 1 2 0.0 0.0 0.0 0.0
8586 1 2 0.0 0.0 0.0 0.0
8587 1 2 0.0 0.0 0.0 0.0
8588 1 2 0.0 0.0 0.0 0.0
8589 1 2 0.0 0.0 0.0 0.0
8590 1 2 0.0 0.0 0.0 0.0
8591 1 2 0.0 0.0 0.0 0.0
8592 1 2 0.0 0.0 0.0 0.0
8593 1 2 0.0 0.0 0.0 0.0
8594 1 2 0.0 0.0 0.0 0.0
8595 1 2 0.0 0.0 0.0 0.0
8596 1 2 0.0 0.0 0.0 0.0
8597 1 2 0.0 0.0 0.0 0.0
8598 1 2 0.0 0.0 0.0 0.0
8599 1 2 0.0 0.0 0.0 0.0
8600 1 2 0.0 0.0 0.0 0.0
8601 1 2 0.0 0.0 0.0 0.0
8602 1 2 0.0 0.0 0.0 0.0
8603 1 2 0.0 0.0 0.0 0.0
8604 1 2 0.0 0.0 0.0 0.0
8605 1 2 0.0 0.0 0.0 0.0
8606 1 2 0.0 0.0 0.0 0.0
8607 1 2 0.0 0.0 0.0 0.0
8608 1 2 0.0 0.0 0.0 0.0
8609 1 2 0.0 0.0 0.0 0.0
8610 1 2 0.0 0.0 0.0 0.0
8611 1 2 0.0 0.0 0.0 0.0
8612 1 2 0.0 0.0 0.0 0.0
8613 1 2 0.0 0.0 0.0 0.0
8614 1 2 0.0 0.0 0.0 0.0
8615 1 2 0.0 0.0 0.0 0.0
8616 1 2 0.0 0.0 0.0 0.0
8617 1 2 0.0 0.0 0.0 0.0
8618 1 2 0.0 0.0 0.0 0.0
8619 1 2 0.0 0.0 0.0 0.0
8620 1 2 0.0 0.0 0.0 0.0
8621 1 2 0.0 0.0 0.0 0.0
8622 1 2 0.0 0.0 0.0 0.0
8623 1 2 0.0 0.0 0.0 0.0
8624 1 2 0.0 0.0 0.0 0.0
8625 1 2 0.0 0.0 0.0 0.0
8626 1 2 0.0 0.0 0.0 0.0
8627 1 2 0.0 0.0 0.0 0.0
8628 1 2 0.0 0.0 0.0 0.0
8629 1 2 0.0 0.0 0.0 0.0
8630 1 2 0.0 0.0 0.0 0.0
8631 1 2 0.0 0.0 0.0 0.0
8632 1 2 0.0 0.0 0.0 0.0
8633 1 2 0.0 0.0 0.0 0.0
8634 1 2 0.0 0.0 0.0 0.0
8635 1 2 0.0 0.0 0.0 0.0
8636 1 2 0.0 0.0 0.0 0.0
8637 1 2 0.0 0.0 0.0 0.0
8638 1 2 0.0 0.0 0.0 0.0
8639 1 2 0.0 0.0 0.0 0.0
8640 1 2 0.0 0.0 0.0 0.0
8641 1 2 0.0 0.0 0.0 0.0
8642 1 2 0.0 0.0 0.0 0.0
8643 1 2 0.0 0.0 0.0 0.0
8644 1 2 0.0 0.0 0.0 0.0
8645 1 2 0.0 0.0 0.0 0.0
8646 1 2 0.0 0.0 0.0 0.0
8647 1 2 0.0 0.0 0.0 0.0
8648 1 2 0.0 0.0 0.0 0.0
8649 1 2 0.0 0.0 0.0 0.0
8650 1 2 0.0 0.0 0.0 0.0
8651 1 2 0.0 0.0 0.0 0.0
8652 1 2 0.0 0.0 0.0 0.0
8653 1 2 0.0 0.0 0.0 0.0
8654 1 2 0.0 0.0 0.0 0.0
8655 1 2 0.0 0.0 0.0 0.0
8656 1 2 0.0 0.0 0.0 0.0
8657 1 2 0.0 0.0 0.0 0.0
8658 1 2 0.0 0.0 0.0 0.0
8659 1 2 0.0 0.0 0.0 0.0
8660 1 2 0.0 0.0 0.0 0.0
8661 1 2 0.0 0.0 0.0 0.0
8662 1 2 0.0 0.0 0.0 0.0
8663 1 2 0.0 0.0 0.0 0.0
8664 1 2 0.0 0.0 0.0 0.0
8665 1 2 0.0 0.0 0.0 0.0
8666 1 2 0.0 0.0 0.0 0.0
8667 1 2 0.0 0.0 0.0 0.0
8668 1 2 0.0 0.0 0.0 0.0
8669 1 2 0.0 0.0 0.0 0.0
8670 1 2 0.0 0.0 0.0 0.0
8671 1 2 0.0 0.0 0.0 0.0
8672 1 2 0.0 0.0 0.0 0.0
8673 1 2 0.0 0.0 0.0 0.0
8674 1 2 0.0 0.0 0.0 0.0
8675 1 2 0.0 0.0 0.0 0.0
8676 1 2 0.0 0.0 0.0 0.0
8677 1 2 0.0 0.0 0.0 0.0
8678 1 2 0.0 0.0 0.0 0.0
8679 1 2 0.0 0.0 0.0 0.0
8680 1 2 0.0 0.0 0.0 0.0
8681 1 2 0.0 0.0 0.0 0.0
8682 1 2 0.0 0.0 0.0 0.0
8683 1 2 0.0 0.0 0.0 0.0
8684 1 2 0.0 0.0 0.0 0.0

Bonds

1 1 17 18
2 1 17 19
3 1 17 20
4 1 49 50
5 1 49 51
6 1 49 52
7 1 55 56
8 1 55 57
9 1 55 58
10 1 78 79
11 1 78 80
12 1 78 81
13 1 84 85
14 1 84 86
15 1 84 87
16 1 127 128
17 1 127 129
18 1 127 130
19 1 140 141
20 1 141 142
21 1 142 143
22 1 143 144
23 1 144 145
24 1 145 146
25 1 146 147
26 1 147 148
27 1 148 149
28 1 149 150
29 1 150 151
30 1 151 152
31 1 152 153
32 1 153 154
33 1 154 155
34 1 155 156
35 1 156 157
36 1 157 158
37 1 158 159
38 1 1 140
39 1 159 6
40 1 147 160
41 1 160 161
42 1 161 162
43 1 162 163
44 1 163 164
45 1 149 165
46 1 165 166
47 1 166 167
48 1 167 168
49 1 168 169
50 1 150 170
51 1 170 171
52 1 171 172
53 1 172 173
54 1 173 174
55 1 152 175
56 1 175 176
57 1 176 177
58 1 177 178
59 1 178 179
60 1 155 180
61 1 180 181
62 1 181 182
63 1 182 183
64 1 183 184
65 1 157 185
66 1 185 186
67 1 186 187
68 1 187 188
69 1 188 189
70 1 190 191
71 1 191 192
72 1 192 193
73 1 193 194
74 1 194 195
75 1 195 196
76 1 196 197
77 1 197 198
78 1 198 199
79 1 199 200
80 1 200 201
81 1 201 202
82 1 202 203
83 1 203 204
84 1 204 205
85 1 205 206
86 1 206 207
87 1 207 208
88 1 208 209
89 1 1 190
90 1 209 5
91 1 192 210
92 1 210 211
93 1 211 212
94 1 212 213
95 1 213 214
96 1 198 215
97 1 215 216
98 1 216 217
99 1 217 218
100 1 218 219
101 1 202 220
102 1 220 221
103 1 221 222
104 1 222 223
105 1 223 224
106 1 209 225
107 1 225 226
108 1 226 227
109 1 227 228
110 1 228 229
111 1 230 231
112 1 231 232
113 1 232 233
114 1 233 234
115 1 234 235
116 1 235 236
117 1 236 237
118 1 237 238
119 1 238 239
120 1 239 240
121 1 240 241
122 1 241 242
123 1 242 243
124 1 243 244
125 1 244 245
126 1 245 246
127 1 246 247
128 1 247 248
129 1 248 249
130 1 1 230
131 1 249 23
132 1 237 250
133 1 250 251
134 1 251 252
135 1 252 253
136 1 253 254
137 1 243 255
138 1 255 256
139 1 256 257
140 1 257 258
141 1 258 259
142 1 245 260
143 1 260 261
144 1 261 262
145 1 262 263
146 1 263 264
147 1 249 265
148 1 265 266
149 1 266 267
150 1 267 268
151 1 268 269
152 1 270 271
153 1 271 272
154 1 272 273
155 1 273 274
156 1 274 275
157 1 275 276
158 1 276 277
159 1 277 278
160 1 278 279
161 1 279 280
162 1 280 281
163 1 281 282
164 1 282 283
165 1 283 284
166 1 284 285
167 1 285 286
168 1 286 287
169 1 287 288
170 1 288 289
171 1 2 270
172 1 289 3
173 1 272 290
174 1 290 291
175 1 291 292
176 1 292 293
177 1 293 294
178 1 276 295
179 1 295 296
180 1 296 297
181 1 297 298
182 1 298 299
183 1 286 300
184 1 300 301
185 1 301 302
186 1 302 303
187 1 303 304
188 1 305 306
189 1 306 307
190 1 307 308
191 1 308 309
192 1 309 310
193 1 310 311
194 1 311 312
195 1 312 313
196 1 313 314
197 1 314 315
198 1 315 316
199 1 316 317
200 1 317 318
201 1 318 319
202 1 319 320
203 1 320 321
204 1 321 322
205 1 322 323
206 1 323 324
207 1 2 305
208 1 324 29
209 1 315 325
210 1 325 326
211 1 326 327
212 1 327 328
213 1 328 329
214 1 320 330
215 1 330 331
216 1 331 332
217 1 332 333
218 1 333 334
219 1 321 335
220 1 335 336
221 1 336 337
222 1 337 338
223 1 338 339
224 1 340 341
225 1 341 342
226 1 342 343
227 1 343 344
228 1 344 345
229 1 345 346
230 1 346 347
231 1 347 348
232 1 348 349
233 1 349 350
234 1 350 351
235 1 351 352
236 1 352 353
237 1 353 354
238 1 354 355
239 1 355 356
240 1 356 357
241 1 357 358
242 1 358 359
243 1 2 340
244 1 359 24
245 1 344 360
246 1 360 361
247 1 361 362
248 1 362 363
249 1 363 364
250 1 347 365
251 1 365 366
252 1 366 367
253 1 367 368
254 1 368 369
255 1 353 370
256 1 370 371
257 1 371 372
258 1 372 373
259 1 373 374
260 1 359 375
261 1 375 376
262 1 376 377
263 1 377 378
264 1 378 379
265 1 380 381
266 1 381 382
267 1 382 383
268 1 383 384
269 1 384 385
270 1 385 386
271 1 386 387
272 1 387 388
273 1 388 389
274 1 389 390
275 1 390 391
276 1 391 392
277 1 392 393
278 1 393 394
279 1 394 395
280 1 395 396
281 1 396 397
282 1 397 398
283 1 398 399
284 1 3 380
285 1 399 4
286 1 386 400
287 1 400 401
288 1 401 402
289 1 402 403
290 1 403 404
291 1 388 405
292 1 405 406
293 1 406 407
294 1 407 408
295 1 408 409
296 1 395 410
297 1 410 411
298 1 411 412
299 1 412 413
300 1 413 414
301 1 415 416
302 1 416 417
303 1 417 418
304 1 418 419
305 1 419 420
306 1 420 421
307 1 421 422
308 1 422 423
309 1 423 424
310 1 424 425
311 1 425 426
312 1 426 427
313 1 427 428
314 1 428 429
315 1 429 430
316 1 430 431
317 1 431 432
318 1 432 433
319 1 433 434
320 1 3 415
321 1 434 30
322 1 418 435
323 1 435 436
324 1 436 437
325 1 437 438
326 1 438 439
327 1 421 440
328 1 440 441
329 1 441 442
330 1 442 443
331 1 443 444
332 1 422 445
333 1 445 446
334 1 446 447
335 1 447 448
336 1 448 449
337 1 450 451
338 1 451 452
339 1 452 453
340 1 453 454
341 1 454 455
342 1 455 456
343 1 456 457
344 1 457 458
345 1 458 459
346 1 459 460
347 1 460 461
348 1 461 462
349 1 462 463
350 1 463 464
351 1 464 465
352 1 465 466
353 1 466 467
354 1 467 468
355 1 468 469
356 1 3 450
357 1 469 25
358 1 451 470
359 1 470 471
360 1 471 472
361 1 472 473
362 1 473 474
363 1 452 475
364 1 475 476
365 1 476 477
366 1 477 478
367 1 478 479
368 1 453 480
369 1 480 481
370 1 481 482
371 1 482 483
372 1 483 484
373 1 466 485
374 1 485 486
375 1 486 487
376 1 487 488
377 1 488 489
378 1 469 490
379 1 490 491
380 1 491 492
381 1 492 493
382 1 493 494
383 1 495 496
384 1 496 497
385 1 497 498
386 1 498 499
387 1 499 500
388 1 500 501
389 1 501 502
390 1 502 503
391 1 503 504
392 1 504 505
393 1 505 506
394 1 506 507
395 1 507 508
396 1 508 509
397 1 509 510
398 1 510 511
399 1 511 512
400 1 512 513
401 1 513 514
402 1 4 495
403 1 514 5
404 1 497 515
405 1 515 516
406 1 516 517
407 1 517 518
408 1 518 519
409 1 499 520
410 1 520 521
411 1 521 522
412 1 522 523
413 1 523 524
414 1 502 525
415 1 525 526
416 1 526 527
417 1 527 528
418 1 528 529
419 1 503 530
420 1 530 531
421 1 531 532
422 1 532 533
423 1 533 534
424 1 535 536
425 1 536 537
426 1 537 538
427 1 538 539
428 1 539 540
429 1 540 541
430 1 541 542
431 1 542 543
432 1 543 544
433 1 544 545
434 1 545 546
435 1 546 547
436 1 547 548
437 1 548 549
438 1 549 550
439 1 550 551
440 1 551 552
441 1 552 553
442 1 553 554
443 1 4 535
444 1 554 8
445 1 535 555
446 1 555 556
447 1 556 557
448 1 557 558
449 1 558 559
450 1 538 560
451 1 560 561
452 1 561 562
453 1 562 563
454 1 563 564
455 1 540 565
456 1 565 566
457 1 566 567
458 1 567 568
459 1 568 569
460 1 543 570
461 1 570 571
462 1 571 572
463 1 572 573
464 1 573 574
465 1 548 575
466 1 575 576
467 1 576 577
468 1 577 578
469 1 578 579
470 1 550 580
471 1 580 581
472 1 581 582
473 1 582 583
474 1 583 584
475 1 551 585
476 1 585 586
477 1 586 587
478 1 587 588
479 1 588 589
480 1 552 590
481 1 590 591
482 1 591 592
483 1 592 593
484 1 593 594
485 1 554 595
486 1 595 596
487 1 596 597
488 1 597 598
489 1 598 599
490 1 600 601
491 1 601 602
492 1 602 603
493 1 603 604
494 1 604 605
495 1 605 606
496 1 606 607
497 1 607 608
498 1 608 609
499 1 609 610
500 1 610 611
501 1 611 612
502 1 612 613
503 1 613 614
504 1 614 615
505 1 615 616
506 1 616 617
507 1 617 618
508 1 618 619
509 1 4 600
510 1 619 31
511 1 607 620
512 1 620 621
513 1 621 622
514 1 622 623
515 1 623 624
516 1 610 625
517 1 625 626
518 1 626 627
519 1 627 628
520 1 628 629
521 1 614 630
522 1 630 631
523 1 631 632
524 1 632 633
525 1 633 634
526 1 635 636
527 1 636 637
528 1 637 638
529 1 638 639
530 1 639 640
531 1 640 641
532 1 641 642
533 1 642 643
534 1 643 644
535 1 644 645
536 1 645 646
537 1 646 647
538 1 647 648
539 1 648 649
540 1 649 650
541 1 650 651
542 1 651 652
543 1 652 653
544 1 653 654
545 1 5 635
546 1 654 9
547 1 640 655
548 1 655 656
549 1 656 657
550 1 657 658
551 1 658 659
552 1 648 660
553 1 660 661
554 1 661 662
555 1 662 663
556 1 663 664
557 1 651 665
558 1 665 666
559 1 666 667
560 1 667 668
561 1 668 669
562 1 652 670
563 1 670 671
564 1 671 672
565 1 672 673
566 1 673 674
567 1 675 676
568 1 676 677
569 1 677 678
570 1 678 679
571 1 679 680
572 1 680 681
573 1 681 682
574 1 682 683
575 1 683 684
576 1 684 685
577 1 685 686
578 1 686 687
579 1 687 688
580 1 688 689
581 1 689 690
582 1 690 691
583 1 691 692
584 1 692 693
585 1 693 694
586 1 5 675
587 1 694 32
588 1 675 695
589 1 695 696
590 1 696 697
591 1 697 698
592 1 698 699
593 1 678 700
594 1 700 701
595 1 701 702
596 1 702 703
597 1 703 704
598 1 679 705
599 1 705 706
600 1 706 707
601 1 707 708
602 1 708 709
603 1 683 710
604 1 710 711
605 1 711 712
606 1 712 713
607 1 713 714
608 1 684 715
609 1 715 716
610 1 716 717
611 1 717 718
612 1 718 719
613 1 685 720
614 1 720 721
615 1 721 722
616 1 722 723
617 1 723 724
618 1 686 725
619 1 725 726
620 1 726 727
621 1 727 728
622 1 728 729
623 1 693 730
624 1 730 731
625 1 731 732
626 1 732 733
627 1 733 734
628 1 735 736
629 1 736 737
630 1 737 738
631 1 738 739
632 1 739 740
633 1 740 741
634 1 741 742
635 1 742 743
636 1 743 744
637 1 744 745
638 1 745 746
639 1 746 747
640 1 747 748
641 1 748 749
642 1 749 750
643 1 750 751
644 1 751 752
645 1 752 753
646 1 753 754
647 1 6 735
648 1 754 33
649 1 736 755
650 1 755 756
651 1 756 757
652 1 757 758
653 1 758 759
654 1 739 760
655 1 760 761
656 1 761 762
657 1 762 763
658 1 763 764
659 1 741 765
660 1 765 766
661 1 766 767
662 1 767 768
663 1 768 769
664 1 742 770
665 1 770 771
666 1 771 772
667 1 772 773
668 1 773 774
669 1 744 775
670 1 775 776
671 1 776 777
672 1 777 778
673 1 778 779
674 1 749 780
675 1 780 781
676 1 781 782
677 1 782 783
678 1 783 784
679 1 750 785
680 1 785 786
681 1 786 787
682 1 787 788
683 1 788 789
684 1 790 791
685 1 791 792
686 1 792 793
687 1 793 794
688 1 794 795
689 1 795 796
690 1 796 797
691 1 797 798
692 1 798 799
693 1 799 800
694 1 800 801
695 1 801 802
696 1 802 803
697 1 803 804
698 1 804 805
699 1 805 806
700 1 806 807
701 1 807 808
702 1 808 809
703 1 6 790
704 1 809 9
705 1 795 810
706 1 810 811
707 1 811 812
708 1 812 813
709 1 813 814
710 1 801 815
711 1 815 816
712 1 816 817
713 1 817 818
714 1 818 819
715 1 820 821
716 1 821 822
717 1 822 823
718 1 823 824
719 1 824 825
720 1 825 826
721 1 826 827
722 1 827 828
723 1 828 829
724 1 829 830
725 1 830 831
726 1 831 832
727 1 832 833
728 1 833 834
729 1 834 835
730 1 835 836
731 1 836 837
732 1 837 838
733 1 838 839
734 1 6 820
735 1 839 117
736 1 821 840
737 1 840 841
738 1 841 842
739 1 842 843
740 1 843 844
741 1 823 845
742 1 845 846
743 1 846 847
744 1 847 848
745 1 848 849
746 1 838 850
747 1 850 851
748 1 851 852
749 1 852 853
750 1 853 854
751 1 855 856
752 1 856 857
753 1 857 858
754 1 858 859
755 1 859 860
756 1 860 861
757 1 861 862
758 1 862 863
759 1 863 864
760 1 864 865
761 1 865 866
762 1 866 867
763 1 867 868
764 1 868 869
765 1 869 870
766 1 870 871
767 1 871 872
768 1 872 873
769 1 873 874
770 1 7 855
771 1 874 8
772 1 861 875
773 1 875 876
774 1 876 877
775 1 877 878
776 1 878 879
777 1 871 880
778 1 880 881
779 1 881 882
780 1 882 883
781 1 883 884
782 1 885 886
783 1 886 887
784 1 887 888
785 1 888 889
786 1 889 890
787 1 890 891
788 1 891 892
789 1 892 893
790 1 893 894
791 1 894 895
792 1 895 896
793 1 896 897
794 1 897 898
795 1 898 899
796 1 899 900
797 1 900 901
798 1 901 902
799 1 902 903
800 1 903 904
801 1 7 885
802 1 904 12
803 1 885 905
804 1 905 906
805 1 906 907
806 1 907 908
807 1 908 909
808 1 886 910
809 1 910 911
810 1 911 912
811 1 912 913
812 1 913 914
813 1 891 915
814 1 915 916
815 1 916 917
816 1 917 918
817 1 918 919
818 1 893 920
819 1 920 921
820 1 921 922
821 1 922 923
822 1 923 924
823 1 894 925
824 1 925 926
825 1 926 927
826 1 927 928
827 1 928 929
828 1 895 930
829 1 930 931
830 1 931 932
831 1 932 933
832 1 933 934
833 1 901 935
834 1 935 936
835 1 936 937
836 1 937 938
837 1 938 939
838 1 940 941
839 1 941 942
840 1 942 943
841 1 943 944
842 1 944 945
843 1 945 946
844 1 946 947
845 1 947 948
846 1 948 949
847 1 949 950
848 1 950 951
849 1 951 952
850 1 952 953
851 1 953 954
852 1 954 955
853 1 955 956
854 1 956 957
855 1 957 958
856 1 958 959
857 1 7 940
858 1 959 35
859 1 949 960
860 1 960 961
861 1 961 962
862 1 962 963
863 1 963 964
864 1 952 965
865 1 965 966
866 1 966 967
867 1 967 968
868 1 968 969
869 1 970 971
870 1 971 972
871 1 972 973
872 1 973 974
873 1 974 975
874 1 975 976
875 1 976 977
876 1 977 978
877 1 978 979
878 1 979 980
879 1 980 981
880 1 981 982
881 1 982 983
882 1 983 984
883 1 984 985
884 1 985 986
885 1 986 987
886 1 987 988
887 1 988 989
888 1 7 970
889 1 989 119
890 1 972 990
891 1 990 991
892 1 991 992
893 1 992 993
894 1 993 994
895 1 974 995
896 1 995 996
897 1 996 997
898 1 997 998
899 1 998 999
900 1 975 1000
901 1 1000 1001
902 1 1001 1002
903 1 1002 1003
904 1 1003 1004
905 1 976 1005
906 1 1005 1006
907 1 1006 1007
908 1 1007 1008
909 1 1008 1009
910 1 981 1010
911 1 1010 1011
912 1 1011 1012
913 1 1012 1013
914 1 1013 1014
915 1 982 1015
916 1 1015 1016
917 1 1016 1017
918 1 1017 1018
919 1 1018 1019
920 1 1020 1021
921 1 1021 1022
922 1 1022 1023
923 1 1023 1024
924 1 1024 1025
925 1 1025 1026
926 1 1026 1027
927 1 1027 1028
928 1 1028 1029
929 1 1029 1030
930 1 1030 1031
931 1 1031 1032
932 1 1032 1033
933 1 1033 1034
934 1 1034 1035
935 1 1035 1036
936 1 1036 1037
937 1 1037 1038
938 1 1038 1039
939 1 8 1020
940 1 1039 9
941 1 1021 1040
942 1 1040 1041
943 1 1041 1042
944 1 1042 1043
945 1 1043 1044
946 1 1023 1045
947 1 1045 1046
948 1 1046 1047
949 1 1047 1048
950 1 1048 1049
951 1 1024 1050
952 1 1050 1051
953 1 1051 1052
954 1 1052 1053
955 1 1053 1054
956 1 1025 1055
957 1 1055 1056
958 1 1056 1057
959 1 1057 1058
960 1 1058 1059
961 1 1030 1060
962 1 1060 1061
963 1 1061 1062
964 1 1062 1063
965 1 1063 1064
966 1 1039 1065
967 1 1065 1066
968 1 1066 1067
969 1 1067 1068
970 1 1068 1069
971 1 1070 1071
972 1 1071 1072
973 1 1072 1073
974 1 1073 1074
975 1 1074 1075
976 1 1075 1076
977 1 1076 1077
978 1 1077 1078
979 1 1078 1079
980 1 1079 1080
981 1 1080 1081
982 1 1081 1082
983 1 1082 1083
984 1 1083 1084
985 1 1084 1085
986 1 1085 1086
987 1 1086 1087
988 1 1087 1088
989 1 1088 1089
990 1 8 1070
991 1 1089 120
992 1 1071 1090
993 1 1090 1091
994 1 1091 1092
995 1 1092 1093
996 1 1093 1094
997 1 1074 1095
998 1 1095 1096
999 1 1096 1097
1000 1 1097 1098
1001 1 1098 1099
1002 1 1078 1100
1003 1 1100 1101
1004 1 1101 1102
1005 1 1102 1103
1006 1 1103 1104
1007 1 1081 1105
1008 1 1105 1106
1009 1 1106 1107
1010 1 1107 1108
1011 1 1108 1109
1012 1 1110 1111
1013 1 1111 1112
1014 1 1112 1113
1015 1 1113 1114
1016 1 1114 1115
1017 1 1115 1116
1018 1 1116 1117
1019 1 1117 1118
1020 1 1118 1119
1021 1 1119 1120
1022 1 1120 1121
1023 1 1121 1122
1024 1 1122 1123
1025 1 1123 1124
1026 1 1124 1125
1027 1 1125 1126
1028 1 1126 1127
1029 1 1127 1128
1030 1 1128 1129
1031 1 9 1110
1032 1 1129 37
1033 1 1117 1130
1034 1 1130 1131
1035 1 1131 1132
1036 1 1132 1133
1037 1 1133 1134
1038 1 1121 1135
1039 1 1135 1136
1040 1 1136 1137
1041 1 1137 1138
1042 1 1138 1139
1043 1 1122 1140
1044 1 1140 1141
1045 1 1141 1142
1046 1 1142 1143
1047 1 1143 1144
1048 1 1127 1145
1049 1 1145 1146
1050 1 1146 1147
1051 1 1147 1148
1052 1 1148 1149
1053 1 1150 1151
1054 1 1151 1152
1055 1 1152 1153
1056 1 1153 1154
1057 1 1154 1155
1058 1 1155 1156
1059 1 1156 1157
1060 1 1157 1158
1061 1 1158 1159
1062 1 1159 1160
1063 1 1160 1161
1064 1 1161 1162
1065 1 1162 1163
1066 1 1163 1164
1067 1 1164 1165
1068 1 1165 1166
1069 1 1166 1167
1070 1 1167 1168
1071 1 1168 1169
1072 1 10 1150
1073 1 1169 15
1074 1 1155 1170
1075 1 1170 1171
1076 1 1171 1172
1077 1 1172 1173
1078 1 1173 1174
1079 1 1159 1175
1080 1 1175 1176
1081 1 1176 1177
1082 1 1177 1178
1083 1 1178 1179
1084 1 1166 1180
1085 1 1180 1181
1086 1 1181 1182
1087 1 1182 1183
1088 1 1183 1184
1089 1 1185 1186
1090 1 1186 1187
1091 1 1187 1188
1092 1 1188 1189
1093 1 1189 1190
1094 1 1190 1191
1095 1 1191 1192
1096 1 1192 1193
1097 1 1193 1194
1098 1 1194 1195
1099 1 1195 1196
1100 1 1196 1197
1101 1 1197 1198
1102 1 1198 1199
1103 1 1199 1200
1104 1 1200 1201
1105 1 1201 1202
1106 1 1202 1203
1107 1 1203 1204
1108 1 10 1185
1109 1 1204 38
1110 1 1186 1205
1111 1 1205 1206
1112 1 1206 1207
1113 1 1207 1208
1114 1 1208 1209
1115 1 1187 1210
1116 1 1210 1211
1117 1 1211 1212
1118 1 1212 1213
1119 1 1213 1214
1120 1 1188 1215
1121 1 1215 1216
1122 1 1216 1217
1123 1 1217 1218
1124 1 1218 1219
1125 1 1190 1220
1126 1 1220 1221
1127 1 1221 1222
1128 1 1222 1223
1129 1 1223 1224
1130 1 1191 1225
1131 1 1225 1226
1132 1 1226 1227
1133 1 1227 1228
1134 1 1228 1229
1135 1 1193 1230
1136 1 1230 1231
1137 1 1231 1232
1138 1 1232 1233
1139 1 1233 1234
1140 1 1196 1235
1141 1 1235 1236
1142 1 1236 1237
1143 1 1237 1238
1144 1 1238 1239
1145 1 1197 1240
1146 1 1240 1241
1147 1 1241 1242
1148 1 1242 1243
1149 1 1243 1244
1150 1 1203 1245
1151 1 1245 1246
1152 1 1246 1247
1153 1 1247 1248
1154 1 1248 1249
1155 1 1250 1251
1156 1 1251 1252
1157 1 1252 1253
1158 1 1253 1254
1159 1 1254 1255
1160 1 1255 1256
1161 1 1256 1257
1162 1 1257 1258
1163 1 1258 1259
1164 1 1259 1260
1165 1 1260 1261
1166 1 1261 1262
1167 1 1262 1263
1168 1 1263 1264
1169 1 1264 1265
1170 1 1265 1266
1171 1 1266 1267
1172 1 1267 1268
1173 1 1268 1269
1174 1 10 1250
1175 1 1269 14
1176 1 1261 1270
1177 1 1270 1271
1178 1 1271 1272
1179 1 1272 1273
1180 1 1273 1274
1181 1 1275 1276
1182 1 1276 1277
1183 1 1277 1278
1184 1 1278 1279
1185 1 1279 1280
1186 1 1280 1281
1187 1 1281 1282
1188 1 1282 1283
1189 1 1283 1284
1190 1 1284 1285
1191 1 1285 1286
1192 1 1286 1287
1193 1 1287 1288
1194 1 1288 1289
1195 1 1289 1290
1196 1 1290 1291
1197 1 1291 1292
1198 1 1292 1293
1199 1 1293 1294
1200 1 11 1275
1201 1 1294 12
1202 1 1284 1295
1203 1 1295 1296
1204 1 1296 1297
1205 1 1297 1298
1206 1 1298 1299
1207 1 1285 1300
1208 1 1300 1301
1209 1 1301 1302
1210 1 1302 1303
1211 1 1303 1304
1212 1 1286 1305
1213 1 1305 1306
1214 1 1306 1307
1215 1 1307 1308
1216 1 1308 1309
1217 1 1293 1310
1218 1 1310 1311
1219 1 1311 1312
1220 1 1312 1313
1221 1 1313 1314
1222 1 1315 1316
1223 1 1316 1317
1224 1 1317 1318
1225 1 1318 1319
1226 1 1319 1320
1227 1 1320 1321
1228 1 1321 1322
1229 1 1322 1323
1230 1 1323 1324
1231 1 1324 1325
1232 1 1325 1326
1233 1 1326 1327
1234 1 1327 1328
1235 1 1328 1329
1236 1 1329 1330
1237 1 1330 1331
1238 1 1331 1332
1239 1 1332 1333
1240 1 1333 1334
1241 1 11 1315
1242 1 1334 16
1243 1 1324 1335
1244 1 1335 1336
1245 1 1336 1337
1246 1 1337 1338
1247 1 1338 1339
1248 1 1332 1340
1249 1 1340 1341
1250 1 1341 1342
1251 1 1342 1343
1252 1 1343 1344
1253 1 1333 1345
1254 1 1345 1346
1255 1 1346 1347
1256 1 1347 1348
1257 1 1348 1349
1258 1 1334 1350
1259 1 1350 1351
1260 1 1351 1352
1261 1 1352 1353
1262 1 1353 1354
1263 1 1355 1356
1264 1 1356 1357
1265 1 1357 1358
1266 1 1358 1359
1267 1 1359 1360
1268 1 1360 1361
1269 1 1361 1362
1270 1 1362 1363
1271 1 1363 1364
1272 1 1364 1365
1273 1 1365 1366
1274 1 1366 1367
1275 1 1367 1368
1276 1 1368 1369
1277 1 1369 1370
1278 1 1370 1371
1279 1 1371 1372
1280 1 1372 1373
1281 1 1373 1374
1282 1 11 1355
1283 1 1374 39
1284 1 1355 1375
1285 1 1375 1376
1286 1 1376 1377
1287 1 1377 1378
1288 1 1378 1379
1289 1 1357 1380
1290 1 1380 1381
1291 1 1381 1382
1292 1 1382 1383
1293 1 1383 1384
1294 1 1362 1385
1295 1 1385 1386
1296 1 1386 1387
1297 1 1387 1388
1298 1 1388 1389
1299 1 1366 1390
1300 1 1390 1391
1301 1 1391 1392
1302 1 1392 1393
1303 1 1393 1394
1304 1 1395 1396
1305 1 1396 1397
1306 1 1397 1398
1307 1 1398 1399
1308 1 1399 1400
1309 1 1400 1401
1310 1 1401 1402
1311 1 1402 1403
1312 1 1403 1404
1313 1 1404 1405
1314 1 1405 1406
1315 1 1406 1407
1316 1 1407 1408
1317 1 1408 1409
1318 1 1409 1410
1319 1 1410 1411
1320 1 1411 1412
1321 1 1412 1413
1322 1 1413 1414
1323 1 12 1395
1324 1 1414 40
1325 1 1396 1415
1326 1 1415 1416
1327 1 1416 1417
1328 1 1417 1418
1329 1 1418 1419
1330 1 1397 1420
1331 1 1420 1421
1332 1 1421 1422
1333 1 1422 1423
1334 1 1423 1424
1335 1 1401 1425
1336 1 1425 1426
1337 1 1426 1427
1338 1 1427 1428
1339 1 1428 1429
1340 1 1403 1430
1341 1 1430 1431
1342 1 1431 1432
1343 1 1432 1433
1344 1 1433 1434
1345 1 1406 1435
1346 1 1435 1436
1347 1 1436 1437
1348 1 1437 1438
1349 1 1438 1439
1350 1 1409 1440
1351 1 1440 1441
1352 1 1441 1442
1353 1 1442 1443
1354 1 1443 1444
1355 1 1413 1445
1356 1 1445 1446
1357 1 1446 1447
1358 1 1447 1448
1359 1 1448 1449
1360 1 1450 1451
1361 1 1451 1452
1362 1 1452 1453
1363 1 1453 1454
1364 1 1454 1455
1365 1 1455 1456
1366 1 1456 1457
1367 1 1457 1458
1368 1 1458 1459
1369 1 1459 1460
1370 1 1460 1461
1371 1 1461 1462
1372 1 1462 1463
1373 1 1463 1464
1374 1 1464 1465
1375 1 1465 1466
1376 1 1466 1467
1377 1 1467 1468
1378 1 1468 1469
1379 1 12 1450
1380 1 1469 124
1381 1 1455 1470
1382 1 1470 1471
1383 1 1471 1472
1384 1 1472 1473
1385 1 1473 1474
1386 1 1457 1475
1387 1 1475 1476
1388 1 1476 1477
1389 1 1477 1478
1390 1 1478 1479
1391 1 1459 1480
1392 1 1480 1481
1393 1 1481 1482
1394 1 1482 1483
1395 1 1483 1484
1396 1 1466 1485
1397 1 1485 1486
1398 1 1486 1487
1399 1 1487 1488
1400 1 1488 1489
1401 1 1490 1491
1402 1 1491 1492
1403 1 1492 1493
1404 1 1493 1494
1405 1 1494 1495
1406 1 1495 1496
1407 1 1496 1497
1408 1 1497 1498
1409 1 1498 1499
1410 1 1499 1500
1411 1 1500 1501
1412 1 1501 1502
1413 1 1502 1503
1414 1 1503 1504
1415 1 1504 1505
1416 1 1505 1506
1417 1 1506 1507
1418 1 1507 1508
1419 1 1508 1509
1420 1 13 1490
1421 1 1509 14
1422 1 1493 1510
1423 1 1510 1511
1424 1 1511 1512
1425 1 1512 1513
1426 1 1513 1514
1427 1 1496 1515
1428 1 1515 1516
1429 1 1516 1517
1430 1 1517 1518
1431 1 1518 1519
1432 1 1497 1520
1433 1 1520 1521
1434 1 1521 1522
1435 1 1522 1523
1436 1 1523 1524
1437 1 1498 1525
1438 1 1525 1526
1439 1 1526 1527
1440 1 1527 1528
1441 1 1528 1529
1442 1 1500 1530
1443 1 1530 1531
1444 1 1531 1532
1445 1 1532 1533
1446 1 1533 1534
1447 1 1501 1535
1448 1 1535 1536
1449 1 1536 1537
1450 1 1537 1538
1451 1 1538 1539
1452 1 1505 1540
1453 1 1540 1541
1454 1 1541 1542
1455 1 1542 1543
1456 1 1543 1544
1457 1 1545 1546
1458 1 1546 1547
1459 1 1547 1548
1460 1 1548 1549
1461 1 1549 1550
1462 1 1550 1551
1463 1 1551 1552
1464 1 1552 1553
1465 1 1553 1554
1466 1 1554 1555
1467 1 1555 1556
1468 1 1556 1557
1469 1 1557 1558
1470 1 1558 1559
1471 1 1559 1560
1472 1 1560 1561
1473 1 1561 1562
1474 1 1562 1563
1475 1 1563 1564
1476 1 13 1545
1477 1 1564 21
1478 1 1549 1565
1479 1 1565 1566
1480 1 1566 1567
1481 1 1567 1568
1482 1 1568 1569
1483 1 1550 1570
1484 1 1570 1571
1485 1 1571 1572
1486 1 1572 1573
1487 1 1573 1574
1488 1 1559 1575
1489 1 1575 1576
1490 1 1576 1577
1491 1 1577 1578
1492 1 1578 1579
1493 1 1564 1580
1494 1 1580 1581
1495 1 1581 1582
1496 1 1582 1583
1497 1 1583 1584
1498 1 1585 1586
1499 1 1586 1587
1500 1 1587 1588
1501 1 1588 1589
1502 1 1589 1590
1503 1 1590 1591
1504 1 1591 1592
1505 1 1592 1593
1506 1 1593 1594
1507 1 1594 1595
1508 1 1595 1596
1509 1 1596 1597
1510 1 1597 1598
1511 1 1598 1599
1512 1 1599 1600
1513 1 1600 1601
1514 1 1601 1602
1515 1 1602 1603
1516 1 1603 1604
1517 1 13 1585
1518 1 1604 125
1519 1 1585 1605
1520 1 1605 1606
1521 1 1606 1607
1522 1 1607 1608
1523 1 1608 1609
1524 1 1595 1610
1525 1 1610 1611
1526 1 1611 1612
1527 1 1612 1613
1528 1 1613 1614
1529 1 1596 1615
1530 1 1615 1616
1531 1 1616 1617
1532 1 1617 1618
1533 1 1618 1619
1534 1 1600 1620
1535 1 1620 1621
1536 1 1621 1622
1537 1 1622 1623
1538 1 1623 1624
1539 1 1625 1626
1540 1 1626 1627
1541 1 1627 1628
1542 1 1628 1629
1543 1 1629 1630
1544 1 1630 1631
1545 1 1631 1632
1546 1 1632 1633
1547 1 1633 1634
1548 1 1634 1635
1549 1 1635 1636
1550 1 1636 1637
1551 1 1637 1638
1552 1 1638 1639
1553 1 1639 1640
1554 1 1640 1641
1555 1 1641 1642
1556 1 1642 1643
1557 1 1643 1644
1558 1 14 1625
1559 1 1644 22
1560 1 1631 1645
1561 1 1645 1646
1562 1 1646 1647
1563 1 1647 1648
1564 1 1648 1649
1565 1 1636 1650
1566 1 1650 1651
1567 1 1651 1652
1568 1 1652 1653
1569 1 1653 1654
1570 1 1655 1656
1571 1 1656 1657
1572 1 1657 1658
1573 1 1658 1659
1574 1 1659 1660
1575 1 1660 1661
1576 1 1661 1662
1577 1 1662 1663
1578 1 1663 1664
1579 1 1664 1665
1580 1 1665 1666
1581 1 1666 1667
1582 1 1667 1668
1583 1 1668 1669
1584 1 1669 1670
1585 1 1670 1671
1586 1 1671 1672
1587 1 1672 1673
1588 1 1673 1674
1589 1 15 1655
1590 1 1674 23
1591 1 1661 1675
1592 1 1675 1676
1593 1 1676 1677
1594 1 1677 1678
1595 1 1678 1679
1596 1 1662 1680
1597 1 1680 1681
1598 1 1681 1682
1599 1 1682 1683
1600 1 1683 1684
1601 1 1663 1685
1602 1 1685 1686
1603 1 1686 1687
1604 1 1687 1688
1605 1 1688 1689
1606 1 1669 1690
1607 1 1690 1691
1608 1 1691 1692
1609 1 1692 1693
1610 1 1693 1694
1611 1 1671 1695
1612 1 1695 1696
1613 1 1696 1697
1614 1 1697 1698
1615 1 1698 1699
1616 1 1673 1700
1617 1 1700 1701
1618 1 1701 1702
1619 1 1702 1703
1620 1 1703 1704
1621 1 1674 1705
1622 1 1705 1706
1623 1 1706 1707
1624 1 1707 1708
1625 1 1708 1709
1626 1 1710 1711
1627 1 1711 1712
1628 1 1712 1713
1629 1 1713 1714
1630 1 1714 1715
1631 1 1715 1716
1632 1 1716 1717
1633 1 1717 1718
1634 1 1718 1719
1635 1 1719 1720
1636 1 1720 1721
1637 1 1721 1722
1638 1 1722 1723
1639 1 1723 1724
1640 1 1724 1725
1641 1 1725 1726
1642 1 1726 1727
1643 1 1727 1728
1644 1 1728 1729
1645 1 15 1710
1646 1 1729 43
1647 1 1716 1730
1648 1 1730 1731
1649 1 1731 1732
1650 1 1732 1733
1651 1 1733 1734
1652 1 1720 1735
1653 1 1735 1736
1654 1 1736 1737
1655 1 1737 1738
1656 1 1738 1739
1657 1 1725 1740
1658 1 1740 1741
1659 1 1741 1742
1660 1 1742 1743
1661 1 1743 1744
1662 1 1729 1745
1663 1 1745 1746
1664 1 1746 1747
1665 1 1747 1748
1666 1 1748 1749
1667 1 1750 1751
1668 1 1751 1752
1669 1 1752 1753
1670 1 1753 1754
1671 1 1754 1755
1672 1 1755 1756
1673 1 1756 1757
1674 1 1757 1758
1675 1 1758 1759
1676 1 1759 1760
1677 1 1760 1761
1678 1 1761 1762
1679 1 1762 1763
1680 1 1763 1764
1681 1 1764 1765
1682 1 1765 1766
1683 1 1766 1767
1684 1 1767 1768
1685 1 1768 1769
1686 1 15 1750
1687 1 1769 22
1688 1 1755 1770
1689 1 1770 1771
1690 1 1771 1772
1691 1 1772 1773
1692 1 1773 1774
1693 1 1756 1775
1694 1 1775 1776
1695 1 1776 1777
1696 1 1777 1778
1697 1 1778 1779
1698 1 1757 1780
1699 1 1780 1781
1700 1 1781 1782
1701 1 1782 1783
1702 1 1783 1784
1703 1 1763 1785
1704 1 1785 1786
1705 1 1786 1787
1706 1 1787 1788
1707 1 1788 1789
1708 1 1790 1791
1709 1 1791 1792
1710 1 1792 1793
1711 1 1793 1794
1712 1 1794 1795
1713 1 1795 1796
1714 1 1796 1797
1715 1 1797 1798
1716 1 1798 1799
1717 1 1799 1800
1718 1 1800 1801
1719 1 1801 1802
1720 1 1802 1803
1721 1 1803 1804
1722 1 1804 1805
1723 1 1805 1806
1724 1 1806 1807
1725 1 1807 1808
1726 1 1808 1809
1727 1 16 1790
1728 1 1809 24
1729 1 1790 1810
1730 1 1810 1811
1731 1 1811 1812
1732 1 1812 1813
1733 1 1813 1814
1734 1 1791 1815
1735 1 1815 1816
1736 1 1816 1817
1737 1 1817 1818
1738 1 1818 1819
1739 1 1800 1820
1740 1 1820 1821
1741 1 1821 1822
1742 1 1822 1823
1743 1 1823 1824
1744 1 1825 1826
1745 1 1826 1827
1746 1 1827 1828
1747 1 1828 1829
1748 1 1829 1830
1749 1 1830 1831
1750 1 1831 1832
1751 1 1832 1833
1752 1 1833 1834
1753 1 1834 1835
1754 1 1835 1836
1755 1 1836 1837
1756 1 1837 1838
1757 1 1838 1839
1758 1 1839 1840
1759 1 1840 1841
1760 1 1841 1842
1761 1 1842 1843
1762 1 1843 1844
1763 1 16 1825
1764 1 1844 131
1765 1 1825 1845
1766 1 1845 1846
1767 1 1846 1847
1768 1 1847 1848
1769 1 1848 1849
1770 1 1830 1850
1771 1 1850 1851
1772 1 1851 1852
1773 1 1852 1853
1774 1 1853 1854
1775 1 1834 1855
1776 1 1855 1856
1777 1 1856 1857
1778 1 1857 1858
1779 1 1858 1859
1780 1 1838 1860
1781 1 1860 1861
1782 1 1861 1862
1783 1 1862 1863
1784 1 1863 1864
1785 1 1843 1865
1786 1 1865 1866
1787 1 1866 1867
1788 1 1867 1868
1789 1 1868 1869
1790 1 1870 1871
1791 1 1871 1872
1792 1 1872 1873
1793 1 1873 1874
1794 1 1874 1875
1795 1 1875 1876
1796 1 1876 1877
1797 1 1877 1878
1798 1 1878 1879
1799 1 1879 1880
1800 1 1880 1881
1801 1 1881 1882
1802 1 1882 1883
1803 1 1883 1884
1804 1 1884 1885
1805 1 1885 1886
1806 1 1886 1887
1807 1 1887 1888
1808 1 1888 1889
1809 1 17 1870
1810 1 1889 44
1811 1 1870 1890
1812 1 1890 1891
1813 1 1891 1892
1814 1 1892 1893
1815 1 1893 1894
1816 1 1884 1895
1817 1 1895 1896
1818 1 1896 1897
1819 1 1897 1898
1820 1 1898 1899
1821 1 1888 1900
1822 1 1900 1901
1823 1 1901 1902
1824 1 1902 1903
1825 1 1903 1904
1826 1 1905 1906
1827 1 1906 1907
1828 1 1907 1908
1829 1 1908 1909
1830 1 1909 1910
1831 1 1910 1911
1832 1 1911 1912
1833 1 1912 1913
1834 1 1913 1914
1835 1 1914 1915
1836 1 1915 1916
1837 1 1916 1917
1838 1 1917 1918
1839 1 1918 1919
1840 1 1919 1920
1841 1 1920 1921
1842 1 1921 1922
1843 1 1922 1923
1844 1 1923 1924
1845 1 21 1905
1846 1 1924 26
1847 1 1917 1925
1848 1 1925 1926
1849 1 1926 1927
1850 1 1927 1928
1851 1 1928 1929
1852 1 1921 1930
1853 1 1930 1931
1854 1 1931 1932
1855 1 1932 1933
1856 1 1933 1934
1857 1 1935 1936
1858 1 1936 1937
1859 1 1937 1938
1860 1 1938 1939
1861 1 1939 1940
1862 1 1940 1941
1863 1 1941 1942
1864 1 1942 1943
1865 1 1943 1944
1866 1 1944 1945
1867 1 1945 1946
1868 1 1946 1947
1869 1 1947 1948
1870 1 1948 1949
1871 1 1949 1950
1872 1 1950 1951
1873 1 1951 1952
1874 1 1952 1953
1875 1 1953 1954
1876 1 21 1935
1877 1 1954 133
1878 1 1939 1955
1879 1 1955 1956
1880 1 1956 1957
1881 1 1957 1958
1882 1 1958 1959
1883 1 1942 1960
1884 1 1960 1961
1885 1 1961 1962
1886 1 1962 1963
1887 1 1963 1964
1888 1 1943 1965
1889 1 1965 1966
1890 1 1966 1967
1891 1 1967 1968
1892 1 1968 1969
1893 1 1944 1970
1894 1 1970 1971
1895 1 1971 1972
1896 1 1972 1973
1897 1 1973 1974
1898 1 1946 1975
1899 1 1975 1976
1900 1 1976 1977
1901 1 1977 1978
1902 1 1978 1979
1903 1 1948 1980
1904 1 1980 1981
1905 1 1981 1982
1906 1 1982 1983
1907 1 1983 1984
1908 1 1951 1985
1909 1 1985 1986
1910 1 1986 1987
1911 1 1987 1988
1912 1 1988 1989
1913 1 1990 1991
1914 1 1991 1992
1915 1 1992 1993
1916 1 1993 1994
1917 1 1994 1995
1918 1 1995 1996
1919 1 1996 1997
1920 1 1997 1998
1921 1 1998 1999
1922 1 1999 2000
1923 1 2000 2001
1924 1 2001 2002
1925 1 2002 2003
1926 1 2003 2004
1927 1 2004 2005
1928 1 2005 2006
1929 1 2006 2007
1930 1 2007 2008
1931 1 2008 2009
1932 1 22 1990
1933 1 2009 27
1934 1 1991 2010
1935 1 2010 2011
1936 1 2011 2012
1937 1 2012 2013
1938 1 2013 2014
1939 1 2003 2015
1940 1 2015 2016
1941 1 2016 2017
1942 1 2017 2018
1943 1 2018 2019
1944 1 2020 2021
1945 1 2021 2022
1946 1 2022 2023
1947 1 2023 2024
1948 1 2024 2025
1949 1 2025 2026
1950 1 2026 2027
1951 1 2027 2028
1952 1 2028 2029
1953 1 2029 2030
1954 1 2030 2031
1955 1 2031 2032
1956 1 2032 2033
1957 1 2033 2034
1958 1 2034 2035
1959 1 2035 2036
1960 1 2036 2037
1961 1 2037 2038
1962 1 2038 2039
1963 1 22 2020
1964 1 2039 134
1965 1 2020 2040
1966 1 2040 2041
1967 1 2041 2042
1968 1 2042 2043
1969 1 2043 2044
1970 1 2021 2045
1971 1 2045 2046
1972 1 2046 2047
1973 1 2047 2048
1974 1 2048 2049
1975 1 2027 2050
1976 1 2050 2051
1977 1 2051 2052
1978 1 2052 2053
1979 1 2053 2054
1980 1 2055 2056
1981 1 2056 2057
1982 1 2057 2058
1983 1 2058 2059
1984 1 2059 2060
1985 1 2060 2061
1986 1 2061 2062
1987 1 2062 2063
1988 1 2063 2064
1989 1 2064 2065
1990 1 2065 2066
1991 1 2066 2067
1992 1 2067 2068
1993 1 2068 2069
1994 1 2069 2070
1995 1 2070 2071
1996 1 2071 2072
1997 1 2072 2073
1998 1 2073 2074
1999 1 23 2055
2000 1 2074 24
2001 1 2056 2075
2002 1 2075 2076
2003 1 2076 2077
2004 1 2077 2078
2005 1 2078 2079
2006 1 2060 2080
2007 1 2080 2081
2008 1 2081 2082
2009 1 2082 2083
2010 1 2083 2084
2011 1 2069 2085
2012 1 2085 2086
2013 1 2086 2087
2014 1 2087 2088
2015 1 2088 2089
2016 1 2072 2090
2017 1 2090 2091
2018 1 2091 2092
2019 1 2092 2093
2020 1 2093 2094
2021 1 2073 2095
2022 1 2095 2096
2023 1 2096 2097
2024 1 2097 2098
2025 1 2098 2099
2026 1 2074 2100
2027 1 2100 2101
2028 1 2101 2102
2029 1 2102 2103
2030 1 2103 2104
2031 1 2105 2106
2032 1 2106 2107
2033 1 2107 2108
2034 1 2108 2109
2035 1 2109 2110
2036 1 2110 2111
2037 1 2111 2112
2038 1 2112 2113
2039 1 2113 2114
2040 1 2114 2115
2041 1 2115 2116
2042 1 2116 2117
2043 1 2117 2118
2044 1 2118 2119
2045 1 2119 2120
2046 1 2120 2121
2047 1 2121 2122
2048 1 2122 2123
2049 1 2123 2124
2050 1 23 2105
2051 1 2124 27
2052 1 2106 2125
2053 1 2125 2126
2054 1 2126 2127
2055 1 2127 2128
2056 1 2128 2129
2057 1 2109 2130
2058 1 2130 2131
2059 1 2131 2132
2060 1 2132 2133
2061 1 2133 2134
2062 1 2113 2135
2063 1 2135 2136
2064 1 2136 2137
2065 1 2137 2138
2066 1 2138 2139
2067 1 2119 2140
2068 1 2140 2141
2069 1 2141 2142
2070 1 2142 2143
2071 1 2143 2144
2072 1 2145 2146
2073 1 2146 2147
2074 1 2147 2148
2075 1 2148 2149
2076 1 2149 2150
2077 1 2150 2151
2078 1 2151 2152
2079 1 2152 2153
2080 1 2153 2154
2081 1 2154 2155
2082 1 2155 2156
2083 1 2156 2157
2084 1 2157 2158
2085 1 2158 2159
2086 1 2159 2160
2087 1 2160 2161
2088 1 2161 2162
2089 1 2162 2163
2090 1 2163 2164
2091 1 24 2145
2092 1 2164 48
2093 1 2145 2165
2094 1 2165 2166
2095 1 2166 2167
2096 1 2167 2168
2097 1 2168 2169
2098 1 2164 2170
2099 1 2170 2171
2100 1 2171 2172
2101 1 2172 2173
2102 1 2173 2174
2103 1 2175 2176
2104 1 2176 2177
2105 1 2177 2178
2106 1 2178 2179
2107 1 2179 2180
2108 1 2180 2181
2109 1 2181 2182
2110 1 2182 2183
2111 1 2183 2184
2112 1 2184 2185
2113 1 2185 2186
2114 1 2186 2187
2115 1 2187 2188
2116 1 2188 2189
2117 1 2189 2190
2118 1 2190 2191
2119 1 2191 2192
2120 1 2192 2193
2121 1 2193 2194
2122 1 25 2175
2123 1 2194 26
2124 1 2175 2195
2125 1 2195 2196
2126 1 2196 2197
2127 1 2197 2198
2128 1 2198 2199
2129 1 2180 2200
2130 1 2200 2201
2131 1 2201 2202
2132 1 2202 2203
2133 1 2203 2204
2134 1 2183 2205
2135 1 2205 2206
2136 1 2206 2207
2137 1 2207 2208
2138 1 2208 2209
2139 1 2210 2211
2140 1 2211 2212
2141 1 2212 2213
2142 1 2213 2214
2143 1 2214 2215
2144 1 2215 2216
2145 1 2216 2217
2146 1 2217 2218
2147 1 2218 2219
2148 1 2219 2220
2149 1 2220 2221
2150 1 2221 2222
2151 1 2222 2223
2152 1 2223 2224
2153 1 2224 2225
2154 1 2225 2226
2155 1 2226 2227
2156 1 2227 2228
2157 1 2228 2229
2158 1 25 2210
2159 1 2229 49
2160 1 2212 2230
2161 1 2230 2231
2162 1 2231 2232
2163 1 2232 2233
2164 1 2233 2234
2165 1 2213 2235
2166 1 2235 2236
2167 1 2236 2237
2168 1 2237 2238
2169 1 2238 2239
2170 1 2217 2240
2171 1 2240 2241
2172 1 2241 2242
2173 1 2242 2243
2174 1 2243 2244
2175 1 2218 2245
2176 1 2245 2246
2177 1 2246 2247
2178 1 2247 2248
2179 1 2248 2249
2180 1 2219 2250
2181 1 2250 2251
2182 1 2251 2252
2183 1 2252 2253
2184 1 2253 2254
2185 1 2225 2255
2186 1 2255 2256
2187 1 2256 2257
2188 1 2257 2258
2189 1 2258 2259
2190 1 2226 2260
2191 1 2260 2261
2192 1 2261 2262
2193 1 2262 2263
2194 1 2263 2264
2195 1 2265 2266
2196 1 2266 2267
2197 1 2267 2268
2198 1 2268 2269
2199 1 2269 2270
2200 1 2270 2271
2201 1 2271 2272
2202 1 2272 2273
2203 1 2273 2274
2204 1 2274 2275
2205 1 2275 2276
2206 1 2276 2277
2207 1 2277 2278
2208 1 2278 2279
2209 1 2279 2280
2210 1 2280 2281
2211 1 2281 2282
2212 1 2282 2283
2213 1 2283 2284
2214 1 26 2265
2215 1 2284 27
2216 1 2266 2285
2217 1 2285 2286
2218 1 2286 2287
2219 1 2287 2288
2220 1 2288 2289
2221 1 2272 2290
2222 1 2290 2291
2223 1 2291 2292
2224 1 2292 2293
2225 1 2293 2294
2226 1 2295 2296
2227 1 2296 2297
2228 1 2297 2298
2229 1 2298 2299
2230 1 2299 2300
2231 1 2300 2301
2232 1 2301 2302
2233 1 2302 2303
2234 1 2303 2304
2235 1 2304 2305
2236 1 2305 2306
2237 1 2306 2307
2238 1 2307 2308
2239 1 2308 2309
2240 1 2309 2310
2241 1 2310 2311
2242 1 2311 2312
2243 1 2312 2313
2244 1 2313 2314
2245 1 26 2295
2246 1 2314 53
2247 1 2295 2315
2248 1 2315 2316
2249 1 2316 2317
2250 1 2317 2318
2251 1 2318 2319
2252 1 2302 2320
2253 1 2320 2321
2254 1 2321 2322
2255 1 2322 2323
2256 1 2323 2324
2257 1 2305 2325
2258 1 2325 2326
2259 1 2326 2327
2260 1 2327 2328
2261 1 2328 2329
2262 1 2330 2331
2263 1 2331 2332
2264 1 2332 2333
2265 1 2333 2334
2266 1 2334 2335
2267 1 2335 2336
2268 1 2336 2337
2269 1 2337 2338
2270 1 2338 2339
2271 1 2339 2340
2272 1 2340 2341
2273 1 2341 2342
2274 1 2342 2343
2275 1 2343 2344
2276 1 2344 2345
2277 1 2345 2346
2278 1 2346 2347
2279 1 2347 2348
2280 1 2348 2349
2281 1 27 2330
2282 1 2349 139
2283 1 2337 2350
2284 1 2350 2351
2285 1 2351 2352
2286 1 2352 2353
2287 1 2353 2354
2288 1 2345 2355
2289 1 2355 2356
2290 1 2356 2357
2291 1 2357 2358
2292 1 2358 2359
2293 1 2348 2360
2294 1 2360 2361
2295 1 2361 2362
2296 1 2362 2363
2297 1 2363 2364
2298 1 2365 2366
2299 1 2366 2367
2300 1 2367 2368
2301 1 2368 2369
2302 1 2369 2370
2303 1 2370 2371
2304 1 2371 2372
2305 1 2372 2373
2306 1 2373 2374
2307 1 2374 2375
2308 1 2375 2376
2309 1 2376 2377
2310 1 2377 2378
2311 1 2378 2379
2312 1 2379 2380
2313 1 2380 2381
2314 1 2381 2382
2315 1 2382 2383
2316 1 2383 2384
2317 1 28 2365
2318 1 2384 55
2319 1 2372 2385
2320 1 2385 2386
2321 1 2386 2387
2322 1 2387 2388
2323 1 2388 2389
2324 1 2373 2390
2325 1 2390 2391
2326 1 2391 2392
2327 1 2392 2393
2328 1 2393 2394
2329 1 2376 2395
2330 1 2395 2396
2331 1 2396 2397
2332 1 2397 2398
2333 1 2398 2399
2334 1 2379 2400
2335 1 2400 2401
2336 1 2401 2402
2337 1 2402 2403
2338 1 2403 2404
2339 1 2384 2405
2340 1 2405 2406
2341 1 2406 2407
2342 1 2407 2408
2343 1 2408 2409
2344 1 2410 2411
2345 1 2411 2412
2346 1 2412 2413
2347 1 2413 2414
2348 1 2414 2415
2349 1 2415 2416
2350 1 2416 2417
2351 1 2417 2418
2352 1 2418 2419
2353 1 2419 2420
2354 1 2420 2421
2355 1 2421 2422
2356 1 2422 2423
2357 1 2423 2424
2358 1 2424 2425
2359 1 2425 2426
2360 1 2426 2427
2361 1 2427 2428
2362 1 2428 2429
2363 1 28 2410
2364 1 2429 32
2365 1 2410 2430
2366 1 2430 2431
2367 1 2431 2432
2368 1 2432 2433
2369 1 2433 2434
2370 1 2412 2435
2371 1 2435 2436
2372 1 2436 2437
2373 1 2437 2438
2374 1 2438 2439
2375 1 2418 2440
2376 1 2440 2441
2377 1 2441 2442
2378 1 2442 2443
2379 1 2443 2444
2380 1 2422 2445
2381 1 2445 2446
2382 1 2446 2447
2383 1 2447 2448
2384 1 2448 2449
2385 1 2423 2450
2386 1 2450 2451
2387 1 2451 2452
2388 1 2452 2453
2389 1 2453 2454
2390 1 2426 2455
2391 1 2455 2456
2392 1 2456 2457
2393 1 2457 2458
2394 1 2458 2459
2395 1 2428 2460
2396 1 2460 2461
2397 1 2461 2462
2398 1 2462 2463
2399 1 2463 2464
2400 1 2465 2466
2401 1 2466 2467
2402 1 2467 2468
2403 1 2468 2469
2404 1 2469 2470
2405 1 2470 2471
2406 1 2471 2472
2407 1 2472 2473
2408 1 2473 2474
2409 1 2474 2475
2410 1 2475 2476
2411 1 2476 2477
2412 1 2477 2478
2413 1 2478 2479
2414 1 2479 2480
2415 1 2480 2481
2416 1 2481 2482
2417 1 2482 2483
2418 1 2483 2484
2419 1 28 2465
2420 1 2484 47
2421 1 2466 2485
2422 1 2485 2486
2423 1 2486 2487
2424 1 2487 2488
2425 1 2488 2489
2426 1 2467 2490
2427 1 2490 2491
2428 1 2491 2492
2429 1 2492 2493
2430 1 2493 2494
2431 1 2474 2495
2432 1 2495 2496
2433 1 2496 2497
2434 1 2497 2498
2435 1 2498 2499
2436 1 2476 2500
2437 1 2500 2501
2438 1 2501 2502
2439 1 2502 2503
2440 1 2503 2504
2441 1 2479 2505
2442 1 2505 2506
2443 1 2506 2507
2444 1 2507 2508
2445 1 2508 2509
2446 1 2510 2511
2447 1 2511 2512
2448 1 2512 2513
2449 1 2513 2514
2450 1 2514 2515
2451 1 2515 2516
2452 1 2516 2517
2453 1 2517 2518
2454 1 2518 2519
2455 1 2519 2520
2456 1 2520 2521
2457 1 2521 2522
2458 1 2522 2523
2459 1 2523 2524
2460 1 2524 2525
2461 1 2525 2526
2462 1 2526 2527
2463 1 2527 2528
2464 1 2528 2529
2465 1 29 2510
2466 1 2529 30
2467 1 2515 2530
2468 1 2530 2531
2469 1 2531 2532
2470 1 2532 2533
2471 1 2533 2534
2472 1 2516 2535
2473 1 2535 2536
2474 1 2536 2537
2475 1 2537 2538
2476 1 2538 2539
2477 1 2517 2540
2478 1 2540 2541
2479 1 2541 2542
2480 1 2542 2543
2481 1 2543 2544
2482 1 2522 2545
2483 1 2545 2546
2484 1 2546 2547
2485 1 2547 2548
2486 1 2548 2549
2487 1 2524 2550
2488 1 2550 2551
2489 1 2551 2552
2490 1 2552 2553
2491 1 2553 2554
2492 1 2528 2555
2493 1 2555 2556
2494 1 2556 2557
2495 1 2557 2558
2496 1 2558 2559
2497 1 2529 2560
2498 1 2560 2561
2499 1 2561 2562
2500 1 2562 2563
2501 1 2563 2564
2502 1 2565 2566
2503 1 2566 2567
2504 1 2567 2568
2505 1 2568 2569
2506 1 2569 2570
2507 1 2570 2571
2508 1 2571 2572
2509 1 2572 2573
2510 1 2573 2574
2511 1 2574 2575
2512 1 2575 2576
2513 1 2576 2577
2514 1 2577 2578
2515 1 2578 2579
2516 1 2579 2580
2517 1 2580 2581
2518 1 2581 2582
2519 1 2582 2583
2520 1 2583 2584
2521 1 29 2565
2522 1 2584 34
2523 1 2571 2585
2524 1 2585 2586
2525 1 2586 2587
2526 1 2587 2588
2527 1 2588 2589
2528 1 2578 2590
2529 1 2590 2591
2530 1 2591 2592
2531 1 2592 2593
2532 1 2593 2594
2533 1 2580 2595
2534 1 2595 2596
2535 1 2596 2597
2536 1 2597 2598
2537 1 2598 2599
2538 1 2600 2601
2539 1 2601 2602
2540 1 2602 2603
2541 1 2603 2604
2542 1 2604 2605
2543 1 2605 2606
2544 1 2606 2607
2545 1 2607 2608
2546 1 2608 2609
2547 1 2609 2610
2548 1 2610 2611
2549 1 2611 2612
2550 1 2612 2613
2551 1 2613 2614
2552 1 2614 2615
2553 1 2615 2616
2554 1 2616 2617
2555 1 2617 2618
2556 1 2618 2619
2557 1 29 2600
2558 1 2619 48
2559 1 2604 2620
2560 1 2620 2621
2561 1 2621 2622
2562 1 2622 2623
2563 1 2623 2624
2564 1 2607 2625
2565 1 2625 2626
2566 1 2626 2627
2567 1 2627 2628
2568 1 2628 2629
2569 1 2630 2631
2570 1 2631 2632
2571 1 2632 2633
2572 1 2633 2634
2573 1 2634 2635
2574 1 2635 2636
2575 1 2636 2637
2576 1 2637 2638
2577 1 2638 2639
2578 1 2639 2640
2579 1 2640 2641
2580 1 2641 2642
2581 1 2642 2643
2582 1 2643 2644
2583 1 2644 2645
2584 1 2645 2646
2585 1 2646 2647
2586 1 2647 2648
2587 1 2648 2649
2588 1 30 2630
2589 1 2649 35
2590 1 2632 2650
2591 1 2650 2651
2592 1 2651 2652
2593 1 2652 2653
2594 1 2653 2654
2595 1 2637 2655
2596 1 2655 2656
2597 1 2656 2657
2598 1 2657 2658
2599 1 2658 2659
2600 1 2638 2660
2601 1 2660 2661
2602 1 2661 2662
2603 1 2662 2663
2604 1 2663 2664
2605 1 2665 2666
2606 1 2666 2667
2607 1 2667 2668
2608 1 2668 2669
2609 1 2669 2670
2610 1 2670 2671
2611 1 2671 2672
2612 1 2672 2673
2613 1 2673 2674
2614 1 2674 2675
2615 1 2675 2676
2616 1 2676 2677
2617 1 2677 2678
2618 1 2678 2679
2619 1 2679 2680
2620 1 2680 2681
2621 1 2681 2682
2622 1 2682 2683
2623 1 2683 2684
2624 1 30 2665
2625 1 2684 59
2626 1 2671 2685
2627 1 2685 2686
2628 1 2686 2687
2629 1 2687 2688
2630 1 2688 2689
2631 1 2690 2691
2632 1 2691 2692
2633 1 2692 2693
2634 1 2693 2694
2635 1 2694 2695
2636 1 2695 2696
2637 1 2696 2697
2638 1 2697 2698
2639 1 2698 2699
2640 1 2699 2700
2641 1 2700 2701
2642 1 2701 2702
2643 1 2702 2703
2644 1 2703 2704
2645 1 2704 2705
2646 1 2705 2706
2647 1 2706 2707
2648 1 2707 2708
2649 1 2708 2709
2650 1 31 2690
2651 1 2709 32
2652 1 2695 2710
2653 1 2710 2711
2654 1 2711 2712
2655 1 2712 2713
2656 1 2713 2714
2657 1 2699 2715
2658 1 2715 2716
2659 1 2716 2717
2660 1 2717 2718
2661 1 2718 2719
2662 1 2700 2720
2663 1 2720 2721
2664 1 2721 2722
2665 1 2722 2723
2666 1 2723 2724
2667 1 2705 2725
2668 1 2725 2726
2669 1 2726 2727
2670 1 2727 2728
2671 1 2728 2729
2672 1 2730 2731
2673 1 2731 2732
2674 1 2732 2733
2675 1 2733 2734
2676 1 2734 2735
2677 1 2735 2736
2678 1 2736 2737
2679 1 2737 2738
2680 1 2738 2739
2681 1 2739 2740
2682 1 2740 2741
2683 1 2741 2742
2684 1 2742 2743
2685 1 2743 2744
2686 1 2744 2745
2687 1 2745 2746
2688 1 2746 2747
2689 1 2747 2748
2690 1 2748 2749
2691 1 31 2730
2692 1 2749 36
2693 1 2734 2750
2694 1 2750 2751
2695 1 2751 2752
2696 1 2752 2753
2697 1 2753 2754
2698 1 2742 2755
2699 1 2755 2756
2700 1 2756 2757
2701 1 2757 2758
2702 1 2758 2759
2703 1 2744 2760
2704 1 2760 2761
2705 1 2761 2762
2706 1 2762 2763
2707 1 2763 2764
2708 1 2748 2765
2709 1 2765 2766
2710 1 2766 2767
2711 1 2767 2768
2712 1 2768 2769
2713 1 2770 2771
2714 1 2771 2772
2715 1 2772 2773
2716 1 2773 2774
2717 1 2774 2775
2718 1 2775 2776
2719 1 2776 2777
2720 1 2777 2778
2721 1 2778 2779
2722 1 2779 2780
2723 1 2780 2781
2724 1 2781 2782
2725 1 2782 2783
2726 1 2783 2784
2727 1 2784 2785
2728 1 2785 2786
2729 1 2786 2787
2730 1 2787 2788
2731 1 2788 2789
2732 1 31 2770
2733 1 2789 53
2734 1 2774 2790
2735 1 2790 2791
2736 1 2791 2792
2737 1 2792 2793
2738 1 2793 2794
2739 1 2777 2795
2740 1 2795 2796
2741 1 2796 2797
2742 1 2797 2798
2743 1 2798 2799
2744 1 2778 2800
2745 1 2800 2801
2746 1 2801 2802
2747 1 2802 2803
2748 1 2803 2804
2749 1 2781 2805
2750 1 2805 2806
2751 1 2806 2807
2752 1 2807 2808
2753 1 2808 2809
2754 1 2810 2811
2755 1 2811 2812
2756 1 2812 2813
2757 1 2813 2814
2758 1 2814 2815
2759 1 2815 2816
2760 1 2816 2817
2761 1 2817 2818
2762 1 2818 2819
2763 1 2819 2820
2764 1 2820 2821
2765 1 2821 2822
2766 1 2822 2823
2767 1 2823 2824
2768 1 2824 2825
2769 1 2825 2826
2770 1 2826 2827
2771 1 2827 2828
2772 1 2828 2829
2773 1 32 2810
2774 1 2829 61
2775 1 2810 2830
2776 1 2830 2831
2777 1 2831 2832
2778 1 2832 2833
2779 1 2833 2834
2780 1 2812 2835
2781 1 2835 2836
2782 1 2836 2837
2783 1 2837 2838
2784 1 2838 2839
2785 1 2813 2840
2786 1 2840 2841
2787 1 2841 2842
2788 1 2842 2843
2789 1 2843 2844
2790 1 2817 2845
2791 1 2845 2846
2792 1 2846 2847
2793 1 2847 2848
2794 1 2848 2849
2795 1 2819 2850
2796 1 2850 2851
2797 1 2851 2852
2798 1 2852 2853
2799 1 2853 2854
2800 1 2829 2855
2801 1 2855 2856
2802 1 2856 2857
2803 1 2857 2858
2804 1 2858 2859
2805 1 2860 2861
2806 1 2861 2862
2807 1 2862 2863
2808 1 2863 2864
2809 1 2864 2865
2810 1 2865 2866
2811 1 2866 2867
2812 1 2867 2868
2813 1 2868 2869
2814 1 2869 2870
2815 1 2870 2871
2816 1 2871 2872
2817 1 2872 2873
2818 1 2873 2874
2819 1 2874 2875
2820 1 2875 2876
2821 1 2876 2877
2822 1 2877 2878
2823 1 2878 2879
2824 1 33 2860
2825 1 2879 34
2826 1 2871 2880
2827 1 2880 2881
2828 1 2881 2882
2829 1 2882 2883
2830 1 2883 2884
2831 1 2873 2885
2832 1 2885 2886
2833 1 2886 2887
2834 1 2887 2888
2835 1 2888 2889
2836 1 2878 2890
2837 1 2890 2891
2838 1 2891 2892
2839 1 2892 2893
2840 1 2893 2894
2841 1 2879 2895
2842 1 2895 2896
2843 1 2896 2897
2844 1 2897 2898
2845 1 2898 2899
2846 1 2900 2901
2847 1 2901 2902
2848 1 2902 2903
2849 1 2903 2904
2850 1 2904 2905
2851 1 2905 2906
2852 1 2906 2907
2853 1 2907 2908
2854 1 2908 2909
2855 1 2909 2910
2856 1 2910 2911
2857 1 2911 2912
2858 1 2912 2913
2859 1 2913 2914
2860 1 2914 2915
2861 1 2915 2916
2862 1 2916 2917
2863 1 2917 2918
2864 1 2918 2919
2865 1 33 2900
2866 1 2919 38
2867 1 2903 2920
2868 1 2920 2921
2869 1 2921 2922
2870 1 2922 2923
2871 1 2923 2924
2872 1 2925 2926
2873 1 2926 2927
2874 1 2927 2928
2875 1 2928 2929
2876 1 2929 2930
2877 1 2930 2931
2878 1 2931 2932
2879 1 2932 2933
2880 1 2933 2934
2881 1 2934 2935
2882 1 2935 2936
2883 1 2936 2937
2884 1 2937 2938
2885 1 2938 2939
2886 1 2939 2940
2887 1 2940 2941
2888 1 2941 2942
2889 1 2942 2943
2890 1 2943 2944
2891 1 34 2925
2892 1 2944 39
2893 1 2926 2945
2894 1 2945 2946
2895 1 2946 2947
2896 1 2947 2948
2897 1 2948 2949
2898 1 2928 2950
2899 1 2950 2951
2900 1 2951 2952
2901 1 2952 2953
2902 1 2953 2954
2903 1 2933 2955
2904 1 2955 2956
2905 1 2956 2957
2906 1 2957 2958
2907 1 2958 2959
2908 1 2934 2960
2909 1 2960 2961
2910 1 2961 2962
2911 1 2962 2963
2912 1 2963 2964
2913 1 2943 2965
2914 1 2965 2966
2915 1 2966 2967
2916 1 2967 2968
2917 1 2968 2969
2918 1 2970 2971
2919 1 2971 2972
2920 1 2972 2973
2921 1 2973 2974
2922 1 2974 2975
2923 1 2975 2976
2924 1 2976 2977
2925 1 2977 2978
2926 1 2978 2979
2927 1 2979 2980
2928 1 2980 2981
2929 1 2981 2982
2930 1 2982 2983
2931 1 2983 2984
2932 1 2984 2985
2933 1 2985 2986
2934 1 2986 2987
2935 1 2987 2988
2936 1 2988 2989
2937 1 34 2970
2938 1 2989 63
2939 1 2970 2990
2940 1 2990 2991
2941 1 2991 2992
2942 1 2992 2993
2943 1 2993 2994
2944 1 2971 2995
2945 1 2995 2996
2946 1 2996 2997
2947 1 2997 2998
2948 1 2998 2999
2949 1 2981 3000
2950 1 3000 3001
2951 1 3001 3002
2952 1 3002 3003
2953 1 3003 3004
2954 1 2985 3005
2955 1 3005 3006
2956 1 3006 3007
2957 1 3007 3008
2958 1 3008 3009
2959 1 2987 3010
2960 1 3010 3011
2961 1 3011 3012
2962 1 3012 3013
2963 1 3013 3014
2964 1 2988 3015
2965 1 3015 3016
2966 1 3016 3017
2967 1 3017 3018
2968 1 3018 3019
2969 1 2989 3020
2970 1 3020 3021
2971 1 3021 3022
2972 1 3022 3023
2973 1 3023 3024
2974 1 3025 3026
2975 1 3026 3027
2976 1 3027 3028
2977 1 3028 3029
2978 1 3029 3030
2979 1 3030 3031
2980 1 3031 3032
2981 1 3032 3033
2982 1 3033 3034
2983 1 3034 3035
2984 1 3035 3036
2985 1 3036 3037
2986 1 3037 3038
2987 1 3038 3039
2988 1 3039 3040
2989 1 3040 3041
2990 1 3041 3042
2991 1 3042 3043
2992 1 3043 3044
2993 1 35 3025
2994 1 3044 40
2995 1 3026 3045
2996 1 3045 3046
2997 1 3046 3047
2998 1 3047 3048
2999 1 3048 3049
3000 1 3031 3050
3001 1 3050 3051
3002 1 3051 3052
3003 1 3052 3053
3004 1 3053 3054
3005 1 3033 3055
3006 1 3055 3056
3007 1 3056 3057
3008 1 3057 3058
3009 1 3058 3059
3010 1 3038 3060
3011 1 3060 3061
3012 1 3061 3062
3013 1 3062 3063
3014 1 3063 3064
3015 1 3039 3065
3016 1 3065 3066
3017 1 3066 3067
3018 1 3067 3068
3019 1 3068 3069
3020 1 3042 3070
3021 1 3070 3071
3022 1 3071 3072
3023 1 3072 3073
3024 1 3073 3074
3025 1 3075 3076
3026 1 3076 3077
3027 1 3077 3078
3028 1 3078 3079
3029 1 3079 3080
3030 1 3080 3081
3031 1 3081 3082
3032 1 3082 3083
3033 1 3083 3084
3034 1 3084 3085
3035 1 3085 3086
3036 1 3086 3087
3037 1 3087 3088
3038 1 3088 3089
3039 1 3089 3090
3040 1 3090 3091
3041 1 3091 3092
3042 1 3092 3093
3043 1 3093 3094
3044 1 35 3075
3045 1 3094 64
3046 1 3077 3095
3047 1 3095 3096
3048 1 3096 3097
3049 1 3097 3098
3050 1 3098 3099
3051 1 3079 3100
3052 1 3100 3101
3053 1 3101 3102
3054 1 3102 3103
3055 1 3103 3104
3056 1 3090 3105
3057 1 3105 3106
3058 1 3106 3107
3059 1 3107 3108
3060 1 3108 3109
3061 1 3110 3111
3062 1 3111 3112
3063 1 3112 3113
3064 1 3113 3114
3065 1 3114 3115
3066 1 3115 3116
3067 1 3116 3117
3068 1 3117 3118
3069 1 3118 3119
3070 1 3119 3120
3071 1 3120 3121
3072 1 3121 3122
3073 1 3122 3123
3074 1 3123 3124
3075 1 3124 3125
3076 1 3125 3126
3077 1 3126 3127
3078 1 3127 3128
3079 1 3128 3129
3080 1 36 3110
3081 1 3129 37
3082 1 3113 3130
3083 1 3130 3131
3084 1 3131 3132
3085 1 3132 3133
3086 1 3133 3134
3087 1 3119 3135
3088 1 3135 3136
3089 1 3136 3137
3090 1 3137 3138
3091 1 3138 3139
3092 1 3123 3140
3093 1 3140 3141
3094 1 3141 3142
3095 1 3142 3143
3096 1 3143 3144
3097 1 3125 3145
3098 1 3145 3146
3099 1 3146 3147
3100 1 3147 3148
3101 1 3148 3149
3102 1 3127 3150
3103 1 3150 3151
3104 1 3151 3152
3105 1 3152 3153
3106 1 3153 3154
3107 1 3155 3156
3108 1 3156 3157
3109 1 3157 3158
3110 1 3158 3159
3111 1 3159 3160
3112 1 3160 3161
3113 1 3161 3162
3114 1 3162 3163
3115 1 3163 3164
3116 1 3164 3165
3117 1 3165 3166
3118 1 3166 3167
3119 1 3167 3168
3120 1 3168 3169
3121 1 3169 3170
3122 1 3170 3171
3123 1 3171 3172
3124 1 3172 3173
3125 1 3173 3174
3126 1 36 3155
3127 1 3174 65
3128 1 3159 3175
3129 1 3175 3176
3130 1 3176 3177
3131 1 3177 3178
3132 1 3178 3179
3133 1 3162 3180
3134 1 3180 3181
3135 1 3181 3182
3136 1 3182 3183
3137 1 3183 3184
3138 1 3167 3185
3139 1 3185 3186
3140 1 3186 3187
3141 1 3187 3188
3142 1 3188 3189
3143 1 3190 3191
3144 1 3191 3192
3145 1 3192 3193
3146 1 3193 3194
3147 1 3194 3195
3148 1 3195 3196
3149 1 3196 3197
3150 1 3197 3198
3151 1 3198 3199
3152 1 3199 3200
3153 1 3200 3201
3154 1 3201 3202
3155 1 3202 3203
3156 1 3203 3204
3157 1 3204 3205
3158 1 3205 3206
3159 1 3206 3207
3160 1 3207 3208
3161 1 3208 3209
3162 1 37 3190
3163 1 3209 42
3164 1 3195 3210
3165 1 3210 3211
3166 1 3211 3212
3167 1 3212 3213
3168 1 3213 3214
3169 1 3199 3215
3170 1 3215 3216
3171 1 3216 3217
3172 1 3217 3218
3173 1 3218 3219
3174 1 3209 3220
3175 1 3220 3221
3176 1 3221 3222
3177 1 3222 3223
3178 1 3223 3224
3179 1 3225 3226
3180 1 3226 3227
3181 1 3227 3228
3182 1 3228 3229
3183 1 3229 3230
3184 1 3230 3231
3185 1 3231 3232
3186 1 3232 3233
3187 1 3233 3234
3188 1 3234 3235
3189 1 3235 3236
3190 1 3236 3237
3191 1 3237 3238
3192 1 3238 3239
3193 1 3239 3240
3194 1 3240 3241
3195 1 3241 3242
3196 1 3242 3243
3197 1 3243 3244
3198 1 38 3225
3199 1 3244 43
3200 1 3228 3245
3201 1 3245 3246
3202 1 3246 3247
3203 1 3247 3248
3204 1 3248 3249
3205 1 3233 3250
3206 1 3250 3251
3207 1 3251 3252
3208 1 3252 3253
3209 1 3253 3254
3210 1 3242 3255
3211 1 3255 3256
3212 1 3256 3257
3213 1 3257 3258
3214 1 3258 3259
3215 1 3243 3260
3216 1 3260 3261
3217 1 3261 3262
3218 1 3262 3263
3219 1 3263 3264
3220 1 3244 3265
3221 1 3265 3266
3222 1 3266 3267
3223 1 3267 3268
3224 1 3268 3269
3225 1 3270 3271
3226 1 3271 3272
3227 1 3272 3273
3228 1 3273 3274
3229 1 3274 3275
3230 1 3275 3276
3231 1 3276 3277
3232 1 3277 3278
3233 1 3278 3279
3234 1 3279 3280
3235 1 3280 3281
3236 1 3281 3282
3237 1 3282 3283
3238 1 3283 3284
3239 1 3284 3285
3240 1 3285 3286
3241 1 3286 3287
3242 1 3287 3288
3243 1 3288 3289
3244 1 39 3270
3245 1 3289 68
3246 1 3272 3290
3247 1 3290 3291
3248 1 3291 3292
3249 1 3292 3293
3250 1 3293 3294
3251 1 3275 3295
3252 1 3295 3296
3253 1 3296 3297
3254 1 3297 3298
3255 1 3298 3299
3256 1 3281 3300
3257 1 3300 3301
3258 1 3301 3302
3259 1 3302 3303
3260 1 3303 3304
3261 1 3282 3305
3262 1 3305 3306
3263 1 3306 3307
3264 1 3307 3308
3265 1 3308 3309
3266 1 3284 3310
3267 1 3310 3311
3268 1 3311 3312
3269 1 3312 3313
3270 1 3313 3314
3271 1 3285 3315
3272 1 3315 3316
3273 1 3316 3317
3274 1 3317 3318
3275 1 3318 3319
3276 1 3320 3321
3277 1 3321 3322
3278 1 3322 3323
3279 1 3323 3324
3280 1 3324 3325
3281 1 3325 3326
3282 1 3326 3327
3283 1 3327 3328
3284 1 3328 3329
3285 1 3329 3330
3286 1 3330 3331
3287 1 3331 3332
3288 1 3332 3333
3289 1 3333 3334
3290 1 3334 3335
3291 1 3335 3336
3292 1 3336 3337
3293 1 3337 3338
3294 1 3338 3339
3295 1 40 3320
3296 1 3339 41
3297 1 3320 3340
3298 1 3340 3341
3299 1 3341 3342
3300 1 3342 3343
3301 1 3343 3344
3302 1 3324 3345
3303 1 3345 3346
3304 1 3346 3347
3305 1 3347 3348
3306 1 3348 3349
3307 1 3330 3350
3308 1 3350 3351
3309 1 3351 3352
3310 1 3352 3353
3311 1 3353 3354
3312 1 3331 3355
3313 1 3355 3356
3314 1 3356 3357
3315 1 3357 3358
3316 1 3358 3359
3317 1 3335 3360
3318 1 3360 3361
3319 1 3361 3362
3320 1 3362 3363
3321 1 3363 3364
3322 1 3365 3366
3323 1 3366 3367
3324 1 3367 3368
3325 1 3368 3369
3326 1 3369 3370
3327 1 3370 3371
3328 1 3371 3372
3329 1 3372 3373
3330 1 3373 3374
3331 1 3374 3375
3332 1 3375 3376
3333 1 3376 3377
3334 1 3377 3378
3335 1 3378 3379
3336 1 3379 3380
3337 1 3380 3381
3338 1 3381 3382
3339 1 3382 3383
3340 1 3383 3384
3341 1 40 3365
3342 1 3384 69
3343 1 3376 3385
3344 1 3385 3386
3345 1 3386 3387
3346 1 3387 3388
3347 1 3388 3389
3348 1 3379 3390
3349 1 3390 3391
3350 1 3391 3392
3351 1 3392 3393
3352 1 3393 3394
3353 1 3382 3395
3354 1 3395 3396
3355 1 3396 3397
3356 1 3397 3398
3357 1 3398 3399
3358 1 3400 3401
3359 1 3401 3402
3360 1 3402 3403
3361 1 3403 3404
3362 1 3404 3405
3363 1 3405 3406
3364 1 3406 3407
3365 1 3407 3408
3366 1 3408 3409
3367 1 3409 3410
3368 1 3410 3411
3369 1 3411 3412
3370 1 3412 3413
3371 1 3413 3414
3372 1 3414 3415
3373 1 3415 3416
3374 1 3416 3417
3375 1 3417 3418
3376 1 3418 3419
3377 1 41 3400
3378 1 3419 42
3379 1 3406 3420
3380 1 3420 3421
3381 1 3421 3422
3382 1 3422 3423
3383 1 3423 3424
3384 1 3411 3425
3385 1 3425 3426
3386 1 3426 3427
3387 1 3427 3428
3388 1 3428 3429
3389 1 3416 3430
3390 1 3430 3431
3391 1 3431 3432
3392 1 3432 3433
3393 1 3433 3434
3394 1 3435 3436
3395 1 3436 3437
3396 1 3437 3438
3397 1 3438 3439
3398 1 3439 3440
3399 1 3440 3441
3400 1 3441 3442
3401 1 3442 3443
3402 1 3443 3444
3403 1 3444 3445
3404 1 3445 3446
3405 1 3446 3447
3406 1 3447 3448
3407 1 3448 3449
3408 1 3449 3450
3409 1 3450 3451
3410 1 3451 3452
3411 1 3452 3453
3412 1 3453 3454
3413 1 41 3435
3414 1 3454 45
3415 1 3435 3455
3416 1 3455 3456
3417 1 3456 3457
3418 1 3457 3458
3419 1 3458 3459
3420 1 3440 3460
3421 1 3460 3461
3422 1 3461 3462
3423 1 3462 3463
3424 1 3463 3464
3425 1 3445 3465
3426 1 3465 3466
3427 1 3466 3467
3428 1 3467 3468
3429 1 3468 3469
3430 1 3447 3470
3431 1 3470 3471
3432 1 3471 3472
3433 1 3472 3473
3434 1 3473 3474
3435 1 3450 3475
3436 1 3475 3476
3437 1 3476 3477
3438 1 3477 3478
3439 1 3478 3479
3440 1 3480 3481
3441 1 3481 3482
3442 1 3482 3483
3443 1 3483 3484
3444 1 3484 3485
3445 1 3485 3486
3446 1 3486 3487
3447 1 3487 3488
3448 1 3488 3489
3449 1 3489 3490
3450 1 3490 3491
3451 1 3491 3492
3452 1 3492 3493
3453 1 3493 3494
3454 1 3494 3495
3455 1 3495 3496
3456 1 3496 3497
3457 1 3497 3498
3458 1 3498 3499
3459 1 41 3480
3460 1 3499 70
3461 1 3480 3500
3462 1 3500 3501
3463 1 3501 3502
3464 1 3502 3503
3465 1 3503 3504
3466 1 3484 3505
3467 1 3505 3506
3468 1 3506 3507
3469 1 3507 3508
3470 1 3508 3509
3471 1 3510 3511
3472 1 3511 3512
3473 1 3512 3513
3474 1 3513 3514
3475 1 3514 3515
3476 1 3515 3516
3477 1 3516 3517
3478 1 3517 3518
3479 1 3518 3519
3480 1 3519 3520
3481 1 3520 3521
3482 1 3521 3522
3483 1 3522 3523
3484 1 3523 3524
3485 1 3524 3525
3486 1 3525 3526
3487 1 3526 3527
3488 1 3527 3528
3489 1 3528 3529
3490 1 42 3510
3491 1 3529 46
3492 1 3512 3530
3493 1 3530 3531
3494 1 3531 3532
3495 1 3532 3533
3496 1 3533 3534
3497 1 3518 3535
3498 1 3535 3536
3499 1 3536 3537
3500 1 3537 3538
3501 1 3538 3539
3502 1 3520 3540
3503 1 3540 3541
3504 1 3541 3542
3505 1 3542 3543
3506 1 3543 3544
3507 1 3545 3546
3508 1 3546 3547
3509 1 3547 3548
3510 1 3548 3549
3511 1 3549 3550
3512 1 3550 3551
3513 1 3551 3552
3514 1 3552 3553
3515 1 3553 3554
3516 1 3554 3555
3517 1 3555 3556
3518 1 3556 3557
3519 1 3557 3558
3520 1 3558 3559
3521 1 3559 3560
3522 1 3560 3561
3523 1 3561 3562
3524 1 3562 3563
3525 1 3563 3564
3526 1 42 3545
3527 1 3564 71
3528 1 3545 3565
3529 1 3565 3566
3530 1 3566 3567
3531 1 3567 3568
3532 1 3568 3569
3533 1 3548 3570
3534 1 3570 3571
3535 1 3571 3572
3536 1 3572 3573
3537 1 3573 3574
3538 1 3549 3575
3539 1 3575 3576
3540 1 3576 3577
3541 1 3577 3578
3542 1 3578 3579
3543 1 3554 3580
3544 1 3580 3581
3545 1 3581 3582
3546 1 3582 3583
3547 1 3583 3584
3548 1 3557 3585
3549 1 3585 3586
3550 1 3586 3587
3551 1 3587 3588
3552 1 3588 3589
3553 1 3564 3590
3554 1 3590 3591
3555 1 3591 3592
3556 1 3592 3593
3557 1 3593 3594
3558 1 3595 3596
3559 1 3596 3597
3560 1 3597 3598
3561 1 3598 3599
3562 1 3599 3600
3563 1 3600 3601
3564 1 3601 3602
3565 1 3602 3603
3566 1 3603 3604
3567 1 3604 3605
3568 1 3605 3606
3569 1 3606 3607
3570 1 3607 3608
3571 1 3608 3609
3572 1 3609 3610
3573 1 3610 3611
3574 1 3611 3612
3575 1 3612 3613
3576 1 3613 3614
3577 1 43 3595
3578 1 3614 47
3579 1 3599 3615
3580 1 3615 3616
3581 1 3616 3617
3582 1 3617 3618
3583 1 3618 3619
3584 1 3605 3620
3585 1 3620 3621
3586 1 3621 3622
3587 1 3622 3623
3588 1 3623 3624
3589 1 3606 3625
3590 1 3625 3626
3591 1 3626 3627
3592 1 3627 3628
3593 1 3628 3629
3594 1 3607 3630
3595 1 3630 3631
3596 1 3631 3632
3597 1 3632 3633
3598 1 3633 3634
3599 1 3610 3635
3600 1 3635 3636
3601 1 3636 3637
3602 1 3637 3638
3603 1 3638 3639
3604 1 3612 3640
3605 1 3640 3641
3606 1 3641 3642
3607 1 3642 3643
3608 1 3643 3644
3609 1 3645 3646
3610 1 3646 3647
3611 1 3647 3648
3612 1 3648 3649
3613 1 3649 3650
3614 1 3650 3651
3615 1 3651 3652
3616 1 3652 3653
3617 1 3653 3654
3618 1 3654 3655
3619 1 3655 3656
3620 1 3656 3657
3621 1 3657 3658
3622 1 3658 3659
3623 1 3659 3660
3624 1 3660 3661
3625 1 3661 3662
3626 1 3662 3663
3627 1 3663 3664
3628 1 43 3645
3629 1 3664 46
3630 1 3647 3665
3631 1 3665 3666
3632 1 3666 3667
3633 1 3667 3668
3634 1 3668 3669
3635 1 3650 3670
3636 1 3670 3671
3637 1 3671 3672
3638 1 3672 3673
3639 1 3673 3674
3640 1 3654 3675
3641 1 3675 3676
3642 1 3676 3677
3643 1 3677 3678
3644 1 3678 3679
3645 1 3656 3680
3646 1 3680 3681
3647 1 3681 3682
3648 1 3682 3683
3649 1 3683 3684
3650 1 3685 3686
3651 1 3686 3687
3652 1 3687 3688
3653 1 3688 3689
3654 1 3689 3690
3655 1 3690 3691
3656 1 3691 3692
3657 1 3692 3693
3658 1 3693 3694
3659 1 3694 3695
3660 1 3695 3696
3661 1 3696 3697
3662 1 3697 3698
3663 1 3698 3699
3664 1 3699 3700
3665 1 3700 3701
3666 1 3701 3702
3667 1 3702 3703
3668 1 3703 3704
3669 1 44 3685
3670 1 3704 45
3671 1 3693 3705
3672 1 3705 3706
3673 1 3706 3707
3674 1 3707 3708
3675 1 3708 3709
3676 1 3700 3710
3677 1 3710 3711
3678 1 3711 3712
3679 1 3712 3713
3680 1 3713 3714
3681 1 3703 3715
3682 1 3715 3716
3683 1 3716 3717
3684 1 3717 3718
3685 1 3718 3719
3686 1 3720 3721
3687 1 3721 3722
3688 1 3722 3723
3689 1 3723 3724
3690 1 3724 3725
3691 1 3725 3726
3692 1 3726 3727
3693 1 3727 3728
3694 1 3728 3729
3695 1 3729 3730
3696 1 3730 3731
3697 1 3731 3732
3698 1 3732 3733
3699 1 3733 3734
3700 1 3734 3735
3701 1 3735 3736
3702 1 3736 3737
3703 1 3737 3738
3704 1 3738 3739
3705 1 44 3720
3706 1 3739 73
3707 1 3721 3740
3708 1 3740 3741
3709 1 3741 3742
3710 1 3742 3743
3711 1 3743 3744
3712 1 3724 3745
3713 1 3745 3746
3714 1 3746 3747
3715 1 3747 3748
3716 1 3748 3749
3717 1 3732 3750
3718 1 3750 3751
3719 1 3751 3752
3720 1 3752 3753
3721 1 3753 3754
3722 1 3755 3756
3723 1 3756 3757
3724 1 3757 3758
3725 1 3758 3759
3726 1 3759 3760
3727 1 3760 3761
3728 1 3761 3762
3729 1 3762 3763
3730 1 3763 3764
3731 1 3764 3765
3732 1 3765 3766
3733 1 3766 3767
3734 1 3767 3768
3735 1 3768 3769
3736 1 3769 3770
3737 1 3770 3771
3738 1 3771 3772
3739 1 3772 3773
3740 1 3773 3774
3741 1 45 3755
3742 1 3774 53
3743 1 3759 3775
3744 1 3775 3776
3745 1 3776 3777
3746 1 3777 3778
3747 1 3778 3779
3748 1 3760 3780
3749 1 3780 3781
3750 1 3781 3782
3751 1 3782 3783
3752 1 3783 3784
3753 1 3768 3785
3754 1 3785 3786
3755 1 3786 3787
3756 1 3787 3788
3757 1 3788 3789
3758 1 3773 3790
3759 1 3790 3791
3760 1 3791 3792
3761 1 3792 3793
3762 1 3793 3794
3763 1 3774 3795
3764 1 3795 3796
3765 1 3796 3797
3766 1 3797 3798
3767 1 3798 3799
3768 1 3800 3801
3769 1 3801 3802
3770 1 3802 3803
3771 1 3803 3804
3772 1 3804 3805
3773 1 3805 3806
3774 1 3806 3807
3775 1 3807 3808
3776 1 3808 3809
3777 1 3809 3810
3778 1 3810 3811
3779 1 3811 3812
3780 1 3812 3813
3781 1 3813 3814
3782 1 3814 3815
3783 1 3815 3816
3784 1 3816 3817
3785 1 3817 3818
3786 1 3818 3819
3787 1 46 3800
3788 1 3819 54
3789 1 3800 3820
3790 1 3820 3821
3791 1 3821 3822
3792 1 3822 3823
3793 1 3823 3824
3794 1 3802 3825
3795 1 3825 3826
3796 1 3826 3827
3797 1 3827 3828
3798 1 3828 3829
3799 1 3804 3830
3800 1 3830 3831
3801 1 3831 3832
3802 1 3832 3833
3803 1 3833 3834
3804 1 3810 3835
3805 1 3835 3836
3806 1 3836 3837
3807 1 3837 3838
3808 1 3838 3839
3809 1 3812 3840
3810 1 3840 3841
3811 1 3841 3842
3812 1 3842 3843
3813 1 3843 3844
3814 1 3845 3846
3815 1 3846 3847
3816 1 3847 3848
3817 1 3848 3849
3818 1 3849 3850
3819 1 3850 3851
3820 1 3851 3852
3821 1 3852 3853
3822 1 3853 3854
3823 1 3854 3855
3824 1 3855 3856
3825 1 3856 3857
3826 1 3857 3858
3827 1 3858 3859
3828 1 3859 3860
3829 1 3860 3861
3830 1 3861 3862
3831 1 3862 3863
3832 1 3863 3864
3833 1 47 3845
3834 1 3864 76
3835 1 3854 3865
3836 1 3865 3866
3837 1 3866 3867
3838 1 3867 3868
3839 1 3868 3869
3840 1 3855 3870
3841 1 3870 3871
3842 1 3871 3872
3843 1 3872 3873
3844 1 3873 3874
3845 1 3857 3875
3846 1 3875 3876
3847 1 3876 3877
3848 1 3877 3878
3849 1 3878 3879
3850 1 3859 3880
3851 1 3880 3881
3852 1 3881 3882
3853 1 3882 3883
3854 1 3883 3884
3855 1 3885 3886
3856 1 3886 3887
3857 1 3887 3888
3858 1 3888 3889
3859 1 3889 3890
3860 1 3890 3891
3861 1 3891 3892
3862 1 3892 3893
3863 1 3893 3894
3864 1 3894 3895
3865 1 3895 3896
3866 1 3896 3897
3867 1 3897 3898
3868 1 3898 3899
3869 1 3899 3900
3870 1 3900 3901
3871 1 3901 3902
3872 1 3902 3903
3873 1 3903 3904
3874 1 48 3885
3875 1 3904 77
3876 1 3886 3905
3877 1 3905 3906
3878 1 3906 3907
3879 1 3907 3908
3880 1 3908 3909
3881 1 3887 3910
3882 1 3910 3911
3883 1 3911 3912
3884 1 3912 3913
3885 1 3913 3914
3886 1 3889 3915
3887 1 3915 3916
3888 1 3916 3917
3889 1 3917 3918
3890 1 3918 3919
3891 1 3890 3920
3892 1 3920 3921
3893 1 3921 3922
3894 1 3922 3923
3895 1 3923 3924
3896 1 3902 3925
3897 1 3925 3926
3898 1 3926 3927
3899 1 3927 3928
3900 1 3928 3929
3901 1 3930 3931
3902 1 3931 3932
3903 1 3932 3933
3904 1 3933 3934
3905 1 3934 3935
3906 1 3935 3936
3907 1 3936 3937
3908 1 3937 3938
3909 1 3938 3939
3910 1 3939 3940
3911 1 3940 3941
3912 1 3941 3942
3913 1 3942 3943
3914 1 3943 3944
3915 1 3944 3945
3916 1 3945 3946
3917 1 3946 3947
3918 1 3947 3948
3919 1 3948 3949
3920 1 53 3930
3921 1 3949 54
3922 1 3930 3950
3923 1 3950 3951
3924 1 3951 3952
3925 1 3952 3953
3926 1 3953 3954
3927 1 3939 3955
3928 1 3955 3956
3929 1 3956 3957
3930 1 3957 3958
3931 1 3958 3959
3932 1 3942 3960
3933 1 3960 3961
3934 1 3961 3962
3935 1 3962 3963
3936 1 3963 3964
3937 1 3946 3965
3938 1 3965 3966
3939 1 3966 3967
3940 1 3967 3968
3941 1 3968 3969
3942 1 3970 3971
3943 1 3971 3972
3944 1 3972 3973
3945 1 3973 3974
3946 1 3974 3975
3947 1 3975 3976
3948 1 3976 3977
3949 1 3977 3978
3950 1 3978 3979
3951 1 3979 3980
3952 1 3980 3981
3953 1 3981 3982
3954 1 3982 3983
3955 1 3983 3984
3956 1 3984 3985
3957 1 3985 3986
3958 1 3986 3987
3959 1 3987 3988
3960 1 3988 3989
3961 1 54 3970
3962 1 3989 83
3963 1 3973 3990
3964 1 3990 3991
3965 1 3991 3992
3966 1 3992 3993
3967 1 3993 3994
3968 1 3975 3995
3969 1 3995 3996
3970 1 3996 3997
3971 1 3997 3998
3972 1 3998 3999
3973 1 3983 4000
3974 1 4000 4001
3975 1 4001 4002
3976 1 4002 4003
3977 1 4003 4004
3978 1 3984 4005
3979 1 4005 4006
3980 1 4006 4007
3981 1 4007 4008
3982 1 4008 4009
3983 1 3985 4010
3984 1 4010 4011
3985 1 4011 4012
3986 1 4012 4013
3987 1 4013 4014
3988 1 4015 4016
3989 1 4016 4017
3990 1 4017 4018
3991 1 4018 4019
3992 1 4019 4020
3993 1 4020 4021
3994 1 4021 4022
3995 1 4022 4023
3996 1 4023 4024
3997 1 4024 4025
3998 1 4025 4026
3999 1 4026 4027
4000 1 4027 4028
4001 1 4028 4029
4002 1 4029 4030
4003 1 4030 4031
4004 1 4031 4032
4005 1 4032 4033
4006 1 4033 4034
4007 1 59 4015
4008 1 4034 60
4009 1 4017 4035
4010 1 4035 4036
4011 1 4036 4037
4012 1 4037 4038
4013 1 4038 4039
4014 1 4020 4040
4015 1 4040 4041
4016 1 4041 4042
4017 1 4042 4043
4018 1 4043 4044
4019 1 4027 4045
4020 1 4045 4046
4021 1 4046 4047
4022 1 4047 4048
4023 1 4048 4049
4024 1 4050 4051
4025 1 4051 4052
4026 1 4052 4053
4027 1 4053 4054
4028 1 4054 4055
4029 1 4055 4056
4030 1 4056 4057
4031 1 4057 4058
4032 1 4058 4059
4033 1 4059 4060
4034 1 4060 4061
4035 1 4061 4062
4036 1 4062 4063
4037 1 4063 4064
4038 1 4064 4065
4039 1 4065 4066
4040 1 4066 4067
4041 1 4067 4068
4042 1 4068 4069
4043 1 59 4050
4044 1 4069 64
4045 1 4069 4070
4046 1 4070 4071
4047 1 4071 4072
4048 1 4072 4073
4049 1 4073 4074
4050 1 4075 4076
4051 1 4076 4077
4052 1 4077 4078
4053 1 4078 4079
4054 1 4079 4080
4055 1 4080 4081
4056 1 4081 4082
4057 1 4082 4083
4058 1 4083 4084
4059 1 4084 4085
4060 1 4085 4086
4061 1 4086 4087
4062 1 4087 4088
4063 1 4088 4089
4064 1 4089 4090
4065 1 4090 4091
4066 1 4091 4092
4067 1 4092 4093
4068 1 4093 4094
4069 1 59 4075
4070 1 4094 89
4071 1 4078 4095
4072 1 4095 4096
4073 1 4096 4097
4074 1 4097 4098
4075 1 4098 4099
4076 1 4083 4100
4077 1 4100 4101
4078 1 4101 4102
4079 1 4102 4103
4080 1 4103 4104
4081 1 4105 4106
4082 1 4106 4107
4083 1 4107 4108
4084 1 4108 4109
4085 1 4109 4110
4086 1 4110 4111
4087 1 4111 4112
4088 1 4112 4113
4089 1 4113 4114
4090 1 4114 4115
4091 1 4115 4116
4092 1 4116 4117
4093 1 4117 4118
4094 1 4118 4119
4095 1 4119 4120
4096 1 4120 4121
4097 1 4121 4122
4098 1 4122 4123
4099 1 4123 4124
4100 1 60 4105
4101 1 4124 65
4102 1 4107 4125
4103 1 4125 4126
4104 1 4126 4127
4105 1 4127 4128
4106 1 4128 4129
4107 1 4108 4130
4108 1 4130 4131
4109 1 4131 4132
4110 1 4132 4133
4111 1 4133 4134
4112 1 4115 4135
4113 1 4135 4136
4114 1 4136 4137
4115 1 4137 4138
4116 1 4138 4139
4117 1 4140 4141
4118 1 4141 4142
4119 1 4142 4143
4120 1 4143 4144
4121 1 4144 4145
4122 1 4145 4146
4123 1 4146 4147
4124 1 4147 4148
4125 1 4148 4149
4126 1 4149 4150
4127 1 4150 4151
4128 1 4151 4152
4129 1 4152 4153
4130 1 4153 4154
4131 1 4154 4155
4132 1 4155 4156
4133 1 4156 4157
4134 1 4157 4158
4135 1 4158 4159
4136 1 60 4140
4137 1 4159 90
4138 1 4142 4160
4139 1 4160 4161
4140 1 4161 4162
4141 1 4162 4163
4142 1 4163 4164
4143 1 4148 4165
4144 1 4165 4166
4145 1 4166 4167
4146 1 4167 4168
4147 1 4168 4169
4148 1 4151 4170
4149 1 4170 4171
4150 1 4171 4172
4151 1 4172 4173
4152 1 4173 4174
4153 1 4152 4175
4154 1 4175 4176
4155 1 4176 4177
4156 1 4177 4178
4157 1 4178 4179
4158 1 4159 4180
4159 1 4180 4181
4160 1 4181 4182
4161 1 4182 4183
4162 1 4183 4184
4163 1 4185 4186
4164 1 4186 4187
4165 1 4187 4188
4166 1 4188 4189
4167 1 4189 4190
4168 1 4190 4191
4169 1 4191 4192
4170 1 4192 4193
4171 1 4193 4194
4172 1 4194 4195
4173 1 4195 4196
4174 1 4196 4197
4175 1 4197 4198
4176 1 4198 4199
4177 1 4199 4200
4178 1 4200 4201
4179 1 4201 4202
4180 1 4202 4203
4181 1 4203 4204
4182 1 60 4185
4183 1 4204 82
4184 1 4190 4205
4185 1 4205 4206
4186 1 4206 4207
4187 1 4207 4208
4188 1 4208 4209
4189 1 4197 4210
4190 1 4210 4211
4191 1 4211 4212
4192 1 4212 4213
4193 1 4213 4214
4194 1 4198 4215
4195 1 4215 4216
4196 1 4216 4217
4197 1 4217 4218
4198 1 4218 4219
4199 1 4201 4220
4200 1 4220 4221
4201 1 4221 4222
4202 1 4222 4223
4203 1 4223 4224
4204 1 4204 4225
4205 1 4225 4226
4206 1 4226 4227
4207 1 4227 4228
4208 1 4228 4229
4209 1 4230 4231
4210 1 4231 4232
4211 1 4232 4233
4212 1 4233 4234
4213 1 4234 4235
4214 1 4235 4236
4215 1 4236 4237
4216 1 4237 4238
4217 1 4238 4239
4218 1 4239 4240
4219 1 4240 4241
4220 1 4241 4242
4221 1 4242 4243
4222 1 4243 4244
4223 1 4244 4245
4224 1 4245 4246
4225 1 4246 4247
4226 1 4247 4248
4227 1 4248 4249
4228 1 61 4230
4229 1 4249 66
4230 1 4234 4250
4231 1 4250 4251
4232 1 4251 4252
4233 1 4252 4253
4234 1 4253 4254
4235 1 4237 4255
4236 1 4255 4256
4237 1 4256 4257
4238 1 4257 4258
4239 1 4258 4259
4240 1 4249 4260
4241 1 4260 4261
4242 1 4261 4262
4243 1 4262 4263
4244 1 4263 4264
4245 1 4265 4266
4246 1 4266 4267
4247 1 4267 4268
4248 1 4268 4269
4249 1 4269 4270
4250 1 4270 4271
4251 1 4271 4272
4252 1 4272 4273
4253 1 4273 4274
4254 1 4274 4275
4255 1 4275 4276
4256 1 4276 4277
4257 1 4277 4278
4258 1 4278 4279
4259 1 4279 4280
4260 1 4280 4281
4261 1 4281 4282
4262 1 4282 4283
4263 1 4283 4284
4264 1 61 4265
4265 1 4284 91
4266 1 4265 4285
4267 1 4285 4286
4268 1 4286 4287
4269 1 4287 4288
4270 1 4288 4289
4271 1 4270 4290
4272 1 4290 4291
4273 1 4291 4292
4274 1 4292 4293
4275 1 4293 4294
4276 1 4275 4295
4277 1 4295 4296
4278 1 4296 4297
4279 1 4297 4298
4280 1 4298 4299
4281 1 4283 4300
4282 1 4300 4301
4283 1 4301 4302
4284 1 4302 4303
4285 1 4303 4304
4286 1 4284 4305
4287 1 4305 4306
4288 1 4306 4307
4289 1 4307 4308
4290 1 4308 4309
4291 1 4310 4311
4292 1 4311 4312
4293 1 4312 4313
4294 1 4313 4314
4295 1 4314 4315
4296 1 4315 4316
4297 1 4316 4317
4298 1 4317 4318
4299 1 4318 4319
4300 1 4319 4320
4301 1 4320 4321
4302 1 4321 4322
4303 1 4322 4323
4304 1 4323 4324
4305 1 4324 4325
4306 1 4325 4326
4307 1 4326 4327
4308 1 4327 4328
4309 1 4328 4329
4310 1 61 4310
4311 1 4329 83
4312 1 4314 4330
4313 1 4330 4331
4314 1 4331 4332
4315 1 4332 4333
4316 1 4333 4334
4317 1 4316 4335
4318 1 4335 4336
4319 1 4336 4337
4320 1 4337 4338
4321 1 4338 4339
4322 1 4317 4340
4323 1 4340 4341
4324 1 4341 4342
4325 1 4342 4343
4326 1 4343 4344
4327 1 4345 4346
4328 1 4346 4347
4329 1 4347 4348
4330 1 4348 4349
4331 1 4349 4350
4332 1 4350 4351
4333 1 4351 4352
4334 1 4352 4353
4335 1 4353 4354
4336 1 4354 4355
4337 1 4355 4356
4338 1 4356 4357
4339 1 4357 4358
4340 1 4358 4359
4341 1 4359 4360
4342 1 4360 4361
4343 1 4361 4362
4344 1 4362 4363
4345 1 4363 4364
4346 1 62 4345
4347 1 4364 63
4348 1 4347 4365
4349 1 4365 4366
4350 1 4366 4367
4351 1 4367 4368
4352 1 4368 4369
4353 1 4350 4370
4354 1 4370 4371
4355 1 4371 4372
4356 1 4372 4373
4357 1 4373 4374
4358 1 4353 4375
4359 1 4375 4376
4360 1 4376 4377
4361 1 4377 4378
4362 1 4378 4379
4363 1 4359 4380
4364 1 4380 4381
4365 1 4381 4382
4366 1 4382 4383
4367 1 4383 4384
4368 1 4360 4385
4369 1 4385 4386
4370 1 4386 4387
4371 1 4387 4388
4372 1 4388 4389
4373 1 4390 4391
4374 1 4391 4392
4375 1 4392 4393
4376 1 4393 4394
4377 1 4394 4395
4378 1 4395 4396
4379 1 4396 4397
4380 1 4397 4398
4381 1 4398 4399
4382 1 4399 4400
4383 1 4400 4401
4384 1 4401 4402
4385 1 4402 4403
4386 1 4403 4404
4387 1 4404 4405
4388 1 4405 4406
4389 1 4406 4407
4390 1 4407 4408
4391 1 4408 4409
4392 1 62 4390
4393 1 4409 67
4394 1 4391 4410
4395 1 4410 4411
4396 1 4411 4412
4397 1 4412 4413
4398 1 4413 4414
4399 1 4396 4415
4400 1 4415 4416
4401 1 4416 4417
4402 1 4417 4418
4403 1 4418 4419
4404 1 4402 4420
4405 1 4420 4421
4406 1 4421 4422
4407 1 4422 4423
4408 1 4423 4424
4409 1 4403 4425
4410 1 4425 4426
4411 1 4426 4427
4412 1 4427 4428
4413 1 4428 4429
4414 1 4406 4430
4415 1 4430 4431
4416 1 4431 4432
4417 1 4432 4433
4418 1 4433 4434
4419 1 4407 4435
4420 1 4435 4436
4421 1 4436 4437
4422 1 4437 4438
4423 1 4438 4439
4424 1 4408 4440
4425 1 4440 4441
4426 1 4441 4442
4427 1 4442 4443
4428 1 4443 4444
4429 1 4445 4446
4430 1 4446 4447
4431 1 4447 4448
4432 1 4448 4449
4433 1 4449 4450
4434 1 4450 4451
4435 1 4451 4452
4436 1 4452 4453
4437 1 4453 4454
4438 1 4454 4455
4439 1 4455 4456
4440 1 4456 4457
4441 1 4457 4458
4442 1 4458 4459
4443 1 4459 4460
4444 1 4460 4461
4445 1 4461 4462
4446 1 4462 4463
4447 1 4463 4464
4448 1 62 4445
4449 1 4464 92
4450 1 4447 4465
4451 1 4465 4466
4452 1 4466 4467
4453 1 4467 4468
4454 1 4468 4469
4455 1 4451 4470
4456 1 4470 4471
4457 1 4471 4472
4458 1 4472 4473
4459 1 4473 4474
4460 1 4453 4475
4461 1 4475 4476
4462 1 4476 4477
4463 1 4477 4478
4464 1 4478 4479
4465 1 4454 4480
4466 1 4480 4481
4467 1 4481 4482
4468 1 4482 4483
4469 1 4483 4484
4470 1 4455 4485
4471 1 4485 4486
4472 1 4486 4487
4473 1 4487 4488
4474 1 4488 4489
4475 1 4463 4490
4476 1 4490 4491
4477 1 4491 4492
4478 1 4492 4493
4479 1 4493 4494
4480 1 4464 4495
4481 1 4495 4496
4482 1 4496 4497
4483 1 4497 4498
4484 1 4498 4499
4485 1 4500 4501
4486 1 4501 4502
4487 1 4502 4503
4488 1 4503 4504
4489 1 4504 4505
4490 1 4505 4506
4491 1 4506 4507
4492 1 4507 4508
4493 1 4508 4509
4494 1 4509 4510
4495 1 4510 4511
4496 1 4511 4512
4497 1 4512 4513
4498 1 4513 4514
4499 1 4514 4515
4500 1 4515 4516
4501 1 4516 4517
4502 1 4517 4518
4503 1 4518 4519
4504 1 62 4500
4505 1 4519 66
4506 1 4503 4520
4507 1 4520 4521
4508 1 4521 4522
4509 1 4522 4523
4510 1 4523 4524
4511 1 4505 4525
4512 1 4525 4526
4513 1 4526 4527
4514 1 4527 4528
4515 1 4528 4529
4516 1 4507 4530
4517 1 4530 4531
4518 1 4531 4532
4519 1 4532 4533
4520 1 4533 4534
4521 1 4515 4535
4522 1 4535 4536
4523 1 4536 4537
4524 1 4537 4538
4525 1 4538 4539
4526 1 4519 4540
4527 1 4540 4541
4528 1 4541 4542
4529 1 4542 4543
4530 1 4543 4544
4531 1 4545 4546
4532 1 4546 4547
4533 1 4547 4548
4534 1 4548 4549
4535 1 4549 4550
4536 1 4550 4551
4537 1 4551 4552
4538 1 4552 4553
4539 1 4553 4554
4540 1 4554 4555
4541 1 4555 4556
4542 1 4556 4557
4543 1 4557 4558
4544 1 4558 4559
4545 1 4559 4560
4546 1 4560 4561
4547 1 4561 4562
4548 1 4562 4563
4549 1 4563 4564
4550 1 63 4545
4551 1 4564 68
4552 1 4559 4565
4553 1 4565 4566
4554 1 4566 4567
4555 1 4567 4568
4556 1 4568 4569
4557 1 4560 4570
4558 1 4570 4571
4559 1 4571 4572
4560 1 4572 4573
4561 1 4573 4574
4562 1 4561 4575
4563 1 4575 4576
4564 1 4576 4577
4565 1 4577 4578
4566 1 4578 4579
4567 1 4563 4580
4568 1 4580 4581
4569 1 4581 4582
4570 1 4582 4583
4571 1 4583 4584
4572 1 4585 4586
4573 1 4586 4587
4574 1 4587 4588
4575 1 4588 4589
4576 1 4589 4590
4577 1 4590 4591
4578 1 4591 4592
4579 1 4592 4593
4580 1 4593 4594
4581 1 4594 4595
4582 1 4595 4596
4583 1 4596 4597
4584 1 4597 4598
4585 1 4598 4599
4586 1 4599 4600
4587 1 4600 4601
4588 1 4601 4602
4589 1 4602 4603
4590 1 4603 4604
4591 1 63 4585
4592 1 4604 93
4593 1 4592 4605
4594 1 4605 4606
4595 1 4606 4607
4596 1 4607 4608
4597 1 4608 4609
4598 1 4594 4610
4599 1 4610 4611
4600 1 4611 4612
4601 1 4612 4613
4602 1 4613 4614
4603 1 4596 4615
4604 1 4615 4616
4605 1 4616 4617
4606 1 4617 4618
4607 1 4618 4619
4608 1 4601 4620
4609 1 4620 4621
4610 1 4621 4622
4611 1 4622 4623
4612 1 4623 4624
4613 1 4625 4626
4614 1 4626 4627
4615 1 4627 4628
4616 1 4628 4629
4617 1 4629 4630
4618 1 4630 4631
4619 1 4631 4632
4620 1 4632 4633
4621 1 4633 4634
4622 1 4634 4635
4623 1 4635 4636
4624 1 4636 4637
4625 1 4637 4638
4626 1 4638 4639
4627 1 4639 4640
4628 1 4640 4641
4629 1 4641 4642
4630 1 4642 4643
4631 1 4643 4644
4632 1 64 4625
4633 1 4644 65
4634 1 4628 4645
4635 1 4645 4646
4636 1 4646 4647
4637 1 4647 4648
4638 1 4648 4649
4639 1 4633 4650
4640 1 4650 4651
4641 1 4651 4652
4642 1 4652 4653
4643 1 4653 4654
4644 1 4638 4655
4645 1 4655 4656
4646 1 4656 4657
4647 1 4657 4658
4648 1 4658 4659
4649 1 4640 4660
4650 1 4660 4661
4651 1 4661 4662
4652 1 4662 4663
4653 1 4663 4664
4654 1 4641 4665
4655 1 4665 4666
4656 1 4666 4667
4657 1 4667 4668
4658 1 4668 4669
4659 1 4670 4671
4660 1 4671 4672
4661 1 4672 4673
4662 1 4673 4674
4663 1 4674 4675
4664 1 4675 4676
4665 1 4676 4677
4666 1 4677 4678
4667 1 4678 4679
4668 1 4679 4680
4669 1 4680 4681
4670 1 4681 4682
4671 1 4682 4683
4672 1 4683 4684
4673 1 4684 4685
4674 1 4685 4686
4675 1 4686 4687
4676 1 4687 4688
4677 1 4688 4689
4678 1 66 4670
4679 1 4689 71
4680 1 4688 4690
4681 1 4690 4691
4682 1 4691 4692
4683 1 4692 4693
4684 1 4693 4694
4685 1 4695 4696
4686 1 4696 4697
4687 1 4697 4698
4688 1 4698 4699
4689 1 4699 4700
4690 1 4700 4701
4691 1 4701 4702
4692 1 4702 4703
4693 1 4703 4704
4694 1 4704 4705
4695 1 4705 4706
4696 1 4706 4707
4697 1 4707 4708
4698 1 4708 4709
4699 1 4709 4710
4700 1 4710 4711
4701 1 4711 4712
4702 1 4712 4713
4703 1 4713 4714
4704 1 66 4695
4705 1 4714 96
4706 1 4702 4715
4707 1 4715 4716
4708 1 4716 4717
4709 1 4717 4718
4710 1 4718 4719
4711 1 4704 4720
4712 1 4720 4721
4713 1 4721 4722
4714 1 4722 4723
4715 1 4723 4724
4716 1 4711 4725
4717 1 4725 4726
4718 1 4726 4727
4719 1 4727 4728
4720 1 4728 4729
4721 1 4730 4731
4722 1 4731 4732
4723 1 4732 4733
4724 1 4733 4734
4725 1 4734 4735
4726 1 4735 4736
4727 1 4736 4737
4728 1 4737 4738
4729 1 4738 4739
4730 1 4739 4740
4731 1 4740 4741
4732 1 4741 4742
4733 1 4742 4743
4734 1 4743 4744
4735 1 4744 4745
4736 1 4745 4746
4737 1 4746 4747
4738 1 4747 4748
4739 1 4748 4749
4740 1 67 4730
4741 1 4749 97
4742 1 4741 4750
4743 1 4750 4751
4744 1 4751 4752
4745 1 4752 4753
4746 1 4753 4754
4747 1 4743 4755
4748 1 4755 4756
4749 1 4756 4757
4750 1 4757 4758
4751 1 4758 4759
4752 1 4760 4761
4753 1 4761 4762
4754 1 4762 4763
4755 1 4763 4764
4756 1 4764 4765
4757 1 4765 4766
4758 1 4766 4767
4759 1 4767 4768
4760 1 4768 4769
4761 1 4769 4770
4762 1 4770 4771
4763 1 4771 4772
4764 1 4772 4773
4765 1 4773 4774
4766 1 4774 4775
4767 1 4775 4776
4768 1 4776 4777
4769 1 4777 4778
4770 1 4778 4779
4771 1 67 4760
4772 1 4779 71
4773 1 4760 4780
4774 1 4780 4781
4775 1 4781 4782
4776 1 4782 4783
4777 1 4783 4784
4778 1 4767 4785
4779 1 4785 4786
4780 1 4786 4787
4781 1 4787 4788
4782 1 4788 4789
4783 1 4776 4790
4784 1 4790 4791
4785 1 4791 4792
4786 1 4792 4793
4787 1 4793 4794
4788 1 4795 4796
4789 1 4796 4797
4790 1 4797 4798
4791 1 4798 4799
4792 1 4799 4800
4793 1 4800 4801
4794 1 4801 4802
4795 1 4802 4803
4796 1 4803 4804
4797 1 4804 4805
4798 1 4805 4806
4799 1 4806 4807
4800 1 4807 4808
4801 1 4808 4809
4802 1 4809 4810
4803 1 4810 4811
4804 1 4811 4812
4805 1 4812 4813
4806 1 4813 4814
4807 1 68 4795
4808 1 4814 72
4809 1 4795 4815
4810 1 4815 4816
4811 1 4816 4817
4812 1 4817 4818
4813 1 4818 4819
4814 1 4799 4820
4815 1 4820 4821
4816 1 4821 4822
4817 1 4822 4823
4818 1 4823 4824
4819 1 4800 4825
4820 1 4825 4826
4821 1 4826 4827
4822 1 4827 4828
4823 1 4828 4829
4824 1 4807 4830
4825 1 4830 4831
4826 1 4831 4832
4827 1 4832 4833
4828 1 4833 4834
4829 1 4814 4835
4830 1 4835 4836
4831 1 4836 4837
4832 1 4837 4838
4833 1 4838 4839
4834 1 4840 4841
4835 1 4841 4842
4836 1 4842 4843
4837 1 4843 4844
4838 1 4844 4845
4839 1 4845 4846
4840 1 4846 4847
4841 1 4847 4848
4842 1 4848 4849
4843 1 4849 4850
4844 1 4850 4851
4845 1 4851 4852
4846 1 4852 4853
4847 1 4853 4854
4848 1 4854 4855
4849 1 4855 4856
4850 1 4856 4857
4851 1 4857 4858
4852 1 4858 4859
4853 1 68 4840
4854 1 4859 98
4855 1 4846 4860
4856 1 4860 4861
4857 1 4861 4862
4858 1 4862 4863
4859 1 4863 4864
4860 1 4849 4865
4861 1 4865 4866
4862 1 4866 4867
4863 1 4867 4868
4864 1 4868 4869
4865 1 4850 4870
4866 1 4870 4871
4867 1 4871 4872
4868 1 4872 4873
4869 1 4873 4874
4870 1 4855 4875
4871 1 4875 4876
4872 1 4876 4877
4873 1 4877 4878
4874 1 4878 4879
4875 1 4880 4881
4876 1 4881 4882
4877 1 4882 4883
4878 1 4883 4884
4879 1 4884 4885
4880 1 4885 4886
4881 1 4886 4887
4882 1 4887 4888
4883 1 4888 4889
4884 1 4889 4890
4885 1 4890 4891
4886 1 4891 4892
4887 1 4892 4893
4888 1 4893 4894
4889 1 4894 4895
4890 1 4895 4896
4891 1 4896 4897
4892 1 4897 4898
4893 1 4898 4899
4894 1 69 4880
4895 1 4899 70
4896 1 4892 4900
4897 1 4900 4901
4898 1 4901 4902
4899 1 4902 4903
4900 1 4903 4904
4901 1 4893 4905
4902 1 4905 4906
4903 1 4906 4907
4904 1 4907 4908
4905 1 4908 4909
4906 1 4898 4910
4907 1 4910 4911
4908 1 4911 4912
4909 1 4912 4913
4910 1 4913 4914
4911 1 4915 4916
4912 1 4916 4917
4913 1 4917 4918
4914 1 4918 4919
4915 1 4919 4920
4916 1 4920 4921
4917 1 4921 4922
4918 1 4922 4923
4919 1 4923 4924
4920 1 4924 4925
4921 1 4925 4926
4922 1 4926 4927
4923 1 4927 4928
4924 1 4928 4929
4925 1 4929 4930
4926 1 4930 4931
4927 1 4931 4932
4928 1 4932 4933
4929 1 4933 4934
4930 1 69 4915
4931 1 4934 73
4932 1 4915 4935
4933 1 4935 4936
4934 1 4936 4937
4935 1 4937 4938
4936 1 4938 4939
4937 1 4916 4940
4938 1 4940 4941
4939 1 4941 4942
4940 1 4942 4943
4941 1 4943 4944
4942 1 4921 4945
4943 1 4945 4946
4944 1 4946 4947
4945 1 4947 4948
4946 1 4948 4949
4947 1 4930 4950
4948 1 4950 4951
4949 1 4951 4952
4950 1 4952 4953
4951 1 4953 4954
4952 1 4934 4955
4953 1 4955 4956
4954 1 4956 4957
4955 1 4957 4958
4956 1 4958 4959
4957 1 4960 4961
4958 1 4961 4962
4959 1 4962 4963
4960 1 4963 4964
4961 1 4964 4965
4962 1 4965 4966
4963 1 4966 4967
4964 1 4967 4968
4965 1 4968 4969
4966 1 4969 4970
4967 1 4970 4971
4968 1 4971 4972
4969 1 4972 4973
4970 1 4973 4974
4971 1 4974 4975
4972 1 4975 4976
4973 1 4976 4977
4974 1 4977 4978
4975 1 4978 4979
4976 1 69 4960
4977 1 4979 99
4978 1 4960 4980
4979 1 4980 4981
4980 1 4981 4982
4981 1 4982 4983
4982 1 4983 4984
4983 1 4962 4985
4984 1 4985 4986
4985 1 4986 4987
4986 1 4987 4988
4987 1 4988 4989
4988 1 4963 4990
4989 1 4990 4991
4990 1 4991 4992
4991 1 4992 4993
4992 1 4993 4994
4993 1 4970 4995
4994 1 4995 4996
4995 1 4996 4997
4996 1 4997 4998
4997 1 4998 4999
4998 1 4972 5000
4999 1 5000 5001
5000 1 5001 5002
5001 1 5002 5003
5002 1 5003 5004
5003 1 4973 5005
5004 1 5005 5006
5005 1 5006 5007
5006 1 5007 5008
5007 1 5008 5009
5008 1 5010 5011
5009 1 5011 5012
5010 1 5012 5013
5011 1 5013 5014
5012 1 5014 5015
5013 1 5015 5016
5014 1 5016 5017
5015 1 5017 5018
5016 1 5018 5019
5017 1 5019 5020
5018 1 5020 5021
5019 1 5021 5022
5020 1 5022 5023
5021 1 5023 5024
5022 1 5024 5025
5023 1 5025 5026
5024 1 5026 5027
5025 1 5027 5028
5026 1 5028 5029
5027 1 70 5010
5028 1 5029 74
5029 1 5011 5030
5030 1 5030 5031
5031 1 5031 5032
5032 1 5032 5033
5033 1 5033 5034
5034 1 5012 5035
5035 1 5035 5036
5036 1 5036 5037
5037 1 5037 5038
5038 1 5038 5039
5039 1 5017 5040
5040 1 5040 5041
5041 1 5041 5042
5042 1 5042 5043
5043 1 5043 5044
5044 1 5019 5045
5045 1 5045 5046
5046 1 5046 5047
5047 1 5047 5048
5048 1 5048 5049
5049 1 5022 5050
5050 1 5050 5051
5051 1 5051 5052
5052 1 5052 5053
5053 1 5053 5054
5054 1 5025 5055
5055 1 5055 5056
5056 1 5056 5057
5057 1 5057 5058
5058 1 5058 5059
5059 1 5026 5060
5060 1 5060 5061
5061 1 5061 5062
5062 1 5062 5063
5063 1 5063 5064
5064 1 5028 5065
5065 1 5065 5066
5066 1 5066 5067
5067 1 5067 5068
5068 1 5068 5069
5069 1 5070 5071
5070 1 5071 5072
5071 1 5072 5073
5072 1 5073 5074
5073 1 5074 5075
5074 1 5075 5076
5075 1 5076 5077
5076 1 5077 5078
5077 1 5078 5079
5078 1 5079 5080
5079 1 5080 5081
5080 1 5081 5082
5081 1 5082 5083
5082 1 5083 5084
5083 1 5084 5085
5084 1 5085 5086
5085 1 5086 5087
5086 1 5087 5088
5087 1 5088 5089
5088 1 70 5070
5089 1 5089 100
5090 1 5070 5090
5091 1 5090 5091
5092 1 5091 5092
5093 1 5092 5093
5094 1 5093 5094
5095 1 5072 5095
5096 1 5095 5096
5097 1 5096 5097
5098 1 5097 5098
5099 1 5098 5099
5100 1 5080 5100
5101 1 5100 5101
5102 1 5101 5102
5103 1 5102 5103
5104 1 5103 5104
5105 1 5088 5105
5106 1 5105 5106
5107 1 5106 5107
5108 1 5107 5108
5109 1 5108 5109
5110 1 5110 5111
5111 1 5111 5112
5112 1 5112 5113
5113 1 5113 5114
5114 1 5114 5115
5115 1 5115 5116
5116 1 5116 5117
5117 1 5117 5118
5118 1 5118 5119
5119 1 5119 5120
5120 1 5120 5121
5121 1 5121 5122
5122 1 5122 5123
5123 1 5123 5124
5124 1 5124 5125
5125 1 5125 5126
5126 1 5126 5127
5127 1 5127 5128
5128 1 5128 5129
5129 1 71 5110
5130 1 5129 75
5131 1 5110 5130
5132 1 5130 5131
5133 1 5131 5132
5134 1 5132 5133
5135 1 5133 5134
5136 1 5112 5135
5137 1 5135 5136
5138 1 5136 5137
5139 1 5137 5138
5140 1 5138 5139
5141 1 5113 5140
5142 1 5140 5141
5143 1 5141 5142
5144 1 5142 5143
5145 1 5143 5144
5146 1 5119 5145
5147 1 5145 5146
5148 1 5146 5147
5149 1 5147 5148
5150 1 5148 5149
5151 1 5123 5150
5152 1 5150 5151
5153 1 5151 5152
5154 1 5152 5153
5155 1 5153 5154
5156 1 5128 5155
5157 1 5155 5156
5158 1 5156 5157
5159 1 5157 5158
5160 1 5158 5159
5161 1 5160 5161
5162 1 5161 5162
5163 1 5162 5163
5164 1 5163 5164
5165 1 5164 5165
5166 1 5165 5166
5167 1 5166 5167
5168 1 5167 5168
5169 1 5168 5169
5170 1 5169 5170
5171 1 5170 5171
5172 1 5171 5172
5173 1 5172 5173
5174 1 5173 5174
5175 1 5174 5175
5176 1 5175 5176
5177 1 5176 5177
5178 1 5177 5178
5179 1 5178 5179
5180 1 72 5160
5181 1 5179 77
5182 1 5164 5180
5183 1 5180 5181
5184 1 5181 5182
5185 1 5182 5183
5186 1 5183 5184
5187 1 5170 5185
5188 1 5185 5186
5189 1 5186 5187
5190 1 5187 5188
5191 1 5188 5189
5192 1 5172 5190
5193 1 5190 5191
5194 1 5191 5192
5195 1 5192 5193
5196 1 5193 5194
5197 1 5177 5195
5198 1 5195 5196
5199 1 5196 5197
5200 1 5197 5198
5201 1 5198 5199
5202 1 5200 5201
5203 1 5201 5202
5204 1 5202 5203
5205 1 5203 5204
5206 1 5204 5205
5207 1 5205 5206
5208 1 5206 5207
5209 1 5207 5208
5210 1 5208 5209
5211 1 5209 5210
5212 1 5210 5211
5213 1 5211 5212
5214 1 5212 5213
5215 1 5213 5214
5216 1 5214 5215
5217 1 5215 5216
5218 1 5216 5217
5219 1 5217 5218
5220 1 5218 5219
5221 1 72 5200
5222 1 5219 103
5223 1 5208 5220
5224 1 5220 5221
5225 1 5221 5222
5226 1 5222 5223
5227 1 5223 5224
5228 1 5215 5225
5229 1 5225 5226
5230 1 5226 5227
5231 1 5227 5228
5232 1 5228 5229
5233 1 5230 5231
5234 1 5231 5232
5235 1 5232 5233
5236 1 5233 5234
5237 1 5234 5235
5238 1 5235 5236
5239 1 5236 5237
5240 1 5237 5238
5241 1 5238 5239
5242 1 5239 5240
5243 1 5240 5241
5244 1 5241 5242
5245 1 5242 5243
5246 1 5243 5244
5247 1 5244 5245
5248 1 5245 5246
5249 1 5246 5247
5250 1 5247 5248
5251 1 5248 5249
5252 1 73 5230
5253 1 5249 74
5254 1 5231 5250
5255 1 5250 5251
5256 1 5251 5252
5257 1 5252 5253
5258 1 5253 5254
5259 1 5233 5255
5260 1 5255 5256
5261 1 5256 5257
5262 1 5257 5258
5263 1 5258 5259
5264 1 5238 5260
5265 1 5260 5261
5266 1 5261 5262
5267 1 5262 5263
5268 1 5263 5264
5269 1 5248 5265
5270 1 5265 5266
5271 1 5266 5267
5272 1 5267 5268
5273 1 5268 5269
5274 1 5270 5271
5275 1 5271 5272
5276 1 5272 5273
5277 1 5273 5274
5278 1 5274 5275
5279 1 5275 5276
5280 1 5276 5277
5281 1 5277 5278
5282 1 5278 5279
5283 1 5279 5280
5284 1 5280 5281
5285 1 5281 5282
5286 1 5282 5283
5287 1 5283 5284
5288 1 5284 5285
5289 1 5285 5286
5290 1 5286 5287
5291 1 5287 5288
5292 1 5288 5289
5293 1 73 5270
5294 1 5289 104
5295 1 5271 5290
5296 1 5290 5291
5297 1 5291 5292
5298 1 5292 5293
5299 1 5293 5294
5300 1 5273 5295
5301 1 5295 5296
5302 1 5296 5297
5303 1 5297 5298
5304 1 5298 5299
5305 1 5274 5300
5306 1 5300 5301
5307 1 5301 5302
5308 1 5302 5303
5309 1 5303 5304
5310 1 5283 5305
5311 1 5305 5306
5312 1 5306 5307
5313 1 5307 5308
5314 1 5308 5309
5315 1 5310 5311
5316 1 5311 5312
5317 1 5312 5313
5318 1 5313 5314
5319 1 5314 5315
5320 1 5315 5316
5321 1 5316 5317
5322 1 5317 5318
5323 1 5318 5319
5324 1 5319 5320
5325 1 5320 5321
5326 1 5321 5322
5327 1 5322 5323
5328 1 5323 5324
5329 1 5324 5325
5330 1 5325 5326
5331 1 5326 5327
5332 1 5327 5328
5333 1 5328 5329
5334 1 74 5310
5335 1 5329 75
5336 1 5310 5330
5337 1 5330 5331
5338 1 5331 5332
5339 1 5332 5333
5340 1 5333 5334
5341 1 5312 5335
5342 1 5335 5336
5343 1 5336 5337
5344 1 5337 5338
5345 1 5338 5339
5346 1 5322 5340
5347 1 5340 5341
5348 1 5341 5342
5349 1 5342 5343
5350 1 5343 5344
5351 1 5323 5345
5352 1 5345 5346
5353 1 5346 5347
5354 1 5347 5348
5355 1 5348 5349
5356 1 5328 5350
5357 1 5350 5351
5358 1 5351 5352
5359 1 5352 5353
5360 1 5353 5354
5361 1 5355 5356
5362 1 5356 5357
5363 1 5357 5358
5364 1 5358 5359
5365 1 5359 5360
5366 1 5360 5361
5367 1 5361 5362
5368 1 5362 5363
5369 1 5363 5364
5370 1 5364 5365
5371 1 5365 5366
5372 1 5366 5367
5373 1 5367 5368
5374 1 5368 5369
5375 1 5369 5370
5376 1 5370 5371
5377 1 5371 5372
5378 1 5372 5373
5379 1 5373 5374
5380 1 74 5355
5381 1 5374 82
5382 1 5363 5375
5383 1 5375 5376
5384 1 5376 5377
5385 1 5377 5378
5386 1 5378 5379
5387 1 5365 5380
5388 1 5380 5381
5389 1 5381 5382
5390 1 5382 5383
5391 1 5383 5384
5392 1 5368 5385
5393 1 5385 5386
5394 1 5386 5387
5395 1 5387 5388
5396 1 5388 5389
5397 1 5373 5390
5398 1 5390 5391
5399 1 5391 5392
5400 1 5392 5393
5401 1 5393 5394
5402 1 5395 5396
5403 1 5396 5397
5404 1 5397 5398
5405 1 5398 5399
5406 1 5399 5400
5407 1 5400 5401
5408 1 5401 5402
5409 1 5402 5403
5410 1 5403 5404
5411 1 5404 5405
5412 1 5405 5406
5413 1 5406 5407
5414 1 5407 5408
5415 1 5408 5409
5416 1 5409 5410
5417 1 5410 5411
5418 1 5411 5412
5419 1 5412 5413
5420 1 5413 5414
5421 1 75 5395
5422 1 5414 106
5423 1 5400 5415
5424 1 5415 5416
5425 1 5416 5417
5426 1 5417 5418
5427 1 5418 5419
5428 1 5405 5420
5429 1 5420 5421
5430 1 5421 5422
5431 1 5422 5423
5432 1 5423 5424
5433 1 5413 5425
5434 1 5425 5426
5435 1 5426 5427
5436 1 5427 5428
5437 1 5428 5429
5438 1 5430 5431
5439 1 5431 5432
5440 1 5432 5433
5441 1 5433 5434
5442 1 5434 5435
5443 1 5435 5436
5444 1 5436 5437
5445 1 5437 5438
5446 1 5438 5439
5447 1 5439 5440
5448 1 5440 5441
5449 1 5441 5442
5450 1 5442 5443
5451 1 5443 5444
5452 1 5444 5445
5453 1 5445 5446
5454 1 5446 5447
5455 1 5447 5448
5456 1 5448 5449
5457 1 76 5430
5458 1 5449 77
5459 1 5441 5450
5460 1 5450 5451
5461 1 5451 5452
5462 1 5452 5453
5463 1 5453 5454
5464 1 5455 5456
5465 1 5456 5457
5466 1 5457 5458
5467 1 5458 5459
5468 1 5459 5460
5469 1 5460 5461
5470 1 5461 5462
5471 1 5462 5463
5472 1 5463 5464
5473 1 5464 5465
5474 1 5465 5466
5475 1 5466 5467
5476 1 5467 5468
5477 1 5468 5469
5478 1 5469 5470
5479 1 5470 5471
5480 1 5471 5472
5481 1 5472 5473
5482 1 5473 5474
5483 1 76 5455
5484 1 5474 107
5485 1 5455 5475
5486 1 5475 5476
5487 1 5476 5477
5488 1 5477 5478
5489 1 5478 5479
5490 1 5466 5480
5491 1 5480 5481
5492 1 5481 5482
5493 1 5482 5483
5494 1 5483 5484
5495 1 5485 5486
5496 1 5486 5487
5497 1 5487 5488
5498 1 5488 5489
5499 1 5489 5490
5500 1 5490 5491
5501 1 5491 5492
5502 1 5492 5493
5503 1 5493 5494
5504 1 5494 5495
5505 1 5495 5496
5506 1 5496 5497
5507 1 5497 5498
5508 1 5498 5499
5509 1 5499 5500
5510 1 5500 5501
5511 1 5501 5502
5512 1 5502 5503
5513 1 5503 5504
5514 1 77 5485
5515 1 5504 78
5516 1 5485 5505
5517 1 5505 5506
5518 1 5506 5507
5519 1 5507 5508
5520 1 5508 5509
5521 1 5486 5510
5522 1 5510 5511
5523 1 5511 5512
5524 1 5512 5513
5525 1 5513 5514
5526 1 5498 5515
5527 1 5515 5516
5528 1 5516 5517
5529 1 5517 5518
5530 1 5518 5519
5531 1 5504 5520
5532 1 5520 5521
5533 1 5521 5522
5534 1 5522 5523
5535 1 5523 5524
5536 1 5525 5526
5537 1 5526 5527
5538 1 5527 5528
5539 1 5528 5529
5540 1 5529 5530
5541 1 5530 5531
5542 1 5531 5532
5543 1 5532 5533
5544 1 5533 5534
5545 1 5534 5535
5546 1 5535 5536
5547 1 5536 5537
5548 1 5537 5538
5549 1 5538 5539
5550 1 5539 5540
5551 1 5540 5541
5552 1 5541 5542
5553 1 5542 5543
5554 1 5543 5544
5555 1 82 5525
5556 1 5544 83
5557 1 5528 5545
5558 1 5545 5546
5559 1 5546 5547
5560 1 5547 5548
5561 1 5548 5549
5562 1 5543 5550
5563 1 5550 5551
5564 1 5551 5552
5565 1 5552 5553
5566 1 5553 5554
5567 1 5555 5556
5568 1 5556 5557
5569 1 5557 5558
5570 1 5558 5559
5571 1 5559 5560
5572 1 5560 5561
5573 1 5561 5562
5574 1 5562 5563
5575 1 5563 5564
5576 1 5564 5565
5577 1 5565 5566
5578 1 5566 5567
5579 1 5567 5568
5580 1 5568 5569
5581 1 5569 5570
5582 1 5570 5571
5583 1 5571 5572
5584 1 5572 5573
5585 1 5573 5574
5586 1 82 5555
5587 1 5574 110
5588 1 5558 5575
5589 1 5575 5576
5590 1 5576 5577
5591 1 5577 5578
5592 1 5578 5579
5593 1 5560 5580
5594 1 5580 5581
5595 1 5581 5582
5596 1 5582 5583
5597 1 5583 5584
5598 1 5561 5585
5599 1 5585 5586
5600 1 5586 5587
5601 1 5587 5588
5602 1 5588 5589
5603 1 5564 5590
5604 1 5590 5591
5605 1 5591 5592
5606 1 5592 5593
5607 1 5593 5594
5608 1 5566 5595
5609 1 5595 5596
5610 1 5596 5597
5611 1 5597 5598
5612 1 5598 5599
5613 1 5567 5600
5614 1 5600 5601
5615 1 5601 5602
5616 1 5602 5603
5617 1 5603 5604
5618 1 5572 5605
5619 1 5605 5606
5620 1 5606 5607
5621 1 5607 5608
5622 1 5608 5609
5623 1 5574 5610
5624 1 5610 5611
5625 1 5611 5612
5626 1 5612 5613
5627 1 5613 5614
5628 1 5615 5616
5629 1 5616 5617
5630 1 5617 5618
5631 1 5618 5619
5632 1 5619 5620
5633 1 5620 5621
5634 1 5621 5622
5635 1 5622 5623
5636 1 5623 5624
5637 1 5624 5625
5638 1 5625 5626
5639 1 5626 5627
5640 1 5627 5628
5641 1 5628 5629
5642 1 5629 5630
5643 1 5630 5631
5644 1 5631 5632
5645 1 5632 5633
5646 1 5633 5634
5647 1 83 5615
5648 1 5634 111
5649 1 5615 5635
5650 1 5635 5636
5651 1 5636 5637
5652 1 5637 5638
5653 1 5638 5639
5654 1 5619 5640
5655 1 5640 5641
5656 1 5641 5642
5657 1 5642 5643
5658 1 5643 5644
5659 1 5621 5645
5660 1 5645 5646
5661 1 5646 5647
5662 1 5647 5648
5663 1 5648 5649
5664 1 5650 5651
5665 1 5651 5652
5666 1 5652 5653
5667 1 5653 5654
5668 1 5654 5655
5669 1 5655 5656
5670 1 5656 5657
5671 1 5657 5658
5672 1 5658 5659
5673 1 5659 5660
5674 1 5660 5661
5675 1 5661 5662
5676 1 5662 5663
5677 1 5663 5664
5678 1 5664 5665
5679 1 5665 5666
5680 1 5666 5667
5681 1 5667 5668
5682 1 5668 5669
5683 1 84 5650
5684 1 5669 88
5685 1 5650 5670
5686 1 5670 5671
5687 1 5671 5672
5688 1 5672 5673
5689 1 5673 5674
5690 1 5656 5675
5691 1 5675 5676
5692 1 5676 5677
5693 1 5677 5678
5694 1 5678 5679
5695 1 5661 5680
5696 1 5680 5681
5697 1 5681 5682
5698 1 5682 5683
5699 1 5683 5684
5700 1 5662 5685
5701 1 5685 5686
5702 1 5686 5687
5703 1 5687 5688
5704 1 5688 5689
5705 1 5663 5690
5706 1 5690 5691
5707 1 5691 5692
5708 1 5692 5693
5709 1 5693 5694
5710 1 5665 5695
5711 1 5695 5696
5712 1 5696 5697
5713 1 5697 5698
5714 1 5698 5699
5715 1 5666 5700
5716 1 5700 5701
5717 1 5701 5702
5718 1 5702 5703
5719 1 5703 5704
5720 1 5668 5705
5721 1 5705 5706
5722 1 5706 5707
5723 1 5707 5708
5724 1 5708 5709
5725 1 5710 5711
5726 1 5711 5712
5727 1 5712 5713
5728 1 5713 5714
5729 1 5714 5715
5730 1 5715 5716
5731 1 5716 5717
5732 1 5717 5718
5733 1 5718 5719
5734 1 5719 5720
5735 1 5720 5721
5736 1 5721 5722
5737 1 5722 5723
5738 1 5723 5724
5739 1 5724 5725
5740 1 5725 5726
5741 1 5726 5727
5742 1 5727 5728
5743 1 5728 5729
5744 1 88 5710
5745 1 5729 113
5746 1 5715 5730
5747 1 5730 5731
5748 1 5731 5732
5749 1 5732 5733
5750 1 5733 5734
5751 1 5717 5735
5752 1 5735 5736
5753 1 5736 5737
5754 1 5737 5738
5755 1 5738 5739
5756 1 5720 5740
5757 1 5740 5741
5758 1 5741 5742
5759 1 5742 5743
5760 1 5743 5744
5761 1 5724 5745
5762 1 5745 5746
5763 1 5746 5747
5764 1 5747 5748
5765 1 5748 5749
5766 1 5750 5751
5767 1 5751 5752
5768 1 5752 5753
5769 1 5753 5754
5770 1 5754 5755
5771 1 5755 5756
5772 1 5756 5757
5773 1 5757 5758
5774 1 5758 5759
5775 1 5759 5760
5776 1 5760 5761
5777 1 5761 5762
5778 1 5762 5763
5779 1 5763 5764
5780 1 5764 5765
5781 1 5765 5766
5782 1 5766 5767
5783 1 5767 5768
5784 1 5768 5769
5785 1 88 5750
5786 1 5769 108
5787 1 5758 5770
5788 1 5770 5771
5789 1 5771 5772
5790 1 5772 5773
5791 1 5773 5774
5792 1 5760 5775
5793 1 5775 5776
5794 1 5776 5777
5795 1 5777 5778
5796 1 5778 5779
5797 1 5761 5780
5798 1 5780 5781
5799 1 5781 5782
5800 1 5782 5783
5801 1 5783 5784
5802 1 5763 5785
5803 1 5785 5786
5804 1 5786 5787
5805 1 5787 5788
5806 1 5788 5789
5807 1 5790 5791
5808 1 5791 5792
5809 1 5792 5793
5810 1 5793 5794
5811 1 5794 5795
5812 1 5795 5796
5813 1 5796 5797
5814 1 5797 5798
5815 1 5798 5799
5816 1 5799 5800
5817 1 5800 5801
5818 1 5801 5802
5819 1 5802 5803
5820 1 5803 5804
5821 1 5804 5805
5822 1 5805 5806
5823 1 5806 5807
5824 1 5807 5808
5825 1 5808 5809
5826 1 89 5790
5827 1 5809 90
5828 1 5790 5810
5829 1 5810 5811
5830 1 5811 5812
5831 1 5812 5813
5832 1 5813 5814
5833 1 5795 5815
5834 1 5815 5816
5835 1 5816 5817
5836 1 5817 5818
5837 1 5818 5819
5838 1 5799 5820
5839 1 5820 5821
5840 1 5821 5822
5841 1 5822 5823
5842 1 5823 5824
5843 1 5825 5826
5844 1 5826 5827
5845 1 5827 5828
5846 1 5828 5829
5847 1 5829 5830
5848 1 5830 5831
5849 1 5831 5832
5850 1 5832 5833
5851 1 5833 5834
5852 1 5834 5835
5853 1 5835 5836
5854 1 5836 5837
5855 1 5837 5838
5856 1 5838 5839
5857 1 5839 5840
5858 1 5840 5841
5859 1 5841 5842
5860 1 5842 5843
5861 1 5843 5844
5862 1 89 5825
5863 1 5844 114
5864 1 5826 5845
5865 1 5845 5846
5866 1 5846 5847
5867 1 5847 5848
5868 1 5848 5849
5869 1 5850 5851
5870 1 5851 5852
5871 1 5852 5853
5872 1 5853 5854
5873 1 5854 5855
5874 1 5855 5856
5875 1 5856 5857
5876 1 5857 5858
5877 1 5858 5859
5878 1 5859 5860
5879 1 5860 5861
5880 1 5861 5862
5881 1 5862 5863
5882 1 5863 5864
5883 1 5864 5865
5884 1 5865 5866
5885 1 5866 5867
5886 1 5867 5868
5887 1 5868 5869
5888 1 89 5850
5889 1 5869 109
5890 1 5851 5870
5891 1 5870 5871
5892 1 5871 5872
5893 1 5872 5873
5894 1 5873 5874
5895 1 5854 5875
5896 1 5875 5876
5897 1 5876 5877
5898 1 5877 5878
5899 1 5878 5879
5900 1 5859 5880
5901 1 5880 5881
5902 1 5881 5882
5903 1 5882 5883
5904 1 5883 5884
5905 1 5885 5886
5906 1 5886 5887
5907 1 5887 5888
5908 1 5888 5889
5909 1 5889 5890
5910 1 5890 5891
5911 1 5891 5892
5912 1 5892 5893
5913 1 5893 5894
5914 1 5894 5895
5915 1 5895 5896
5916 1 5896 5897
5917 1 5897 5898
5918 1 5898 5899
5919 1 5899 5900
5920 1 5900 5901
5921 1 5901 5902
5922 1 5902 5903
5923 1 5903 5904
5924 1 90 5885
5925 1 5904 95
5926 1 5893 5905
5927 1 5905 5906
5928 1 5906 5907
5929 1 5907 5908
5930 1 5908 5909
5931 1 5910 5911
5932 1 5911 5912
5933 1 5912 5913
5934 1 5913 5914
5935 1 5914 5915
5936 1 5915 5916
5937 1 5916 5917
5938 1 5917 5918
5939 1 5918 5919
5940 1 5919 5920
5941 1 5920 5921
5942 1 5921 5922
5943 1 5922 5923
5944 1 5923 5924
5945 1 5924 5925
5946 1 5925 5926
5947 1 5926 5927
5948 1 5927 5928
5949 1 5928 5929
5950 1 90 5910
5951 1 5929 115
5952 1 5912 5930
5953 1 5930 5931
5954 1 5931 5932
5955 1 5932 5933
5956 1 5933 5934
5957 1 5923 5935
5958 1 5935 5936
5959 1 5936 5937
5960 1 5937 5938
5961 1 5938 5939
5962 1 5924 5940
5963 1 5940 5941
5964 1 5941 5942
5965 1 5942 5943
5966 1 5943 5944
5967 1 5925 5945
5968 1 5945 5946
5969 1 5946 5947
5970 1 5947 5948
5971 1 5948 5949
5972 1 5950 5951
5973 1 5951 5952
5974 1 5952 5953
5975 1 5953 5954
5976 1 5954 5955
5977 1 5955 5956
5978 1 5956 5957
5979 1 5957 5958
5980 1 5958 5959
5981 1 5959 5960
5982 1 5960 5961
5983 1 5961 5962
5984 1 5962 5963
5985 1 5963 5964
5986 1 5964 5965
5987 1 5965 5966
5988 1 5966 5967
5989 1 5967 5968
5990 1 5968 5969
5991 1 91 5950
5992 1 5969 116
5993 1 5954 5970
5994 1 5970 5971
5995 1 5971 5972
5996 1 5972 5973
5997 1 5973 5974
5998 1 5962 5975
5999 1 5975 5976
6000 1 5976 5977
6001 1 5977 5978
6002 1 5978 5979
6003 1 5968 5980
6004 1 5980 5981
6005 1 5981 5982
6006 1 5982 5983
6007 1 5983 5984
6008 1 5985 5986
6009 1 5986 5987
6010 1 5987 5988
6011 1 5988 5989
6012 1 5989 5990
6013 1 5990 5991
6014 1 5991 5992
6015 1 5992 5993
6016 1 5993 5994
6017 1 5994 5995
6018 1 5995 5996
6019 1 5996 5997
6020 1 5997 5998
6021 1 5998 5999
6022 1 5999 6000
6023 1 6000 6001
6024 1 6001 6002
6025 1 6002 6003
6026 1 6003 6004
6027 1 91 5985
6028 1 6004 111
6029 1 5985 6005
6030 1 6005 6006
6031 1 6006 6007
6032 1 6007 6008
6033 1 6008 6009
6034 1 5988 6010
6035 1 6010 6011
6036 1 6011 6012
6037 1 6012 6013
6038 1 6013 6014
6039 1 5991 6015
6040 1 6015 6016
6041 1 6016 6017
6042 1 6017 6018
6043 1 6018 6019
6044 1 5994 6020
6045 1 6020 6021
6046 1 6021 6022
6047 1 6022 6023
6048 1 6023 6024
6049 1 5995 6025
6050 1 6025 6026
6051 1 6026 6027
6052 1 6027 6028
6053 1 6028 6029
6054 1 5997 6030
6055 1 6030 6031
6056 1 6031 6032
6057 1 6032 6033
6058 1 6033 6034
6059 1 5999 6035
6060 1 6035 6036
6061 1 6036 6037
6062 1 6037 6038
6063 1 6038 6039
6064 1 6002 6040
6065 1 6040 6041
6066 1 6041 6042
6067 1 6042 6043
6068 1 6043 6044
6069 1 6045 6046
6070 1 6046 6047
6071 1 6047 6048
6072 1 6048 6049
6073 1 6049 6050
6074 1 6050 6051
6075 1 6051 6052
6076 1 6052 6053
6077 1 6053 6054
6078 1 6054 6055
6079 1 6055 6056
6080 1 6056 6057
6081 1 6057 6058
6082 1 6058 6059
6083 1 6059 6060
6084 1 6060 6061
6085 1 6061 6062
6086 1 6062 6063
6087 1 6063 6064
6088 1 92 6045
6089 1 6064 93
6090 1 6045 6065
6091 1 6065 6066
6092 1 6066 6067
6093 1 6067 6068
6094 1 6068 6069
6095 1 6048 6070
6096 1 6070 6071
6097 1 6071 6072
6098 1 6072 6073
6099 1 6073 6074
6100 1 6050 6075
6101 1 6075 6076
6102 1 6076 6077
6103 1 6077 6078
6104 1 6078 6079
6105 1 6080 6081
6106 1 6081 6082
6107 1 6082 6083
6108 1 6083 6084
6109 1 6084 6085
6110 1 6085 6086
6111 1 6086 6087
6112 1 6087 6088
6113 1 6088 6089
6114 1 6089 6090
6115 1 6090 6091
6116 1 6091 6092
6117 1 6092 6093
6118 1 6093 6094
6119 1 6094 6095
6120 1 6095 6096
6121 1 6096 6097
6122 1 6097 6098
6123 1 6098 6099
6124 1 92 6080
6125 1 6099 117
6126 1 6081 6100
6127 1 6100 6101
6128 1 6101 6102
6129 1 6102 6103
6130 1 6103 6104
6131 1 6082 6105
6132 1 6105 6106
6133 1 6106 6107
6134 1 6107 6108
6135 1 6108 6109
6136 1 6089 6110
6137 1 6110 6111
6138 1 6111 6112
6139 1 6112 6113
6140 1 6113 6114
6141 1 6094 6115
6142 1 6115 6116
6143 1 6116 6117
6144 1 6117 6118
6145 1 6118 6119
6146 1 6120 6121
6147 1 6121 6122
6148 1 6122 6123
6149 1 6123 6124
6150 1 6124 6125
6151 1 6125 6126
6152 1 6126 6127
6153 1 6127 6128
6154 1 6128 6129
6155 1 6129 6130
6156 1 6130 6131
6157 1 6131 6132
6158 1 6132 6133
6159 1 6133 6134
6160 1 6134 6135
6161 1 6135 6136
6162 1 6136 6137
6163 1 6137 6138
6164 1 6138 6139
6165 1 93 6120
6166 1 6139 94
6167 1 6123 6140
6168 1 6140 6141
6169 1 6141 6142
6170 1 6142 6143
6171 1 6143 6144
6172 1 6133 6145
6173 1 6145 6146
6174 1 6146 6147
6175 1 6147 6148
6176 1 6148 6149
6177 1 6135 6150
6178 1 6150 6151
6179 1 6151 6152
6180 1 6152 6153
6181 1 6153 6154
6182 1 6155 6156
6183 1 6156 6157
6184 1 6157 6158
6185 1 6158 6159
6186 1 6159 6160
6187 1 6160 6161
6188 1 6161 6162
6189 1 6162 6163
6190 1 6163 6164
6191 1 6164 6165
6192 1 6165 6166
6193 1 6166 6167
6194 1 6167 6168
6195 1 6168 6169
6196 1 6169 6170
6197 1 6170 6171
6198 1 6171 6172
6199 1 6172 6173
6200 1 6173 6174
6201 1 93 6155
6202 1 6174 118
6203 1 6160 6175
6204 1 6175 6176
6205 1 6176 6177
6206 1 6177 6178
6207 1 6178 6179
6208 1 6162 6180
6209 1 6180 6181
6210 1 6181 6182
6211 1 6182 6183
6212 1 6183 6184
6213 1 6168 6185
6214 1 6185 6186
6215 1 6186 6187
6216 1 6187 6188
6217 1 6188 6189
6218 1 6169 6190
6219 1 6190 6191
6220 1 6191 6192
6221 1 6192 6193
6222 1 6193 6194
6223 1 6173 6195
6224 1 6195 6196
6225 1 6196 6197
6226 1 6197 6198
6227 1 6198 6199
6228 1 6174 6200
6229 1 6200 6201
6230 1 6201 6202
6231 1 6202 6203
6232 1 6203 6204
6233 1 6205 6206
6234 1 6206 6207
6235 1 6207 6208
6236 1 6208 6209
6237 1 6209 6210
6238 1 6210 6211
6239 1 6211 6212
6240 1 6212 6213
6241 1 6213 6214
6242 1 6214 6215
6243 1 6215 6216
6244 1 6216 6217
6245 1 6217 6218
6246 1 6218 6219
6247 1 6219 6220
6248 1 6220 6221
6249 1 6221 6222
6250 1 6222 6223
6251 1 6223 6224
6252 1 94 6205
6253 1 6224 95
6254 1 6225 6226
6255 1 6226 6227
6256 1 6227 6228
6257 1 6228 6229
6258 1 6229 6230
6259 1 6230 6231
6260 1 6231 6232
6261 1 6232 6233
6262 1 6233 6234
6263 1 6234 6235
6264 1 6235 6236
6265 1 6236 6237
6266 1 6237 6238
6267 1 6238 6239
6268 1 6239 6240
6269 1 6240 6241
6270 1 6241 6242
6271 1 6242 6243
6272 1 6243 6244
6273 1 94 6225
6274 1 6244 99
6275 1 6228 6245
6276 1 6245 6246
6277 1 6246 6247
6278 1 6247 6248
6279 1 6248 6249
6280 1 6234 6250
6281 1 6250 6251
6282 1 6251 6252
6283 1 6252 6253
6284 1 6253 6254
6285 1 6235 6255
6286 1 6255 6256
6287 1 6256 6257
6288 1 6257 6258
6289 1 6258 6259
6290 1 6240 6260
6291 1 6260 6261
6292 1 6261 6262
6293 1 6262 6263
6294 1 6263 6264
6295 1 6241 6265
6296 1 6265 6266
6297 1 6266 6267
6298 1 6267 6268
6299 1 6268 6269
6300 1 6270 6271
6301 1 6271 6272
6302 1 6272 6273
6303 1 6273 6274
6304 1 6274 6275
6305 1 6275 6276
6306 1 6276 6277
6307 1 6277 6278
6308 1 6278 6279
6309 1 6279 6280
6310 1 6280 6281
6311 1 6281 6282
6312 1 6282 6283
6313 1 6283 6284
6314 1 6284 6285
6315 1 6285 6286
6316 1 6286 6287
6317 1 6287 6288
6318 1 6288 6289
6319 1 94 6270
6320 1 6289 119
6321 1 6286 6290
6322 1 6290 6291
6323 1 6291 6292
6324 1 6292 6293
6325 1 6293 6294
6326 1 6295 6296
6327 1 6296 6297
6328 1 6297 6298
6329 1 6298 6299
6330 1 6299 6300
6331 1 6300 6301
6332 1 6301 6302
6333 1 6302 6303
6334 1 6303 6304
6335 1 6304 6305
6336 1 6305 6306
6337 1 6306 6307
6338 1 6307 6308
6339 1 6308 6309
6340 1 6309 6310
6341 1 6310 6311
6342 1 6311 6312
6343 1 6312 6313
6344 1 6313 6314
6345 1 95 6295
6346 1 6314 100
6347 1 6295 6315
6348 1 6315 6316
6349 1 6316 6317
6350 1 6317 6318
6351 1 6318 6319
6352 1 6304 6320
6353 1 6320 6321
6354 1 6321 6322
6355 1 6322 6323
6356 1 6323 6324
6357 1 6307 6325
6358 1 6325 6326
6359 1 6326 6327
6360 1 6327 6328
6361 1 6328 6329
6362 1 6309 6330
6363 1 6330 6331
6364 1 6331 6332
6365 1 6332 6333
6366 1 6333 6334
6367 1 6335 6336
6368 1 6336 6337
6369 1 6337 6338
6370 1 6338 6339
6371 1 6339 6340
6372 1 6340 6341
6373 1 6341 6342
6374 1 6342 6343
6375 1 6343 6344
6376 1 6344 6345
6377 1 6345 6346
6378 1 6346 6347
6379 1 6347 6348
6380 1 6348 6349
6381 1 6349 6350
6382 1 6350 6351
6383 1 6351 6352
6384 1 6352 6353
6385 1 6353 6354
6386 1 96 6335
6387 1 6354 101
6388 1 6339 6355
6389 1 6355 6356
6390 1 6356 6357
6391 1 6357 6358
6392 1 6358 6359
6393 1 6343 6360
6394 1 6360 6361
6395 1 6361 6362
6396 1 6362 6363
6397 1 6363 6364
6398 1 6351 6365
6399 1 6365 6366
6400 1 6366 6367
6401 1 6367 6368
6402 1 6368 6369
6403 1 6353 6370
6404 1 6370 6371
6405 1 6371 6372
6406 1 6372 6373
6407 1 6373 6374
6408 1 6354 6375
6409 1 6375 6376
6410 1 6376 6377
6411 1 6377 6378
6412 1 6378 6379
6413 1 6380 6381
6414 1 6381 6382
6415 1 6382 6383
6416 1 6383 6384
6417 1 6384 6385
6418 1 6385 6386
6419 1 6386 6387
6420 1 6387 6388
6421 1 6388 6389
6422 1 6389 6390
6423 1 6390 6391
6424 1 6391 6392
6425 1 6392 6393
6426 1 6393 6394
6427 1 6394 6395
6428 1 6395 6396
6429 1 6396 6397
6430 1 6397 6398
6431 1 6398 6399
6432 1 96 6380
6433 1 6399 121
6434 1 6380 6400
6435 1 6400 6401
6436 1 6401 6402
6437 1 6402 6403
6438 1 6403 6404
6439 1 6382 6405
6440 1 6405 6406
6441 1 6406 6407
6442 1 6407 6408
6443 1 6408 6409
6444 1 6384 6410
6445 1 6410 6411
6446 1 6411 6412
6447 1 6412 6413
6448 1 6413 6414
6449 1 6390 6415
6450 1 6415 6416
6451 1 6416 6417
6452 1 6417 6418
6453 1 6418 6419
6454 1 6391 6420
6455 1 6420 6421
6456 1 6421 6422
6457 1 6422 6423
6458 1 6423 6424
6459 1 6393 6425
6460 1 6425 6426
6461 1 6426 6427
6462 1 6427 6428
6463 1 6428 6429
6464 1 6397 6430
6465 1 6430 6431
6466 1 6431 6432
6467 1 6432 6433
6468 1 6433 6434
6469 1 6435 6436
6470 1 6436 6437
6471 1 6437 6438
6472 1 6438 6439
6473 1 6439 6440
6474 1 6440 6441
6475 1 6441 6442
6476 1 6442 6443
6477 1 6443 6444
6478 1 6444 6445
6479 1 6445 6446
6480 1 6446 6447
6481 1 6447 6448
6482 1 6448 6449
6483 1 6449 6450
6484 1 6450 6451
6485 1 6451 6452
6486 1 6452 6453
6487 1 6453 6454
6488 1 97 6435
6489 1 6454 102
6490 1 6437 6455
6491 1 6455 6456
6492 1 6456 6457
6493 1 6457 6458
6494 1 6458 6459
6495 1 6439 6460
6496 1 6460 6461
6497 1 6461 6462
6498 1 6462 6463
6499 1 6463 6464
6500 1 6441 6465
6501 1 6465 6466
6502 1 6466 6467
6503 1 6467 6468
6504 1 6468 6469
6505 1 6443 6470
6506 1 6470 6471
6507 1 6471 6472
6508 1 6472 6473
6509 1 6473 6474
6510 1 6445 6475
6511 1 6475 6476
6512 1 6476 6477
6513 1 6477 6478
6514 1 6478 6479
6515 1 6453 6480
6516 1 6480 6481
6517 1 6481 6482
6518 1 6482 6483
6519 1 6483 6484
6520 1 6485 6486
6521 1 6486 6487
6522 1 6487 6488
6523 1 6488 6489
6524 1 6489 6490
6525 1 6490 6491
6526 1 6491 6492
6527 1 6492 6493
6528 1 6493 6494
6529 1 6494 6495
6530 1 6495 6496
6531 1 6496 6497
6532 1 6497 6498
6533 1 6498 6499
6534 1 6499 6500
6535 1 6500 6501
6536 1 6501 6502
6537 1 6502 6503
6538 1 6503 6504
6539 1 97 6485
6540 1 6504 122
6541 1 6486 6505
6542 1 6505 6506
6543 1 6506 6507
6544 1 6507 6508
6545 1 6508 6509
6546 1 6487 6510
6547 1 6510 6511
6548 1 6511 6512
6549 1 6512 6513
6550 1 6513 6514
6551 1 6493 6515
6552 1 6515 6516
6553 1 6516 6517
6554 1 6517 6518
6555 1 6518 6519
6556 1 6520 6521
6557 1 6521 6522
6558 1 6522 6523
6559 1 6523 6524
6560 1 6524 6525
6561 1 6525 6526
6562 1 6526 6527
6563 1 6527 6528
6564 1 6528 6529
6565 1 6529 6530
6566 1 6530 6531
6567 1 6531 6532
6568 1 6532 6533
6569 1 6533 6534
6570 1 6534 6535
6571 1 6535 6536
6572 1 6536 6537
6573 1 6537 6538
6574 1 6538 6539
6575 1 97 6520
6576 1 6539 101
6577 1 6520 6540
6578 1 6540 6541
6579 1 6541 6542
6580 1 6542 6543
6581 1 6543 6544
6582 1 6522 6545
6583 1 6545 6546
6584 1 6546 6547
6585 1 6547 6548
6586 1 6548 6549
6587 1 6528 6550
6588 1 6550 6551
6589 1 6551 6552
6590 1 6552 6553
6591 1 6553 6554
6592 1 6532 6555
6593 1 6555 6556
6594 1 6556 6557
6595 1 6557 6558
6596 1 6558 6559
6597 1 6533 6560
6598 1 6560 6561
6599 1 6561 6562
6600 1 6562 6563
6601 1 6563 6564
6602 1 6539 6565
6603 1 6565 6566
6604 1 6566 6567
6605 1 6567 6568
6606 1 6568 6569
6607 1 6570 6571
6608 1 6571 6572
6609 1 6572 6573
6610 1 6573 6574
6611 1 6574 6575
6612 1 6575 6576
6613 1 6576 6577
6614 1 6577 6578
6615 1 6578 6579
6616 1 6579 6580
6617 1 6580 6581
6618 1 6581 6582
6619 1 6582 6583
6620 1 6583 6584
6621 1 6584 6585
6622 1 6585 6586
6623 1 6586 6587
6624 1 6587 6588
6625 1 6588 6589
6626 1 98 6570
6627 1 6589 99
6628 1 6575 6590
6629 1 6590 6591
6630 1 6591 6592
6631 1 6592 6593
6632 1 6593 6594
6633 1 6581 6595
6634 1 6595 6596
6635 1 6596 6597
6636 1 6597 6598
6637 1 6598 6599
6638 1 6588 6600
6639 1 6600 6601
6640 1 6601 6602
6641 1 6602 6603
6642 1 6603 6604
6643 1 6605 6606
6644 1 6606 6607
6645 1 6607 6608
6646 1 6608 6609
6647 1 6609 6610
6648 1 6610 6611
6649 1 6611 6612
6650 1 6612 6613
6651 1 6613 6614
6652 1 6614 6615
6653 1 6615 6616
6654 1 6616 6617
6655 1 6617 6618
6656 1 6618 6619
6657 1 6619 6620
6658 1 6620 6621
6659 1 6621 6622
6660 1 6622 6623
6661 1 6623 6624
6662 1 98 6605
6663 1 6624 123
6664 1 6605 6625
6665 1 6625 6626
6666 1 6626 6627
6667 1 6627 6628
6668 1 6628 6629
6669 1 6607 6630
6670 1 6630 6631
6671 1 6631 6632
6672 1 6632 6633
6673 1 6633 6634
6674 1 6615 6635
6675 1 6635 6636
6676 1 6636 6637
6677 1 6637 6638
6678 1 6638 6639
6679 1 6621 6640
6680 1 6640 6641
6681 1 6641 6642
6682 1 6642 6643
6683 1 6643 6644
6684 1 6645 6646
6685 1 6646 6647
6686 1 6647 6648
6687 1 6648 6649
6688 1 6649 6650
6689 1 6650 6651
6690 1 6651 6652
6691 1 6652 6653
6692 1 6653 6654
6693 1 6654 6655
6694 1 6655 6656
6695 1 6656 6657
6696 1 6657 6658
6697 1 6658 6659
6698 1 6659 6660
6699 1 6660 6661
6700 1 6661 6662
6701 1 6662 6663
6702 1 6663 6664
6703 1 99 6645
6704 1 6664 104
6705 1 6647 6665
6706 1 6665 6666
6707 1 6666 6667
6708 1 6667 6668
6709 1 6668 6669
6710 1 6650 6670
6711 1 6670 6671
6712 1 6671 6672
6713 1 6672 6673
6714 1 6673 6674
6715 1 6655 6675
6716 1 6675 6676
6717 1 6676 6677
6718 1 6677 6678
6719 1 6678 6679
6720 1 6659 6680
6721 1 6680 6681
6722 1 6681 6682
6723 1 6682 6683
6724 1 6683 6684
6725 1 6685 6686
6726 1 6686 6687
6727 1 6687 6688
6728 1 6688 6689
6729 1 6689 6690
6730 1 6690 6691
6731 1 6691 6692
6732 1 6692 6693
6733 1 6693 6694
6734 1 6694 6695
6735 1 6695 6696
6736 1 6696 6697
6737 1 6697 6698
6738 1 6698 6699
6739 1 6699 6700
6740 1 6700 6701
6741 1 6701 6702
6742 1 6702 6703
6743 1 6703 6704
6744 1 100 6685
6745 1 6704 101
6746 1 6686 6705
6747 1 6705 6706
6748 1 6706 6707
6749 1 6707 6708
6750 1 6708 6709
6751 1 6693 6710
6752 1 6710 6711
6753 1 6711 6712
6754 1 6712 6713
6755 1 6713 6714
6756 1 6701 6715
6757 1 6715 6716
6758 1 6716 6717
6759 1 6717 6718
6760 1 6718 6719
6761 1 6702 6720
6762 1 6720 6721
6763 1 6721 6722
6764 1 6722 6723
6765 1 6723 6724
6766 1 6725 6726
6767 1 6726 6727
6768 1 6727 6728
6769 1 6728 6729
6770 1 6729 6730
6771 1 6730 6731
6772 1 6731 6732
6773 1 6732 6733
6774 1 6733 6734
6775 1 6734 6735
6776 1 6735 6736
6777 1 6736 6737
6778 1 6737 6738
6779 1 6738 6739
6780 1 6739 6740
6781 1 6740 6741
6782 1 6741 6742
6783 1 6742 6743
6784 1 6743 6744
6785 1 100 6725
6786 1 6744 105
6787 1 6725 6745
6788 1 6745 6746
6789 1 6746 6747
6790 1 6747 6748
6791 1 6748 6749
6792 1 6740 6750
6793 1 6750 6751
6794 1 6751 6752
6795 1 6752 6753
6796 1 6753 6754
6797 1 6743 6755
6798 1 6755 6756
6799 1 6756 6757
6800 1 6757 6758
6801 1 6758 6759
6802 1 6760 6761
6803 1 6761 6762
6804 1 6762 6763
6805 1 6763 6764
6806 1 6764 6765
6807 1 6765 6766
6808 1 6766 6767
6809 1 6767 6768
6810 1 6768 6769
6811 1 6769 6770
6812 1 6770 6771
6813 1 6771 6772
6814 1 6772 6773
6815 1 6773 6774
6816 1 6774 6775
6817 1 6775 6776
6818 1 6776 6777
6819 1 6777 6778
6820 1 6778 6779
6821 1 101 6760
6822 1 6779 126
6823 1 6763 6780
6824 1 6780 6781
6825 1 6781 6782
6826 1 6782 6783
6827 1 6783 6784
6828 1 6771 6785
6829 1 6785 6786
6830 1 6786 6787
6831 1 6787 6788
6832 1 6788 6789
6833 1 6790 6791
6834 1 6791 6792
6835 1 6792 6793
6836 1 6793 6794
6837 1 6794 6795
6838 1 6795 6796
6839 1 6796 6797
6840 1 6797 6798
6841 1 6798 6799
6842 1 6799 6800
6843 1 6800 6801
6844 1 6801 6802
6845 1 6802 6803
6846 1 6803 6804
6847 1 6804 6805
6848 1 6805 6806
6849 1 6806 6807
6850 1 6807 6808
6851 1 6808 6809
6852 1 102 6790
6853 1 6809 103
6854 1 6794 6810
6855 1 6810 6811
6856 1 6811 6812
6857 1 6812 6813
6858 1 6813 6814
6859 1 6795 6815
6860 1 6815 6816
6861 1 6816 6817
6862 1 6817 6818
6863 1 6818 6819
6864 1 6798 6820
6865 1 6820 6821
6866 1 6821 6822
6867 1 6822 6823
6868 1 6823 6824
6869 1 6799 6825
6870 1 6825 6826
6871 1 6826 6827
6872 1 6827 6828
6873 1 6828 6829
6874 1 6803 6830
6875 1 6830 6831
6876 1 6831 6832
6877 1 6832 6833
6878 1 6833 6834
6879 1 6835 6836
6880 1 6836 6837
6881 1 6837 6838
6882 1 6838 6839
6883 1 6839 6840
6884 1 6840 6841
6885 1 6841 6842
6886 1 6842 6843
6887 1 6843 6844
6888 1 6844 6845
6889 1 6845 6846
6890 1 6846 6847
6891 1 6847 6848
6892 1 6848 6849
6893 1 6849 6850
6894 1 6850 6851
6895 1 6851 6852
6896 1 6852 6853
6897 1 6853 6854
6898 1 102 6835
6899 1 6854 106
6900 1 6835 6855
6901 1 6855 6856
6902 1 6856 6857
6903 1 6857 6858
6904 1 6858 6859
6905 1 6842 6860
6906 1 6860 6861
6907 1 6861 6862
6908 1 6862 6863
6909 1 6863 6864
6910 1 6848 6865
6911 1 6865 6866
6912 1 6866 6867
6913 1 6867 6868
6914 1 6868 6869
6915 1 6849 6870
6916 1 6870 6871
6917 1 6871 6872
6918 1 6872 6873
6919 1 6873 6874
6920 1 6852 6875
6921 1 6875 6876
6922 1 6876 6877
6923 1 6877 6878
6924 1 6878 6879
6925 1 6880 6881
6926 1 6881 6882
6927 1 6882 6883
6928 1 6883 6884
6929 1 6884 6885
6930 1 6885 6886
6931 1 6886 6887
6932 1 6887 6888
6933 1 6888 6889
6934 1 6889 6890
6935 1 6890 6891
6936 1 6891 6892
6937 1 6892 6893
6938 1 6893 6894
6939 1 6894 6895
6940 1 6895 6896
6941 1 6896 6897
6942 1 6897 6898
6943 1 6898 6899
6944 1 103 6880
6945 1 6899 108
6946 1 6885 6900
6947 1 6900 6901
6948 1 6901 6902
6949 1 6902 6903
6950 1 6903 6904
6951 1 6893 6905
6952 1 6905 6906
6953 1 6906 6907
6954 1 6907 6908
6955 1 6908 6909
6956 1 6898 6910
6957 1 6910 6911
6958 1 6911 6912
6959 1 6912 6913
6960 1 6913 6914
6961 1 6915 6916
6962 1 6916 6917
6963 1 6917 6918
6964 1 6918 6919
6965 1 6919 6920
6966 1 6920 6921
6967 1 6921 6922
6968 1 6922 6923
6969 1 6923 6924
6970 1 6924 6925
6971 1 6925 6926
6972 1 6926 6927
6973 1 6927 6928
6974 1 6928 6929
6975 1 6929 6930
6976 1 6930 6931
6977 1 6931 6932
6978 1 6932 6933
6979 1 6933 6934
6980 1 103 6915
6981 1 6934 131
6982 1 6916 6935
6983 1 6935 6936
6984 1 6936 6937
6985 1 6937 6938
6986 1 6938 6939
6987 1 6919 6940
6988 1 6940 6941
6989 1 6941 6942
6990 1 6942 6943
6991 1 6943 6944
6992 1 6920 6945
6993 1 6945 6946
6994 1 6946 6947
6995 1 6947 6948
6996 1 6948 6949
6997 1 6933 6950
6998 1 6950 6951
6999 1 6951 6952
7000 1 6952 6953
7001 1 6953 6954
7002 1 6955 6956
7003 1 6956 6957
7004 1 6957 6958
7005 1 6958 6959
7006 1 6959 6960
7007 1 6960 6961
7008 1 6961 6962
7009 1 6962 6963
7010 1 6963 6964
7011 1 6964 6965
7012 1 6965 6966
7013 1 6966 6967
7014 1 6967 6968
7015 1 6968 6969
7016 1 6969 6970
7017 1 6970 6971
7018 1 6971 6972
7019 1 6972 6973
7020 1 6973 6974
7021 1 104 6955
7022 1 6974 132
7023 1 6956 6975
7024 1 6975 6976
7025 1 6976 6977
7026 1 6977 6978
7027 1 6978 6979
7028 1 6959 6980
7029 1 6980 6981
7030 1 6981 6982
7031 1 6982 6983
7032 1 6983 6984
7033 1 6960 6985
7034 1 6985 6986
7035 1 6986 6987
7036 1 6987 6988
7037 1 6988 6989
7038 1 6962 6990
7039 1 6990 6991
7040 1 6991 6992
7041 1 6992 6993
7042 1 6993 6994
7043 1 6967 6995
7044 1 6995 6996
7045 1 6996 6997
7046 1 6997 6998
7047 1 6998 6999
7048 1 6968 7000
7049 1 7000 7001
7050 1 7001 7002
7051 1 7002 7003
7052 1 7003 7004
7053 1 6972 7005
7054 1 7005 7006
7055 1 7006 7007
7056 1 7007 7008
7057 1 7008 7009
7058 1 6974 7010
7059 1 7010 7011
7060 1 7011 7012
7061 1 7012 7013
7062 1 7013 7014
7063 1 7015 7016
7064 1 7016 7017
7065 1 7017 7018
7066 1 7018 7019
7067 1 7019 7020
7068 1 7020 7021
7069 1 7021 7022
7070 1 7022 7023
7071 1 7023 7024
7072 1 7024 7025
7073 1 7025 7026
7074 1 7026 7027
7075 1 7027 7028
7076 1 7028 7029
7077 1 7029 7030
7078 1 7030 7031
7079 1 7031 7032
7080 1 7032 7033
7081 1 7033 7034
7082 1 105 7015
7083 1 7034 106
7084 1 7026 7035
7085 1 7035 7036
7086 1 7036 7037
7087 1 7037 7038
7088 1 7038 7039
7089 1 7027 7040
7090 1 7040 7041
7091 1 7041 7042
7092 1 7042 7043
7093 1 7043 7044
7094 1 7028 7045
7095 1 7045 7046
7096 1 7046 7047
7097 1 7047 7048
7098 1 7048 7049
7099 1 7031 7050
7100 1 7050 7051
7101 1 7051 7052
7102 1 7052 7053
7103 1 7053 7054
7104 1 7033 7055
7105 1 7055 7056
7106 1 7056 7057
7107 1 7057 7058
7108 1 7058 7059
7109 1 7060 7061
7110 1 7061 7062
7111 1 7062 7063
7112 1 7063 7064
7113 1 7064 7065
7114 1 7065 7066
7115 1 7066 7067
7116 1 7067 7068
7117 1 7068 7069
7118 1 7069 7070
7119 1 7070 7071
7120 1 7071 7072
7121 1 7072 7073
7122 1 7073 7074
7123 1 7074 7075
7124 1 7075 7076
7125 1 7076 7077
7126 1 7077 7078
7127 1 7078 7079
7128 1 105 7060
7129 1 7079 110
7130 1 7062 7080
7131 1 7080 7081
7132 1 7081 7082
7133 1 7082 7083
7134 1 7083 7084
7135 1 7063 7085
7136 1 7085 7086
7137 1 7086 7087
7138 1 7087 7088
7139 1 7088 7089
7140 1 7065 7090
7141 1 7090 7091
7142 1 7091 7092
7143 1 7092 7093
7144 1 7093 7094
7145 1 7066 7095
7146 1 7095 7096
7147 1 7096 7097
7148 1 7097 7098
7149 1 7098 7099
7150 1 7075 7100
7151 1 7100 7101
7152 1 7101 7102
7153 1 7102 7103
7154 1 7103 7104
7155 1 7105 7106
7156 1 7106 7107
7157 1 7107 7108
7158 1 7108 7109
7159 1 7109 7110
7160 1 7110 7111
7161 1 7111 7112
7162 1 7112 7113
7163 1 7113 7114
7164 1 7114 7115
7165 1 7115 7116
7166 1 7116 7117
7167 1 7117 7118
7168 1 7118 7119
7169 1 7119 7120
7170 1 7120 7121
7171 1 7121 7122
7172 1 7122 7123
7173 1 7123 7124
7174 1 105 7105
7175 1 7124 133
7176 1 7122 7125
7177 1 7125 7126
7178 1 7126 7127
7179 1 7127 7128
7180 1 7128 7129
7181 1 7123 7130
7182 1 7130 7131
7183 1 7131 7132
7184 1 7132 7133
7185 1 7133 7134
7186 1 7135 7136
7187 1 7136 7137
7188 1 7137 7138
7189 1 7138 7139
7190 1 7139 7140
7191 1 7140 7141
7192 1 7141 7142
7193 1 7142 7143
7194 1 7143 7144
7195 1 7144 7145
7196 1 7145 7146
7197 1 7146 7147
7198 1 7147 7148
7199 1 7148 7149
7200 1 7149 7150
7201 1 7150 7151
7202 1 7151 7152
7203 1 7152 7153
7204 1 7153 7154
7205 1 106 7135
7206 1 7154 134
7207 1 7135 7155
7208 1 7155 7156
7209 1 7156 7157
7210 1 7157 7158
7211 1 7158 7159
7212 1 7137 7160
7213 1 7160 7161
7214 1 7161 7162
7215 1 7162 7163
7216 1 7163 7164
7217 1 7139 7165
7218 1 7165 7166
7219 1 7166 7167
7220 1 7167 7168
7221 1 7168 7169
7222 1 7143 7170
7223 1 7170 7171
7224 1 7171 7172
7225 1 7172 7173
7226 1 7173 7174
7227 1 7144 7175
7228 1 7175 7176
7229 1 7176 7177
7230 1 7177 7178
7231 1 7178 7179
7232 1 7147 7180
7233 1 7180 7181
7234 1 7181 7182
7235 1 7182 7183
7236 1 7183 7184
7237 1 7152 7185
7238 1 7185 7186
7239 1 7186 7187
7240 1 7187 7188
7241 1 7188 7189
7242 1 7154 7190
7243 1 7190 7191
7244 1 7191 7192
7245 1 7192 7193
7246 1 7193 7194
7247 1 7195 7196
7248 1 7196 7197
7249 1 7197 7198
7250 1 7198 7199
7251 1 7199 7200
7252 1 7200 7201
7253 1 7201 7202
7254 1 7202 7203
7255 1 7203 7204
7256 1 7204 7205
7257 1 7205 7206
7258 1 7206 7207
7259 1 7207 7208
7260 1 7208 7209
7261 1 7209 7210
7262 1 7210 7211
7263 1 7211 7212
7264 1 7212 7213
7265 1 7213 7214
7266 1 107 7195
7267 1 7214 108
7268 1 7197 7215
7269 1 7215 7216
7270 1 7216 7217
7271 1 7217 7218
7272 1 7218 7219
7273 1 7200 7220
7274 1 7220 7221
7275 1 7221 7222
7276 1 7222 7223
7277 1 7223 7224
7278 1 7201 7225
7279 1 7225 7226
7280 1 7226 7227
7281 1 7227 7228
7282 1 7228 7229
7283 1 7204 7230
7284 1 7230 7231
7285 1 7231 7232
7286 1 7232 7233
7287 1 7233 7234
7288 1 7205 7235
7289 1 7235 7236
7290 1 7236 7237
7291 1 7237 7238
7292 1 7238 7239
7293 1 7210 7240
7294 1 7240 7241
7295 1 7241 7242
7296 1 7242 7243
7297 1 7243 7244
7298 1 7213 7245
7299 1 7245 7246
7300 1 7246 7247
7301 1 7247 7248
7302 1 7248 7249
7303 1 7250 7251
7304 1 7251 7252
7305 1 7252 7253
7306 1 7253 7254
7307 1 7254 7255
7308 1 7255 7256
7309 1 7256 7257
7310 1 7257 7258
7311 1 7258 7259
7312 1 7259 7260
7313 1 7260 7261
7314 1 7261 7262
7315 1 7262 7263
7316 1 7263 7264
7317 1 7264 7265
7318 1 7265 7266
7319 1 7266 7267
7320 1 7267 7268
7321 1 7268 7269
7322 1 107 7250
7323 1 7269 135
7324 1 7254 7270
7325 1 7270 7271
7326 1 7271 7272
7327 1 7272 7273
7328 1 7273 7274
7329 1 7275 7276
7330 1 7276 7277
7331 1 7277 7278
7332 1 7278 7279
7333 1 7279 7280
7334 1 7280 7281
7335 1 7281 7282
7336 1 7282 7283
7337 1 7283 7284
7338 1 7284 7285
7339 1 7285 7286
7340 1 7286 7287
7341 1 7287 7288
7342 1 7288 7289
7343 1 7289 7290
7344 1 7290 7291
7345 1 7291 7292
7346 1 7292 7293
7347 1 7293 7294
7348 1 107 7275
7349 1 7294 111
7350 1 7276 7295
7351 1 7295 7296
7352 1 7296 7297
7353 1 7297 7298
7354 1 7298 7299
7355 1 7282 7300
7356 1 7300 7301
7357 1 7301 7302
7358 1 7302 7303
7359 1 7303 7304
7360 1 7292 7305
7361 1 7305 7306
7362 1 7306 7307
7363 1 7307 7308
7364 1 7308 7309
7365 1 7294 7310
7366 1 7310 7311
7367 1 7311 7312
7368 1 7312 7313
7369 1 7313 7314
7370 1 7315 7316
7371 1 7316 7317
7372 1 7317 7318
7373 1 7318 7319
7374 1 7319 7320
7375 1 7320 7321
7376 1 7321 7322
7377 1 7322 7323
7378 1 7323 7324
7379 1 7324 7325
7380 1 7325 7326
7381 1 7326 7327
7382 1 7327 7328
7383 1 7328 7329
7384 1 7329 7330
7385 1 7330 7331
7386 1 7331 7332
7387 1 7332 7333
7388 1 7333 7334
7389 1 108 7315
7390 1 7334 136
7391 1 7315 7335
7392 1 7335 7336
7393 1 7336 7337
7394 1 7337 7338
7395 1 7338 7339
7396 1 7316 7340
7397 1 7340 7341
7398 1 7341 7342
7399 1 7342 7343
7400 1 7343 7344
7401 1 7320 7345
7402 1 7345 7346
7403 1 7346 7347
7404 1 7347 7348
7405 1 7348 7349
7406 1 7350 7351
7407 1 7351 7352
7408 1 7352 7353
7409 1 7353 7354
7410 1 7354 7355
7411 1 7355 7356
7412 1 7356 7357
7413 1 7357 7358
7414 1 7358 7359
7415 1 7359 7360
7416 1 7360 7361
7417 1 7361 7362
7418 1 7362 7363
7419 1 7363 7364
7420 1 7364 7365
7421 1 7365 7366
7422 1 7366 7367
7423 1 7367 7368
7424 1 7368 7369
7425 1 109 7350
7426 1 7369 110
7427 1 7351 7370
7428 1 7370 7371
7429 1 7371 7372
7430 1 7372 7373
7431 1 7373 7374
7432 1 7356 7375
7433 1 7375 7376
7434 1 7376 7377
7435 1 7377 7378
7436 1 7378 7379
7437 1 7360 7380
7438 1 7380 7381
7439 1 7381 7382
7440 1 7382 7383
7441 1 7383 7384
7442 1 7361 7385
7443 1 7385 7386
7444 1 7386 7387
7445 1 7387 7388
7446 1 7388 7389
7447 1 7365 7390
7448 1 7390 7391
7449 1 7391 7392
7450 1 7392 7393
7451 1 7393 7394
7452 1 7367 7395
7453 1 7395 7396
7454 1 7396 7397
7455 1 7397 7398
7456 1 7398 7399
7457 1 7400 7401
7458 1 7401 7402
7459 1 7402 7403
7460 1 7403 7404
7461 1 7404 7405
7462 1 7405 7406
7463 1 7406 7407
7464 1 7407 7408
7465 1 7408 7409
7466 1 7409 7410
7467 1 7410 7411
7468 1 7411 7412
7469 1 7412 7413
7470 1 7413 7414
7471 1 7414 7415
7472 1 7415 7416
7473 1 7416 7417
7474 1 7417 7418
7475 1 7418 7419
7476 1 109 7400
7477 1 7419 137
7478 1 7409 7420
7479 1 7420 7421
7480 1 7421 7422
7481 1 7422 7423
7482 1 7423 7424
7483 1 7414 7425
7484 1 7425 7426
7485 1 7426 7427
7486 1 7427 7428
7487 1 7428 7429
7488 1 7430 7431
7489 1 7431 7432
7490 1 7432 7433
7491 1 7433 7434
7492 1 7434 7435
7493 1 7435 7436
7494 1 7436 7437
7495 1 7437 7438
7496 1 7438 7439
7497 1 7439 7440
7498 1 7440 7441
7499 1 7441 7442
7500 1 7442 7443
7501 1 7443 7444
7502 1 7444 7445
7503 1 7445 7446
7504 1 7446 7447
7505 1 7447 7448
7506 1 7448 7449
7507 1 110 7430
7508 1 7449 138
7509 1 7443 7450
7510 1 7450 7451
7511 1 7451 7452
7512 1 7452 7453
7513 1 7453 7454
7514 1 7449 7455
7515 1 7455 7456
7516 1 7456 7457
7517 1 7457 7458
7518 1 7458 7459
7519 1 7460 7461
7520 1 7461 7462
7521 1 7462 7463
7522 1 7463 7464
7523 1 7464 7465
7524 1 7465 7466
7525 1 7466 7467
7526 1 7467 7468
7527 1 7468 7469
7528 1 7469 7470
7529 1 7470 7471
7530 1 7471 7472
7531 1 7472 7473
7532 1 7473 7474
7533 1 7474 7475
7534 1 7475 7476
7535 1 7476 7477
7536 1 7477 7478
7537 1 7478 7479
7538 1 112 7460
7539 1 7479 113
7540 1 7460 7480
7541 1 7480 7481
7542 1 7481 7482
7543 1 7482 7483
7544 1 7483 7484
7545 1 7465 7485
7546 1 7485 7486
7547 1 7486 7487
7548 1 7487 7488
7549 1 7488 7489
7550 1 7471 7490
7551 1 7490 7491
7552 1 7491 7492
7553 1 7492 7493
7554 1 7493 7494
7555 1 7477 7495
7556 1 7495 7496
7557 1 7496 7497
7558 1 7497 7498
7559 1 7498 7499
7560 1 7500 7501
7561 1 7501 7502
7562 1 7502 7503
7563 1 7503 7504
7564 1 7504 7505
7565 1 7505 7506
7566 1 7506 7507
7567 1 7507 7508
7568 1 7508 7509
7569 1 7509 7510
7570 1 7510 7511
7571 1 7511 7512
7572 1 7512 7513
7573 1 7513 7514
7574 1 7514 7515
7575 1 7515 7516
7576 1 7516 7517
7577 1 7517 7518
7578 1 7518 7519
7579 1 112 7500
7580 1 7519 116
7581 1 7504 7520
7582 1 7520 7521
7583 1 7521 7522
7584 1 7522 7523
7585 1 7523 7524
7586 1 7514 7525
7587 1 7525 7526
7588 1 7526 7527
7589 1 7527 7528
7590 1 7528 7529
7591 1 7516 7530
7592 1 7530 7531
7593 1 7531 7532
7594 1 7532 7533
7595 1 7533 7534
7596 1 7535 7536
7597 1 7536 7537
7598 1 7537 7538
7599 1 7538 7539
7600 1 7539 7540
7601 1 7540 7541
7602 1 7541 7542
7603 1 7542 7543
7604 1 7543 7544
7605 1 7544 7545
7606 1 7545 7546
7607 1 7546 7547
7608 1 7547 7548
7609 1 7548 7549
7610 1 7549 7550
7611 1 7550 7551
7612 1 7551 7552
7613 1 7552 7553
7614 1 7553 7554
7615 1 112 7535
7616 1 7554 135
7617 1 7538 7555
7618 1 7555 7556
7619 1 7556 7557
7620 1 7557 7558
7621 1 7558 7559
7622 1 7540 7560
7623 1 7560 7561
7624 1 7561 7562
7625 1 7562 7563
7626 1 7563 7564
7627 1 7546 7565
7628 1 7565 7566
7629 1 7566 7567
7630 1 7567 7568
7631 1 7568 7569
7632 1 7551 7570
7633 1 7570 7571
7634 1 7571 7572
7635 1 7572 7573
7636 1 7573 7574
7637 1 7553 7575
7638 1 7575 7576
7639 1 7576 7577
7640 1 7577 7578
7641 1 7578 7579
7642 1 7554 7580
7643 1 7580 7581
7644 1 7581 7582
7645 1 7582 7583
7646 1 7583 7584
7647 1 7585 7586
7648 1 7586 7587
7649 1 7587 7588
7650 1 7588 7589
7651 1 7589 7590
7652 1 7590 7591
7653 1 7591 7592
7654 1 7592 7593
7655 1 7593 7594
7656 1 7594 7595
7657 1 7595 7596
7658 1 7596 7597
7659 1 7597 7598
7660 1 7598 7599
7661 1 7599 7600
7662 1 7600 7601
7663 1 7601 7602
7664 1 7602 7603
7665 1 7603 7604
7666 1 113 7585
7667 1 7604 118
7668 1 7590 7605
7669 1 7605 7606
7670 1 7606 7607
7671 1 7607 7608
7672 1 7608 7609
7673 1 7591 7610
7674 1 7610 7611
7675 1 7611 7612
7676 1 7612 7613
7677 1 7613 7614
7678 1 7594 7615
7679 1 7615 7616
7680 1 7616 7617
7681 1 7617 7618
7682 1 7618 7619
7683 1 7597 7620
7684 1 7620 7621
7685 1 7621 7622
7686 1 7622 7623
7687 1 7623 7624
7688 1 7598 7625
7689 1 7625 7626
7690 1 7626 7627
7691 1 7627 7628
7692 1 7628 7629
7693 1 7630 7631
7694 1 7631 7632
7695 1 7632 7633
7696 1 7633 7634
7697 1 7634 7635
7698 1 7635 7636
7699 1 7636 7637
7700 1 7637 7638
7701 1 7638 7639
7702 1 7639 7640
7703 1 7640 7641
7704 1 7641 7642
7705 1 7642 7643
7706 1 7643 7644
7707 1 7644 7645
7708 1 7645 7646
7709 1 7646 7647
7710 1 7647 7648
7711 1 7648 7649
7712 1 113 7630
7713 1 7649 136
7714 1 7632 7650
7715 1 7650 7651
7716 1 7651 7652
7717 1 7652 7653
7718 1 7653 7654
7719 1 7637 7655
7720 1 7655 7656
7721 1 7656 7657
7722 1 7657 7658
7723 1 7658 7659
7724 1 7640 7660
7725 1 7660 7661
7726 1 7661 7662
7727 1 7662 7663
7728 1 7663 7664
7729 1 7642 7665
7730 1 7665 7666
7731 1 7666 7667
7732 1 7667 7668
7733 1 7668 7669
7734 1 7647 7670
7735 1 7670 7671
7736 1 7671 7672
7737 1 7672 7673
7738 1 7673 7674
7739 1 7675 7676
7740 1 7676 7677
7741 1 7677 7678
7742 1 7678 7679
7743 1 7679 7680
7744 1 7680 7681
7745 1 7681 7682
7746 1 7682 7683
7747 1 7683 7684
7748 1 7684 7685
7749 1 7685 7686
7750 1 7686 7687
7751 1 7687 7688
7752 1 7688 7689
7753 1 7689 7690
7754 1 7690 7691
7755 1 7691 7692
7756 1 7692 7693
7757 1 7693 7694
7758 1 114 7675
7759 1 7694 115
7760 1 7678 7695
7761 1 7695 7696
7762 1 7696 7697
7763 1 7697 7698
7764 1 7698 7699
7765 1 7680 7700
7766 1 7700 7701
7767 1 7701 7702
7768 1 7702 7703
7769 1 7703 7704
7770 1 7683 7705
7771 1 7705 7706
7772 1 7706 7707
7773 1 7707 7708
7774 1 7708 7709
7775 1 7687 7710
7776 1 7710 7711
7777 1 7711 7712
7778 1 7712 7713
7779 1 7713 7714
7780 1 7689 7715
7781 1 7715 7716
7782 1 7716 7717
7783 1 7717 7718
7784 1 7718 7719
7785 1 7693 7720
7786 1 7720 7721
7787 1 7721 7722
7788 1 7722 7723
7789 1 7723 7724
7790 1 7725 7726
7791 1 7726 7727
7792 1 7727 7728
7793 1 7728 7729
7794 1 7729 7730
7795 1 7730 7731
7796 1 7731 7732
7797 1 7732 7733
7798 1 7733 7734
7799 1 7734 7735
7800 1 7735 7736
7801 1 7736 7737
7802 1 7737 7738
7803 1 7738 7739
7804 1 7739 7740
7805 1 7740 7741
7806 1 7741 7742
7807 1 7742 7743
7808 1 7743 7744
7809 1 114 7725
7810 1 7744 119
7811 1 7726 7745
7812 1 7745 7746
7813 1 7746 7747
7814 1 7747 7748
7815 1 7748 7749
7816 1 7729 7750
7817 1 7750 7751
7818 1 7751 7752
7819 1 7752 7753
7820 1 7753 7754
7821 1 7731 7755
7822 1 7755 7756
7823 1 7756 7757
7824 1 7757 7758
7825 1 7758 7759
7826 1 7734 7760
7827 1 7760 7761
7828 1 7761 7762
7829 1 7762 7763
7830 1 7763 7764
7831 1 7765 7766
7832 1 7766 7767
7833 1 7767 7768
7834 1 7768 7769
7835 1 7769 7770
7836 1 7770 7771
7837 1 7771 7772
7838 1 7772 7773
7839 1 7773 7774
7840 1 7774 7775
7841 1 7775 7776
7842 1 7776 7777
7843 1 7777 7778
7844 1 7778 7779
7845 1 7779 7780
7846 1 7780 7781
7847 1 7781 7782
7848 1 7782 7783
7849 1 7783 7784
7850 1 115 7765
7851 1 7784 116
7852 1 7767 7785
7853 1 7785 7786
7854 1 7786 7787
7855 1 7787 7788
7856 1 7788 7789
7857 1 7773 7790
7858 1 7790 7791
7859 1 7791 7792
7860 1 7792 7793
7861 1 7793 7794
7862 1 7777 7795
7863 1 7795 7796
7864 1 7796 7797
7865 1 7797 7798
7866 1 7798 7799
7867 1 7782 7800
7868 1 7800 7801
7869 1 7801 7802
7870 1 7802 7803
7871 1 7803 7804
7872 1 7805 7806
7873 1 7806 7807
7874 1 7807 7808
7875 1 7808 7809
7876 1 7809 7810
7877 1 7810 7811
7878 1 7811 7812
7879 1 7812 7813
7880 1 7813 7814
7881 1 7814 7815
7882 1 7815 7816
7883 1 7816 7817
7884 1 7817 7818
7885 1 7818 7819
7886 1 7819 7820
7887 1 7820 7821
7888 1 7821 7822
7889 1 7822 7823
7890 1 7823 7824
7891 1 115 7805
7892 1 7824 120
7893 1 7814 7825
7894 1 7825 7826
7895 1 7826 7827
7896 1 7827 7828
7897 1 7828 7829
7898 1 7817 7830
7899 1 7830 7831
7900 1 7831 7832
7901 1 7832 7833
7902 1 7833 7834
7903 1 7820 7835
7904 1 7835 7836
7905 1 7836 7837
7906 1 7837 7838
7907 1 7838 7839
7908 1 7822 7840
7909 1 7840 7841
7910 1 7841 7842
7911 1 7842 7843
7912 1 7843 7844
7913 1 7845 7846
7914 1 7846 7847
7915 1 7847 7848
7916 1 7848 7849
7917 1 7849 7850
7918 1 7850 7851
7919 1 7851 7852
7920 1 7852 7853
7921 1 7853 7854
7922 1 7854 7855
7923 1 7855 7856
7924 1 7856 7857
7925 1 7857 7858
7926 1 7858 7859
7927 1 7859 7860
7928 1 7860 7861
7929 1 7861 7862
7930 1 7862 7863
7931 1 7863 7864
7932 1 116 7845
7933 1 7864 139
7934 1 7849 7865
7935 1 7865 7866
7936 1 7866 7867
7937 1 7867 7868
7938 1 7868 7869
7939 1 7850 7870
7940 1 7870 7871
7941 1 7871 7872
7942 1 7872 7873
7943 1 7873 7874
7944 1 7856 7875
7945 1 7875 7876
7946 1 7876 7877
7947 1 7877 7878
7948 1 7878 7879
7949 1 7859 7880
7950 1 7880 7881
7951 1 7881 7882
7952 1 7882 7883
7953 1 7883 7884
7954 1 7885 7886
7955 1 7886 7887
7956 1 7887 7888
7957 1 7888 7889
7958 1 7889 7890
7959 1 7890 7891
7960 1 7891 7892
7961 1 7892 7893
7962 1 7893 7894
7963 1 7894 7895
7964 1 7895 7896
7965 1 7896 7897
7966 1 7897 7898
7967 1 7898 7899
7968 1 7899 7900
7969 1 7900 7901
7970 1 7901 7902
7971 1 7902 7903
7972 1 7903 7904
7973 1 117 7885
7974 1 7904 122
7975 1 7893 7905
7976 1 7905 7906
7977 1 7906 7907
7978 1 7907 7908
7979 1 7908 7909
7980 1 7895 7910
7981 1 7910 7911
7982 1 7911 7912
7983 1 7912 7913
7984 1 7913 7914
7985 1 7897 7915
7986 1 7915 7916
7987 1 7916 7917
7988 1 7917 7918
7989 1 7918 7919
7990 1 7920 7921
7991 1 7921 7922
7992 1 7922 7923
7993 1 7923 7924
7994 1 7924 7925
7995 1 7925 7926
7996 1 7926 7927
7997 1 7927 7928
7998 1 7928 7929
7999 1 7929 7930
8000 1 7930 7931
8001 1 7931 7932
8002 1 7932 7933
8003 1 7933 7934
8004 1 7934 7935
8005 1 7935 7936
8006 1 7936 7937
8007 1 7937 7938
8008 1 7938 7939
8009 1 117 7920
8010 1 7939 121
8011 1 7921 7940
8012 1 7940 7941
8013 1 7941 7942
8014 1 7942 7943
8015 1 7943 7944
8016 1 7925 7945
8017 1 7945 7946
8018 1 7946 7947
8019 1 7947 7948
8020 1 7948 7949
8021 1 7932 7950
8022 1 7950 7951
8023 1 7951 7952
8024 1 7952 7953
8025 1 7953 7954
8026 1 7955 7956
8027 1 7956 7957
8028 1 7957 7958
8029 1 7958 7959
8030 1 7959 7960
8031 1 7960 7961
8032 1 7961 7962
8033 1 7962 7963
8034 1 7963 7964
8035 1 7964 7965
8036 1 7965 7966
8037 1 7966 7967
8038 1 7967 7968
8039 1 7968 7969
8040 1 7969 7970
8041 1 7970 7971
8042 1 7971 7972
8043 1 7972 7973
8044 1 7973 7974
8045 1 118 7955
8046 1 7974 123
8047 1 7957 7975
8048 1 7975 7976
8049 1 7976 7977
8050 1 7977 7978
8051 1 7978 7979
8052 1 7966 7980
8053 1 7980 7981
8054 1 7981 7982
8055 1 7982 7983
8056 1 7983 7984
8057 1 7970 7985
8058 1 7985 7986
8059 1 7986 7987
8060 1 7987 7988
8061 1 7988 7989
8062 1 7972 7990
8063 1 7990 7991
8064 1 7991 7992
8065 1 7992 7993
8066 1 7993 7994
8067 1 7974 7995
8068 1 7995 7996
8069 1 7996 7997
8070 1 7997 7998
8071 1 7998 7999
8072 1 8000 8001
8073 1 8001 8002
8074 1 8002 8003
8075 1 8003 8004
8076 1 8004 8005
8077 1 8005 8006
8078 1 8006 8007
8079 1 8007 8008
8080 1 8008 8009
8081 1 8009 8010
8082 1 8010 8011
8083 1 8011 8012
8084 1 8012 8013
8085 1 8013 8014
8086 1 8014 8015
8087 1 8015 8016
8088 1 8016 8017
8089 1 8017 8018
8090 1 8018 8019
8091 1 119 8000
8092 1 8019 124
8093 1 8000 8020
8094 1 8020 8021
8095 1 8021 8022
8096 1 8022 8023
8097 1 8023 8024
8098 1 8005 8025
8099 1 8025 8026
8100 1 8026 8027
8101 1 8027 8028
8102 1 8028 8029
8103 1 8008 8030
8104 1 8030 8031
8105 1 8031 8032
8106 1 8032 8033
8107 1 8033 8034
8108 1 8010 8035
8109 1 8035 8036
8110 1 8036 8037
8111 1 8037 8038
8112 1 8038 8039
8113 1 8011 8040
8114 1 8040 8041
8115 1 8041 8042
8116 1 8042 8043
8117 1 8043 8044
8118 1 8017 8045
8119 1 8045 8046
8120 1 8046 8047
8121 1 8047 8048
8122 1 8048 8049
8123 1 8050 8051
8124 1 8051 8052
8125 1 8052 8053
8126 1 8053 8054
8127 1 8054 8055
8128 1 8055 8056
8129 1 8056 8057
8130 1 8057 8058
8131 1 8058 8059
8132 1 8059 8060
8133 1 8060 8061
8134 1 8061 8062
8135 1 8062 8063
8136 1 8063 8064
8137 1 8064 8065
8138 1 8065 8066
8139 1 8066 8067
8140 1 8067 8068
8141 1 8068 8069
8142 1 120 8050
8143 1 8069 125
8144 1 8053 8070
8145 1 8070 8071
8146 1 8071 8072
8147 1 8072 8073
8148 1 8073 8074
8149 1 8075 8076
8150 1 8076 8077
8151 1 8077 8078
8152 1 8078 8079
8153 1 8079 8080
8154 1 8080 8081
8155 1 8081 8082
8156 1 8082 8083
8157 1 8083 8084
8158 1 8084 8085
8159 1 8085 8086
8160 1 8086 8087
8161 1 8087 8088
8162 1 8088 8089
8163 1 8089 8090
8164 1 8090 8091
8165 1 8091 8092
8166 1 8092 8093
8167 1 8093 8094
8168 1 121 8075
8169 1 8094 126
8170 1 8075 8095
8171 1 8095 8096
8172 1 8096 8097
8173 1 8097 8098
8174 1 8098 8099
8175 1 8082 8100
8176 1 8100 8101
8177 1 8101 8102
8178 1 8102 8103
8179 1 8103 8104
8180 1 8084 8105
8181 1 8105 8106
8182 1 8106 8107
8183 1 8107 8108
8184 1 8108 8109
8185 1 8085 8110
8186 1 8110 8111
8187 1 8111 8112
8188 1 8112 8113
8189 1 8113 8114
8190 1 8094 8115
8191 1 8115 8116
8192 1 8116 8117
8193 1 8117 8118
8194 1 8118 8119
8195 1 8120 8121
8196 1 8121 8122
8197 1 8122 8123
8198 1 8123 8124
8199 1 8124 8125
8200 1 8125 8126
8201 1 8126 8127
8202 1 8127 8128
8203 1 8128 8129
8204 1 8129 8130
8205 1 8130 8131
8206 1 8131 8132
8207 1 8132 8133
8208 1 8133 8134
8209 1 8134 8135
8210 1 8135 8136
8211 1 8136 8137
8212 1 8137 8138
8213 1 8138 8139
8214 1 122 8120
8215 1 8139 123
8216 1 8123 8140
8217 1 8140 8141
8218 1 8141 8142
8219 1 8142 8143
8220 1 8143 8144
8221 1 8125 8145
8222 1 8145 8146
8223 1 8146 8147
8224 1 8147 8148
8225 1 8148 8149
8226 1 8135 8150
8227 1 8150 8151
8228 1 8151 8152
8229 1 8152 8153
8230 1 8153 8154
8231 1 8136 8155
8232 1 8155 8156
8233 1 8156 8157
8234 1 8157 8158
8235 1 8158 8159
8236 1 8160 8161
8237 1 8161 8162
8238 1 8162 8163
8239 1 8163 8164
8240 1 8164 8165
8241 1 8165 8166
8242 1 8166 8167
8243 1 8167 8168
8244 1 8168 8169
8245 1 8169 8170
8246 1 8170 8171
8247 1 8171 8172
8248 1 8172 8173
8249 1 8173 8174
8250 1 8174 8175
8251 1 8175 8176
8252 1 8176 8177
8253 1 8177 8178
8254 1 8178 8179
8255 1 122 8160
8256 1 8179 127
8257 1 8167 8180
8258 1 8180 8181
8259 1 8181 8182
8260 1 8182 8183
8261 1 8183 8184
8262 1 8169 8185
8263 1 8185 8186
8264 1 8186 8187
8265 1 8187 8188
8266 1 8188 8189
8267 1 8172 8190
8268 1 8190 8191
8269 1 8191 8192
8270 1 8192 8193
8271 1 8193 8194
8272 1 8173 8195
8273 1 8195 8196
8274 1 8196 8197
8275 1 8197 8198
8276 1 8198 8199
8277 1 8200 8201
8278 1 8201 8202
8279 1 8202 8203
8280 1 8203 8204
8281 1 8204 8205
8282 1 8205 8206
8283 1 8206 8207
8284 1 8207 8208
8285 1 8208 8209
8286 1 8209 8210
8287 1 8210 8211
8288 1 8211 8212
8289 1 8212 8213
8290 1 8213 8214
8291 1 8214 8215
8292 1 8215 8216
8293 1 8216 8217
8294 1 8217 8218
8295 1 8218 8219
8296 1 123 8200
8297 1 8219 124
8298 1 8204 8220
8299 1 8220 8221
8300 1 8221 8222
8301 1 8222 8223
8302 1 8223 8224
8303 1 8215 8225
8304 1 8225 8226
8305 1 8226 8227
8306 1 8227 8228
8307 1 8228 8229
8308 1 8216 8230
8309 1 8230 8231
8310 1 8231 8232
8311 1 8232 8233
8312 1 8233 8234
8313 1 8218 8235
8314 1 8235 8236
8315 1 8236 8237
8316 1 8237 8238
8317 1 8238 8239
8318 1 8240 8241
8319 1 8241 8242
8320 1 8242 8243
8321 1 8243 8244
8322 1 8244 8245
8323 1 8245 8246
8324 1 8246 8247
8325 1 8247 8248
8326 1 8248 8249
8327 1 8249 8250
8328 1 8250 8251
8329 1 8251 8252
8330 1 8252 8253
8331 1 8253 8254
8332 1 8254 8255
8333 1 8255 8256
8334 1 8256 8257
8335 1 8257 8258
8336 1 8258 8259
8337 1 124 8240
8338 1 8259 132
8339 1 8243 8260
8340 1 8260 8261
8341 1 8261 8262
8342 1 8262 8263
8343 1 8263 8264
8344 1 8258 8265
8345 1 8265 8266
8346 1 8266 8267
8347 1 8267 8268
8348 1 8268 8269
8349 1 8270 8271
8350 1 8271 8272
8351 1 8272 8273
8352 1 8273 8274
8353 1 8274 8275
8354 1 8275 8276
8355 1 8276 8277
8356 1 8277 8278
8357 1 8278 8279
8358 1 8279 8280
8359 1 8280 8281
8360 1 8281 8282
8361 1 8282 8283
8362 1 8283 8284
8363 1 8284 8285
8364 1 8285 8286
8365 1 8286 8287
8366 1 8287 8288
8367 1 8288 8289
8368 1 125 8270
8369 1 8289 126
8370 1 8276 8290
8371 1 8290 8291
8372 1 8291 8292
8373 1 8292 8293
8374 1 8293 8294
8375 1 8278 8295
8376 1 8295 8296
8377 1 8296 8297
8378 1 8297 8298
8379 1 8298 8299
8380 1 8279 8300
8381 1 8300 8301
8382 1 8301 8302
8383 1 8302 8303
8384 1 8303 8304
8385 1 8281 8305
8386 1 8305 8306
8387 1 8306 8307
8388 1 8307 8308
8389 1 8308 8309
8390 1 8286 8310
8391 1 8310 8311
8392 1 8311 8312
8393 1 8312 8313
8394 1 8313 8314
8395 1 8287 8315
8396 1 8315 8316
8397 1 8316 8317
8398 1 8317 8318
8399 1 8318 8319
8400 1 8320 8321
8401 1 8321 8322
8402 1 8322 8323
8403 1 8323 8324
8404 1 8324 8325
8405 1 8325 8326
8406 1 8326 8327
8407 1 8327 8328
8408 1 8328 8329
8409 1 8329 8330
8410 1 8330 8331
8411 1 8331 8332
8412 1 8332 8333
8413 1 8333 8334
8414 1 8334 8335
8415 1 8335 8336
8416 1 8336 8337
8417 1 8337 8338
8418 1 8338 8339
8419 1 125 8320
8420 1 8339 133
8421 1 8323 8340
8422 1 8340 8341
8423 1 8341 8342
8424 1 8342 8343
8425 1 8343 8344
8426 1 8327 8345
8427 1 8345 8346
8428 1 8346 8347
8429 1 8347 8348
8430 1 8348 8349
8431 1 8334 8350
8432 1 8350 8351
8433 1 8351 8352
8434 1 8352 8353
8435 1 8353 8354
8436 1 8335 8355
8437 1 8355 8356
8438 1 8356 8357
8439 1 8357 8358
8440 1 8358 8359
8441 1 8360 8361
8442 1 8361 8362
8443 1 8362 8363
8444 1 8363 8364
8445 1 8364 8365
8446 1 8365 8366
8447 1 8366 8367
8448 1 8367 8368
8449 1 8368 8369
8450 1 8369 8370
8451 1 8370 8371
8452 1 8371 8372
8453 1 8372 8373
8454 1 8373 8374
8455 1 8374 8375
8456 1 8375 8376
8457 1 8376 8377
8458 1 8377 8378
8459 1 8378 8379
8460 1 126 8360
8461 1 8379 134
8462 1 8361 8380
8463 1 8380 8381
8464 1 8381 8382
8465 1 8382 8383
8466 1 8383 8384
8467 1 8368 8385
8468 1 8385 8386
8469 1 8386 8387
8470 1 8387 8388
8471 1 8388 8389
8472 1 8372 8390
8473 1 8390 8391
8474 1 8391 8392
8475 1 8392 8393
8476 1 8393 8394
8477 1 8377 8395
8478 1 8395 8396
8479 1 8396 8397
8480 1 8397 8398
8481 1 8398 8399
8482 1 8379 8400
8483 1 8400 8401
8484 1 8401 8402
8485 1 8402 8403
8486 1 8403 8404
8487 1 8405 8406
8488 1 8406 8407
8489 1 8407 8408
8490 1 8408 8409
8491 1 8409 8410
8492 1 8410 8411
8493 1 8411 8412
8494 1 8412 8413
8495 1 8413 8414
8496 1 8414 8415
8497 1 8415 8416
8498 1 8416 8417
8499 1 8417 8418
8500 1 8418 8419
8501 1 8419 8420
8502 1 8420 8421
8503 1 8421 8422
8504 1 8422 8423
8505 1 8423 8424
8506 1 131 8405
8507 1 8424 132
8508 1 8414 8425
8509 1 8425 8426
8510 1 8426 8427
8511 1 8427 8428
8512 1 8428 8429
8513 1 8421 8430
8514 1 8430 8431
8515 1 8431 8432
8516 1 8432 8433
8517 1 8433 8434
8518 1 8422 8435
8519 1 8435 8436
8520 1 8436 8437
8521 1 8437 8438
8522 1 8438 8439
8523 1 8440 8441
8524 1 8441 8442
8525 1 8442 8443
8526 1 8443 8444
8527 1 8444 8445
8528 1 8445 8446
8529 1 8446 8447
8530 1 8447 8448
8531 1 8448 8449
8532 1 8449 8450
8533 1 8450 8451
8534 1 8451 8452
8535 1 8452 8453
8536 1 8453 8454
8537 1 8454 8455
8538 1 8455 8456
8539 1 8456 8457
8540 1 8457 8458
8541 1 8458 8459
8542 1 131 8440
8543 1 8459 136
8544 1 8440 8460
8545 1 8460 8461
8546 1 8461 8462
8547 1 8462 8463
8548 1 8463 8464
8549 1 8441 8465
8550 1 8465 8466
8551 1 8466 8467
8552 1 8467 8468
8553 1 8468 8469
8554 1 8442 8470
8555 1 8470 8471
8556 1 8471 8472
8557 1 8472 8473
8558 1 8473 8474
8559 1 8443 8475
8560 1 8475 8476
8561 1 8476 8477
8562 1 8477 8478
8563 1 8478 8479
8564 1 8445 8480
8565 1 8480 8481
8566 1 8481 8482
8567 1 8482 8483
8568 1 8483 8484
8569 1 8452 8485
8570 1 8485 8486
8571 1 8486 8487
8572 1 8487 8488
8573 1 8488 8489
8574 1 8456 8490
8575 1 8490 8491
8576 1 8491 8492
8577 1 8492 8493
8578 1 8493 8494
8579 1 8495 8496
8580 1 8496 8497
8581 1 8497 8498
8582 1 8498 8499
8583 1 8499 8500
8584 1 8500 8501
8585 1 8501 8502
8586 1 8502 8503
8587 1 8503 8504
8588 1 8504 8505
8589 1 8505 8506
8590 1 8506 8507
8591 1 8507 8508
8592 1 8508 8509
8593 1 8509 8510
8594 1 8510 8511
8595 1 8511 8512
8596 1 8512 8513
8597 1 8513 8514
8598 1 132 8495
8599 1 8514 137
8600 1 8502 8515
8601 1 8515 8516
8602 1 8516 8517
8603 1 8517 8518
8604 1 8518 8519
8605 1 8503 8520
8606 1 8520 8521
8607 1 8521 8522
8608 1 8522 8523
8609 1 8523 8524
8610 1 8504 8525
8611 1 8525 8526
8612 1 8526 8527
8613 1 8527 8528
8614 1 8528 8529
8615 1 8505 8530
8616 1 8530 8531
8617 1 8531 8532
8618 1 8532 8533
8619 1 8533 8534
8620 1 8506 8535
8621 1 8535 8536
8622 1 8536 8537
8623 1 8537 8538
8624 1 8538 8539
8625 1 8513 8540
8626 1 8540 8541
8627 1 8541 8542
8628 1 8542 8543
8629 1 8543 8544
8630 1 8545 8546
8631 1 8546 8547
8632 1 8547 8548
8633 1 8548 8549
8634 1 8549 8550
8635 1 8550 8551
8636 1 8551 8552
8637 1 8552 8553
8638 1 8553 8554
8639 1 8554 8555
8640 1 8555 8556
8641 1 8556 8557
8642 1 8557 8558
8643 1 8558 8559
8644 1 8559 8560
8645 1 8560 8561
8646 1 8561 8562
8647 1 8562 8563
8648 1 8563 8564
8649 1 133 8545
8650 1 8564 138
8651 1 8547 8565
8652 1 8565 8566
8653 1 8566 8567
8654 1 8567 8568
8655 1 8568 8569
8656 1 8548 8570
8657 1 8570 8571
8658 1 8571 8572
8659 1 8572 8573
8660 1 8573 8574
8661 1 8555 8575
8662 1 8575 8576
8663 1 8576 8577
8664 1 8577 8578
8665 1 8578 8579
8666 1 8563 8580
8667 1 8580 8581
8668 1 8581 8582
8669 1 8582 8583
8670 1 8583 8584
8671 1 8585 8586
8672 1 8586 8587
8673 1 8587 8588
8674 1 8588 8589
8675 1 8589 8590
8676 1 8590 8591
8677 1 8591 8592
8678 1 8592 8593
8679 1 8593 8594
8680 1 8594 8595
8681 1 8595 8596
8682 1 8596 8597
8683 1 8597 8598
8684 1 8598 8599
8685 1 8599 8600
8686 1 8600 8601
8687 1 8601 8602
8688 1 8602 8603
8689 1 8603 8604
8690 1 135 8585
8691 1 8604 136
8692 1 8590 8605
8693 1 8605 8606
8694 1 8606 8607
8695 1 8607 8608
8696 1 8608 8609
8697 1 8595 8610
8698 1 8610 8611
8699 1 8611 8612
8700 1 8612 8613
8701 1 8613 8614
8702 1 8615 8616
8703 1 8616 8617
8704 1 8617 8618
8705 1 8618 8619
8706 1 8619 8620
8707 1 8620 8621
8708 1 8621 8622
8709 1 8622 8623
8710 1 8623 8624
8711 1 8624 8625
8712 1 8625 8626
8713 1 8626 8627
8714 1 8627 8628
8715 1 8628 8629
8716 1 8629 8630
8717 1 8630 8631
8718 1 8631 8632
8719 1 8632 8633
8720 1 8633 8634
8721 1 137 8615
8722 1 8634 138
8723 1 8624 8635
8724 1 8635 8636
8725 1 8636 8637
8726 1 8637 8638
8727 1 8638 8639
8728 1 8627 8640
8729 1 8640 8641
8730 1 8641 8642
8731 1 8642 8643
8732 1 8643 8644
8733 1 8645 8646
8734 1 8646 8647
8735 1 8647 8648
8736 1 8648 8649
8737 1 8649 8650
8738 1 8650 8651
8739 1 8651 8652
8740 1 8652 8653
8741 1 8653 8654
8742 1 8654 8655
8743 1 8655 8656
8744 1 8656 8657
8745 1 8657 8658
8746 1 8658 8659
8747 1 8659 8660
8748 1 8660 8661
8749 1 8661 8662
8750 1 8662 8663
8751 1 8663 8664
8752 1 138 8645
8753 1 8664 139
8754 1 8646 8665
8755 1 8665 8666
8756 1 8666 8667
8757 1 8667 8668
8758 1 8668 8669
8759 1 8656 8670
8760 1 8670 8671
8761 1 8671 8672
8762 1 8672 8673
8763 1 8673 8674
8764 1 8659 8675
8765 1 8675 8676
8766 1 8676 8677
8767 1 8677 8678
8768 1 8678 8679
8769 1 8660 8680
8770 1 8680 8681
8771 1 8681 8682
8772 1 8682 8683
8773 1 8683 8684

Angles

1 1 140 1 190
2 1 140 1 230
3 1 190 1 230
4 1 270 2 305
5 1 270 2 340
6 1 305 2 340
7 1 289 3 380
8 1 289 3 415
9 1 289 3 450
10 1 380 3 415
11 1 380 3 450
12 1 415 3 450
13 1 399 4 495
14 1 399 4 535
15 1 399 4 600
16 1 495 4 535
17 1 495 4 600
18 1 535 4 600
19 1 209 5 514
20 1 209 5 635
21 1 209 5 675
22 1 514 5 635
23 1 514 5 675
24 1 635 5 675
25 1 159 6 735
26 1 159 6 790
27 1 159 6 820
28 1 735 6 790
29 1 735 6 820
30 1 790 6 820
31 1 855 7 885
32 1 855 7 940
33 1 855 7 970
34 1 885 7 940
35 1 885 7 970
36 1 940 7 970
37 1 554 8 874
38 1 554 8 1020
39 1 554 8 1070
40 1 874 8 1020
41 1 874 8 1070
42 1 1020 8 1070
43 1 654 9 809
44 1 654 9 1039
45 1 654 9 1110
46 1 809 9 1039
47 1 809 9 1110
48 1 1039 9 1110
49 1 1150 10 1185
50 1 1150 10 1250
51 1 1185 10 1250
52 1 1275 11 1315
53 1 1275 11 1355
54 1 1315 11 1355
55 1 904 12 1294
56 1 904 12 1395
57 1 904 12 1450
58 1 1294 12 1395
59 1 1294 12 1450
60 1 1395 12 1450
61 1 1490 13 1545
62 1 1490 13 1585
63 1 1545 13 1585
64 1 1269 14 1509
65 1 1269 14 1625
66 1 1509 14 1625
67 1 1169 15 1655
68 1 1169 15 1710
69 1 1169 15 1750
70 1 1655 15 1710
71 1 1655 15 1750
72 1 1710 15 1750
73 1 1334 16 1790
74 1 1334 16 1825
75 1 1790 16 1825
76 1 18 17 19
77 1 18 17 20
78 1 18 17 1870
79 1 19 17 20
80 1 19 17 1870
81 1 20 17 1870
82 1 1564 21 1905
83 1 1564 21 1935
84 1 1905 21 1935
85 1 1644 22 1769
86 1 1644 22 1990
87 1 1644 22 2020
88 1 1769 22 1990
89 1 1769 22 2020
90 1 1990 22 2020
91 1 249 23 1674
92 1 249 23 2055
93 1 249 23 2105
94 1 1674 23 2055
95 1 1674 23 2105
96 1 2055 23 2105
97 1 359 24 1809
98 1 359 24 2074
99 1 359 24 2145
100 1 1809 24 2074
101 1 1809 24 2145
102 1 2074 24 2145
103 1 469 25 2175
104 1 469 25 2210
105 1 2175 25 2210
106 1 1924 26 2194
107 1 1924 26 2265
108 1 1924 26 2295
109 1 2194 26 2265
110 1 2194 26 2295
111 1 2265 26 2295
112 1 2009 27 2124
113 1 2009 27 2284
114 1 2009 27 2330
115 1 2124 27 2284
116 1 2124 27 2330
117 1 2284 27 2330
118 1 2365 28 2410
119 1 2365 28 2465
120 1 2410 28 2465
121 1 324 29 2510
122 1 324 29 2565
123 1 324 29 2600
124 1 2510 29 2565
125 1 2510 29 2600
126 1 2565 29 2600
127 1 434 30 2529
128 1 434 30 2630
129 1 434 30 2665
130 1 2529 30 2630
131 1 2529 30 2665
132 1 2630 30 2665
133 1 619 31 2690
134 1 619 31 2730
135 1 619 31 2770
136 1 2690 31 2730
137 1 2690 31 2770
138 1 2730 31 2770
139 1 694 32 2429
140 1 694 32 2709
141 1 694 32 2810
142 1 2429 32 2709
143 1 2429 32 2810
144 1 2709 32 2810
145 1 754 33 2860
146 1 754 33 2900
147 1 2860 33 2900
148 1 2584 34 2879
149 1 2584 34 2925
150 1 2584 34 2970
151 1 2879 34 2925
152 1 2879 34 2970
153 1 2925 34 2970
154 1 959 35 2649
155 1 959 35 3025
156 1 959 35 3075
157 1 2649 35 3025
158 1 2649 35 3075
159 1 3025 35 3075
160 1 2749 36 3110
161 1 2749 36 3155
162 1 3110 36 3155
163 1 1129 37 3129
164 1 1129 37 3190
165 1 3129 37 3190
166 1 1204 38 2919
167 1 1204 38 3225
168 1 2919 38 3225
169 1 1374 39 2944
170 1 1374 39 3270
171 1 2944 39 3270
172 1 1414 40 3044
173 1 1414 40 3320
174 1 1414 40 3365
175 1 3044 40 3320
176 1 3044 40 3365
177 1 3320 40 3365
178 1 3339 41 3400
179 1 3339 41 3435
180 1 3339 41 3480
181 1 3400 41 3435
182 1 3400 41 3480
183 1 3435 41 3480
184 1 3209 42 3419
185 1 3209 42 3510
186 1 3209 42 3545
187 1 3419 42 3510
188 1 3419 42 3545
189 1 3510 42 3545
190 1 1729 43 3244
191 1 1729 43 3595
192 1 1729 43 3645
193 1 3244 43 3595
194 1 3244 43 3645
195 1 3595 43 3645
196 1 1889 44 3685
197 1 1889 44 3720
198 1 3685 44 3720
199 1 3454 45 3704
200 1 3454 45 3755
201 1 3704 45 3755
202 1 3529 46 3664
203 1 3529 46 3800
204 1 3664 46 3800
205 1 2484 47 3614
206 1 2484 47 3845
207 1 3614 47 3845
208 1 2164 48 2619
209 1 2164 48 3885
210 1 2619 48 3885
211 1 50 49 51
212 1 50 49 52
213 1 50 49 2229
214 1 51 49 52
215 1 51 49 2229
216 1 52 49 2229
217 1 2314 53 2789
218 1 2314 53 3774
219 1 2314 53 3930
220 1 2789 53 3774
221 1 2789 53 3930
222 1 3774 53 3930
223 1 3819 54 3949
224 1 3819 54 3970
225 1 3949 54 3970
226 1 56 55 57
227 1 56 55 58
228 1 56 55 2384
229 1 57 55 58
230 1 57 55 2384
231 1 58 55 2384
232 1 2684 59 4015
233 1 2684 59 4050
234 1 2684 59 4075
235 1 4015 59 4050
236 1 4015 59 4075
237 1 4050 59 4075
238 1 4034 60 4105
239 1 4034 60 4140
240 1 4034 60 4185
241 1 4105 60 4140
242 1 4105 60 4185
243 1 4140 60 4185
244 1 2829 61 4230
245 1 2829 61 4265
246 1 2829 61 4310
247 1 4230 61 4265
248 1 4230 61 4310
249 1 4265 61 4310
250 1 4345 62 4390
251 1 4345 62 4445
252 1 4345 62 4500
253 1 4390 62 4445
254 1 4390 62 4500
255 1 4445 62 4500
256 1 2989 63 4364
257 1 2989 63 4545
258 1 2989 63 4585
259 1 4364 63 4545
260 1 4364 63 4585
261 1 4545 63 4585
262 1 3094 64 4069
263 1 3094 64 4625
264 1 4069 64 4625
265 1 3174 65 4124
266 1 3174 65 4644
267 1 4124 65 4644
268 1 4249 66 4519
269 1 4249 66 4670
270 1 4249 66 4695
271 1 4519 66 4670
272 1 4519 66 4695
273 1 4670 66 4695
274 1 4409 67 4730
275 1 4409 67 4760
276 1 4730 67 4760
277 1 3289 68 4564
278 1 3289 68 4795
279 1 3289 68 4840
280 1 4564 68 4795
281 1 4564 68 4840
282 1 4795 68 4840
283 1 3384 69 4880
284 1 3384 69 4915
285 1 3384 69 4960
286 1 4880 69 4915
287 1 4880 69 4960
288 1 4915 69 4960
289 1 3499 70 4899
290 1 3499 70 5010
291 1 3499 70 5070
292 1 4899 70 5010
293 1 4899 70 5070
294 1 5010 70 5070
295 1 3564 71 4689
296 1 3564 71 4779
297 1 3564 71 5110
298 1 4689 71 4779
299 1 4689 71 5110
300 1 4779 71 5110
301 1 4814 72 5160
302 1 4814 72 5200
303 1 5160 72 5200
304 1 3739 73 4934
305 1 3739 73 5230
306 1 3739 73 5270
307 1 4934 73 5230
308 1 4934 73 5270
309 1 5230 73 5270
310 1 5029 74 5249
311 1 5029 74 5310
312 1 5029 74 5355
313 1 5249 74 5310
314 1 5249 74 5355
315 1 5310 74 5355
316 1 5129 75 5329
317 1 5129 75 5395
318 1 5329 75 5395
319 1 3864 76 5430
320 1 3864 76 5455
321 1 5430 76 5455
322 1 3904 77 5179
323 1 3904 77 5449
324 1 3904 77 5485
325 1 5179 77 5449
326 1 5179 77 5485
327 1 5449 77 5485
328 1 79 78 80
329 1 79 78 81
330 1 79 78 5504
331 1 80 78 81
332 1 80 78 5504
333 1 81 78 5504
334 1 4204 82 5374
335 1 4204 82 5525
336 1 4204 82 5555
337 1 5374 82 5525
338 1 5374 82 5555
339 1 5525 82 5555
340 1 3989 83 4329
341 1 3989 83 5544
342 1 3989 83 5615
343 1 4329 83 5544
344 1 4329 83 5615
345 1 5544 83 5615
346 1 85 84 86
347 1 85 84 87
348 1 85 84 5650
349 1 86 84 87
350 1 86 84 5650
351 1 87 84 5650
352 1 5669 88 5710
353 1 5669 88 5750
354 1 5710 88 5750
355 1 4094 89 5790
356 1 4094 89 5825
357 1 4094 89 5850
358 1 5790 89 5825
359 1 5790 89 5850
360 1 5825 89 5850
361 1 4159 90 5809
362 1 4159 90 5885
363 1 4159 90 5910
364 1 5809 90 5885
365 1 5809 90 5910
366 1 5885 90 5910
367 1 4284 91 5950
368 1 4284 91 5985
369 1 5950 91 5985
370 1 4464 92 6045
371 1 4464 92 6080
372 1 6045 92 6080
373 1 4604 93 6064
374 1 4604 93 6120
375 1 4604 93 6155
376 1 6064 93 6120
377 1 6064 93 6155
378 1 6120 93 6155
379 1 6139 94 6205
380 1 6139 94 6225
381 1 6139 94 6270
382 1 6205 94 6225
383 1 6205 94 6270
384 1 6225 94 6270
385 1 5904 95 6224
386 1 5904 95 6295
387 1 6224 95 6295
388 1 4714 96 6335
389 1 4714 96 6380
390 1 6335 96 6380
391 1 4749 97 6435
392 1 4749 97 6485
393 1 4749 97 6520
394 1 6435 97 6485
395 1 6435 97 6520
396 1 6485 97 6520
397 1 4859 98 6570
398 1 4859 98 6605
399 1 6570 98 6605
400 1 4979 99 6244
401 1 4979 99 6589
402 1 4979 99 6645
403 1 6244 99 6589
404 1 6244 99 6645
405 1 6589 99 6645
406 1 5089 100 6314
407 1 5089 100 6685
408 1 5089 100 6725
409 1 6314 100 6685
410 1 6314 100 6725
411 1 6685 100 6725
412 1 6354 101 6539
413 1 6354 101 6704
414 1 6354 101 6760
415 1 6539 101 6704
416 1 6539 101 6760
417 1 6704 101 6760
418 1 6454 102 6790
419 1 6454 102 6835
420 1 6790 102 6835
421 1 5219 103 6809
422 1 5219 103 6880
423 1 5219 103 6915
424 1 6809 103 6880
425 1 6809 103 6915
426 1 6880 103 6915
427 1 5289 104 6664
428 1 5289 104 6955
429 1 6664 104 6955
430 1 6744 105 7015
431 1 6744 105 7060
432 1 6744 105 7105
433 1 7015 105 7060
434 1 7015 105 7105
435 1 7060 105 7105
436 1 5414 106 6854
437 1 5414 106 7034
438 1 5414 106 7135
439 1 6854 106 7034
440 1 6854 106 7135
441 1 7034 106 7135
442 1 5474 107 7195
443 1 5474 107 7250
444 1 5474 107 7275
445 1 7195 107 7250
446 1 7195 107 7275
447 1 7250 107 7275
448 1 5769 108 6899
449 1 5769 108 7214
450 1 5769 108 7315
451 1 6899 108 7214
452 1 6899 108 7315
453 1 7214 108 7315
454 1 5869 109 7350
455 1 5869 109 7400
456 1 7350 109 7400
457 1 5574 110 7079
458 1 5574 110 7369
459 1 5574 110 7430
460 1 7079 110 7369
461 1 7079 110 7430
462 1 7369 110 7430
463 1 5634 111 6004
464 1 5634 111 7294
465 1 6004 111 7294
466 1 7460 112 7500
467 1 7460 112 7535
468 1 7500 112 7535
469 1 5729 113 7479
470 1 5729 113 7585
471 1 5729 113 7630
472 1 7479 113 7585
473 1 7479 113 7630
474 1 7585 113 7630
475 1 5844 114 7675
476 1 5844 114 7725
477 1 7675 114 7725
478 1 5929 115 7694
479 1 5929 115 7765
480 1 5929 115 7805
481 1 7694 115 7765
482 1 7694 115 7805
483 1 7765 115 7805
484 1 5969 116 7519
485 1 5969 116 7784
486 1 5969 116 7845
487 1 7519 116 7784
488 1 7519 116 7845
489 1 7784 116 7845
490 1 839 117 6099
491 1 839 117 7885
492 1 839 117 7920
493 1 6099 117 7885
494 1 6099 117 7920
495 1 7885 117 7920
496 1 6174 118 7604
497 1 6174 118 7955
498 1 7604 118 7955
499 1 989 119 6289
500 1 989 119 7744
501 1 989 119 8000
502 1 6289 119 7744
503 1 6289 119 8000
504 1 7744 119 8000
505 1 1089 120 7824
506 1 1089 120 8050
507 1 7824 120 8050
508 1 6399 121 7939
509 1 6399 121 8075
510 1 7939 121 8075
511 1 6504 122 7904
512 1 6504 122 8120
513 1 6504 122 8160
514 1 7904 122 8120
515 1 7904 122 8160
516 1 8120 122 8160
517 1 6624 123 7974
518 1 6624 123 8139
519 1 6624 123 8200
520 1 7974 123 8139
521 1 7974 123 8200
522 1 8139 123 8200
523 1 1469 124 8019
524 1 1469 124 8219
525 1 1469 124 8240
526 1 8019 124 8219
527 1 8019 124 8240
528 1 8219 124 8240
529 1 1604 125 8069
530 1 1604 125 8270
531 1 1604 125 8320
532 1 8069 125 8270
533 1 8069 125 8320
534 1 8270 125 8320
535 1 6779 126 8094
536 1 6779 126 8289
537 1 6779 126 8360
538 1 8094 126 8289
539 1 8094 126 8360
540 1 8289 126 8360
541 1 128 127 129
542 1 128 127 130
543 1 128 127 8179
544 1 129 127 130
545 1 129 127 8179
546 1 130 127 8179
547 1 1844 131 6934
548 1 1844 131 8405
549 1 1844 131 8440
550 1 6934 131 8405
551 1 6934 131 8440
552 1 8405 131 8440
553 1 6974 132 8259
554 1 6974 132 8424
555 1 6974 132 8495
556 1 8259 132 8424
557 1 8259 132 8495
558 1 8424 132 8495
559 1 1954 133 7124
560 1 1954 133 8339
561 1 1954 133 8545
562 1 7124 133 8339
563 1 7124 133 8545
564 1 8339 133 8545
565 1 2039 134 7154
566 1 2039 134 8379
567 1 7154 134 8379
568 1 7269 135 7554
569 1 7269 135 8585
570 1 7554 135 8585
571 1 7334 136 7649
572 1 7334 136 8459
573 1 7334 136 8604
574 1 7649 136 8459
575 1 7649 136 8604
576 1 8459 136 8604
577 1 7419 137 8514
578 1 7419 137 8615
579 1 8514 137 8615
580 1 7449 138 8564
581 1 7449 138 8634
582 1 7449 138 8645
583 1 8564 138 8634
584 1 8564 138 8645
585 1 8634 138 8645
586 1 2349 139 7864
587 1 2349 139 8664
588 1 7864 139 8664
589 1 141 140 1
590 1 140 141 142
591 1 141 142 143
592 1 142 143 144
593 1 143 144 145
594 1 144 145 146
595 1 145 146 147
596 1 146 147 148
597 1 146 147 160
598 1 148 147 160
599 1 147 148 149
600 1 148 149 150
601 1 148 149 165
602 1 150 149 165
603 1 149 150 151
604 1 149 150 170
605 1 151 150 170
606 1 150 151 152
607 1 151 152 153
608 1 151 152 175
609 1 153 152 175
610 1 152 153 154
611 1 153 154 155
612 1 154 155 156
613 1 154 155 180
614 1 156 155 180
615 1 155 156 157
616 1 156 157 158
617 1 156 157 185
618 1 158 157 185
619 1 157 158 159
620 1 158 159 6
621 1 147 160 161
622 1 160 161 162
623 1 161 162 163
624 1 162 163 164
625 1 149 165 166
626 1 165 166 167
627 1 166 167 168
628 1 167 168 169
629 1 150 170 171
630 1 170 171 172
631 1 171 172 173
632 1 172 173 174
633 1 152 175 176
634 1 175 176 177
635 1 176 177 178
636 1 177 178 179
637 1 155 180 181
638 1 180 181 182
639 1 181 182 183
640 1 182 183 184
641 1 157 185 186
642 1 185 186 187
643 1 186 187 188
644 1 187 188 189
645 1 191 190 1
646 1 190 191 192
647 1 191 192 193
648 1 191 192 210
649 1 193 192 210
650 1 192 193 194
651 1 193 194 195
652 1 194 195 196
653 1 195 196 197
654 1 196 197 198
655 1 197 198 199
656 1 197 198 215
657 1 199 198 215
658 1 198 199 200
659 1 199 200 201
660 1 200 201 202
661 1 201 202 203
662 1 201 202 220
663 1 203 202 220
664 1 202 203 204
665 1 203 204 205
666 1 204 205 206
667 1 205 206 207
668 1 206 207 208
669 1 207 208 209
670 1 208 209 5
671 1 208 209 225
672 1 5 209 225
673 1 192 210 211
674 1 210 211 212
675 1 211 212 213
676 1 212 213 214
677 1 198 215 216
678 1 215 216 217
679 1 216 217 218
680 1 217 218 219
681 1 202 220 221
682 1 220 221 222
683 1 221 222 223
684 1 222 223 224
685 1 209 225 226
686 1 225 226 227
687 1 226 227 228
688 1 227 228 229
689 1 231 230 1
690 1 230 231 232
691 1 231 232 233
692 1 232 233 234
693 1 233 234 235
694 1 234 235 236
695 1 235 236 237
696 1 236 237 238
697 1 236 237 250
698 1 238 237 250
699 1 237 238 239
700 1 238 239 240
701 1 239 240 241
702 1 240 241 242
703 1 241 242 243
704 1 242 243 244
705 1 242 243 255
706 1 244 243 255
707 1 243 244 245
708 1 244 245 246
709 1 244 245 260
710 1 246 245 260
711 1 245 246 247
712 1 246 247 248
713 1 247 248 249
714 1 248 249 23
715 1 248 249 265
716 1 23 249 265
717 1 237 250 251
718 1 250 251 252
719 1 251 252 253
720 1 252 253 254
721 1 243 255 256
722 1 255 256 257
723 1 256 257 258
724 1 257 258 259
725 1 245 260 261
726 1 260 261 262
727 1 261 262 263
728 1 262 263 264
729 1 249 265 266
730 1 265 266 267
731 1 266 267 268
732 1 267 268 269
733 1 271 270 2
734 1 270 271 272
735 1 271 272 273
736 1 271 272 290
737 1 273 272 290
738 1 272 273 274
739 1 273 274 275
740 1 274 275 276
741 1 275 276 277
742 1 275 276 295
743 1 277 276 295
744 1 276 277 278
745 1 277 278 279
746 1 278 279 280
747 1 279 280 281
748 1 280 281 282
749 1 281 282 283
750 1 282 283 284
751 1 283 284 285
752 1 284 285 286
753 1 285 286 287
754 1 285 286 300
755 1 287 286 300
756 1 286 287 288
757 1 287 288 289
758 1 288 289 3
759 1 272 290 291
760 1 290 291 292
761 1 291 292 293
762 1 292 293 294
763 1 276 295 296
764 1 295 296 297
765 1 296 297 298
766 1 297 298 299
767 1 286 300 301
768 1 300 301 302
769 1 301 302 303
770 1 302 303 304
771 1 306 305 2
772 1 305 306 307
773 1 306 307 308
774 1 307 308 309
775 1 308 309 310
776 1 309 310 311
777 1 310 311 312
778 1 311 312 313
779 1 312 313 314
780 1 313 314 315
781 1 314 315 316
782 1 314 315 325
783 1 316 315 325
784 1 315 316 317
785 1 316 317 318
786 1 317 318 319
787 1 318 319 320
788 1 319 320 321
789 1 319 320 330
790 1 321 320 330
791 1 320 321 322
792 1 320 321 335
793 1 322 321 335
794 1 321 322 323
795 1 322 323 324
796 1 323 324 29
797 1 315 325 326
798 1 325 326 327
799 1 326 327 328
800 1 327 328 329
801 1 320 330 331
802 1 330 331 332
803 1 331 332 333
804 1 332 333 334
805 1 321 335 336
806 1 335 336 337
807 1 336 337 338
808 1 337 338 339
809 1 341 340 2
810 1 340 341 342
811 1 341 342 343
812 1 342 343 344
813 1 343 344 345
814 1 343 344 360
815 1 345 344 360
816 1 344 345 346
817 1 345 346 347
818 1 346 347 348
819 1 346 347 365
820 1 348 347 365
821 1 347 348 349
822 1 348 349 350
823 1 349 350 351
824 1 350 351 352
825 1 351 352 353
826 1 352 353 354
827 1 352 353 370
828 1 354 353 370
829 1 353 354 355
830 1 354 355 356
831 1 355 356 357
832 1 356 357 358
833 1 357 358 359
834 1 358 359 24
835 1 358 359 375
836 1 24 359 375
837 1 344 360 361
838 1 360 361 362
839 1 361 362 363
840 1 362 363 364
841 1 347 365 366
842 1 365 366 367
843 1 366 367 368
844 1 367 368 369
845 1 353 370 371
846 1 370 371 372
847 1 371 372 373
848 1 372 373 374
849 1 359 375 376
850 1 375 376 377
851 1 376 377 378
852 1 377 378 379
853 1 381 380 3
854 1 380 381 382
855 1 381 382 383
856 1 382 383 384
857 1 383 384 385
858 1 384 385 386
859 1 385 386 387
860 1 385 386 400
861 1 387 386 400
862 1 386 387 388
863 1 387 388 389
864 1 387 388 405
865 1 389 388 405
866 1 388 389 390
867 1 389 390 391
868 1 390 391 392
869 1 391 392 393
870 1 392 393 394
871 1 393 394 395
872 1 394 395 396
873 1 394 395 410
874 1 396 395 410
875 1 395 396 397
876 1 396 397 398
877 1 397 398 399
878 1 398 399 4
879 1 386 400 401
880 1 400 401 402
881 1 401 402 403
882 1 402 403 404
883 1 388 405 406
884 1 405 406 407
885 1 406 407 408
886 1 407 408 409
887 1 395 410 411
888 1 410 411 412
889 1 411 412 413
890 1 412 413 414
891 1 416 415 3
892 1 415 416 417
893 1 416 417 418
894 1 417 418 419
895 1 417 418 435
896 1 419 418 435
897 1 418 419 420
898 1 419 420 421
899 1 420 421 422
900 1 420 421 440
901 1 422 421 440
902 1 421 422 423
903 1 421 422 445
904 1 423 422 445
905 1 422 423 424
906 1 423 424 425
907 1 424 425 426
908 1 425 426 427
909 1 426 427 428
910 1 427 428 429
911 1 428 429 430
912 1 429 430 431
913 1 430 431 432
914 1 431 432 433
915 1 432 433 434
916 1 433 434 30
917 1 418 435 436
918 1 435 436 437
919 1 436 437 438
920 1 437 438 439
921 1 421 440 441
922 1 440 441 442
923 1 441 442 443
924 1 442 443 444
925 1 422 445 446
926 1 445 446 447
927 1 446 447 448
928 1 447 448 449
929 1 451 450 3
930 1 450 451 452
931 1 450 451 470
932 1 452 451 470
933 1 451 452 453
934 1 451 452 475
935 1 453 452 475
936 1 452 453 454
937 1 452 453 480
938 1 454 453 480
939 1 453 454 455
940 1 454 455 456
941 1 455 456 457
942 1 456 457 458
943 1 457 458 459
944 1 458 459 460
945 1 459 460 461
946 1 460 461 462
947 1 461 462 463
948 1 462 463 464
949 1 463 464 465
950 1 464 465 466
951 1 465 466 467
952 1 465 466 485
953 1 467 466 485
954 1 466 467 468
955 1 467 468 469
956 1 468 469 25
957 1 468 469 490
958 1 25 469 490
959 1 451 470 471
960 1 470 471 472
961 1 471 472 473
962 1 472 473 474
963 1 452 475 476
964 1 475 476 477
965 1 476 477 478
966 1 477 478 479
967 1 453 480 481
968 1 480 481 482
969 1 481 482 483
970 1 482 483 484
971 1 466 485 486
972 1 485 486 487
973 1 486 487 488
974 1 487 488 489
975 1 469 490 491
976 1 490 491 492
977 1 491 492 493
978 1 492 493 494
979 1 496 495 4
980 1 495 496 497
981 1 496 497 498
982 1 496 497 515
983 1 498 497 515
984 1 497 498 499
985 1 498 499 500
986 1 498 499 520
987 1 500 499 520
988 1 499 500 501
989 1 500 501 502
990 1 501 502 503
991 1 501 502 525
992 1 503 502 525
993 1 502 503 504
994 1 502 503 530
995 1 504 503 530
996 1 503 504 505
997 1 504 505 506
998 1 505 506 507
999 1 506 507 508
1000 1 507 508 509
1001 1 508 509 510
1002 1 509 510 511
1003 1 510 511 512
1004 1 511 512 513
1005 1 512 513 514
1006 1 513 514 5
1007 1 497 515 516
1008 1 515 516 517
1009 1 516 517 518
1010 1 517 518 519
1011 1 499 520 521
1012 1 520 521 522
1013 1 521 522 523
1014 1 522 523 524
1015 1 502 525 526
1016 1 525 526 527
1017 1 526 527 528
1018 1 527 528 529
1019 1 503 530 531
1020 1 530 531 532
1021 1 531 532 533
1022 1 532 533 534
1023 1 536 535 4
1024 1 536 535 555
1025 1 4 535 555
1026 1 535 536 537
1027 1 536 537 538
1028 1 537 538 539
1029 1 537 538 560
1030 1 539 538 560
1031 1 538 539 540
1032 1 539 540 541
1033 1 539 540 565
1034 1 541 540 565
1035 1 540 541 542
1036 1 541 542 543
1037 1 542 543 544
1038 1 542 543 570
1039 1 544 543 570
1040 1 543 544 545
1041 1 544 545 546
1042 1 545 546 547
1043 1 546 547 548
1044 1 547 548 549
1045 1 547 548 575
1046 1 549 548 575
1047 1 548 549 550
1048 1 549 550 551
1049 1 549 550 580
1050 1 551 550 580
1051 1 550 551 552
1052 1 550 551 585
1053 1 552 551 585
1054 1 551 552 553
1055 1 551 552 590
1056 1 553 552 590
1057 1 552 553 554
1058 1 553 554 8
1059 1 553 554 595
1060 1 8 554 595
1061 1 535 555 556
1062 1 555 556 557
1063 1 556 557 558
1064 1 557 558 559
1065 1 538 560 561
1066 1 560 561 562
1067 1 561 562 563
1068 1 562 563 564
1069 1 540 565 566
1070 1 565 566 567
1071 1 566 567 568
1072 1 567 568 569
1073 1 543 570 571
1074 1 570 571 572
1075 1 571 572 573
1076 1 572 573 574
1077 1 548 575 576
1078 1 575 576 577
1079 1 576 577 578
1080 1 577 578 579
1081 1 550 580 581
1082 1 580 581 582
1083 1 581 582 583
1084 1 582 583 584
1085 1 551 585 586
1086 1 585 586 587
1087 1 586 587 588
1088 1 587 588 589
1089 1 552 590 591
1090 1 590 591 592
1091 1 591 592 593
1092 1 592 593 594
1093 1 554 595 596
1094 1 595 596 597
1095 1 596 597 598
1096 1 597 598 599
1097 1 601 600 4
1098 1 600 601 602
1099 1 601 602 603
1100 1 602 603 604
1101 1 603 604 605
1102 1 604 605 606
1103 1 605 606 607
1104 1 606 607 608
1105 1 606 607 620
1106 1 608 607 620
1107 1 607 608 609
1108 1 608 609 610
1109 1 609 610 611
1110 1 609 610 625
1111 1 611 610 625
1112 1 610 611 612
1113 1 611 612 613
1114 1 612 613 614
1115 1 613 614 615
1116 1 613 614 630
1117 1 615 614 630
1118 1 614 615 616
1119 1 615 616 617
1120 1 616 617 618
1121 1 617 618 619
1122 1 618 619 31
1123 1 607 620 621
1124 1 620 621 622
1125 1 621 622 623
1126 1 622 623 624
1127 1 610 625 626
1128 1 625 626 627
1129 1 626 627 628
1130 1 627 628 629
1131 1 614 630 631
1132 1 630 631 632
1133 1 631 632 633
1134 1 632 633 634
1135 1 636 635 5
1136 1 635 636 637
1137 1 636 637 638
1138 1 637 638 639
1139 1 638 639 640
1140 1 639 640 641
1141 1 639 640 655
1142 1 641 640 655
1143 1 640 641 642
1144 1 641 642 643
1145 1 642 643 644
1146 1 643 644 645
1147 1 644 645 646
1148 1 645 646 647
1149 1 646 647 648
1150 1 647 648 649
1151 1 647 648 660
1152 1 649 648 660
1153 1 648 649 650
1154 1 649 650 651
1155 1 650 651 652
1156 1 650 651 665
1157 1 652 651 665
1158 1 651 652 653
1159 1 651 652 670
1160 1 653 652 670
1161 1 652 653 654
1162 1 653 654 9
1163 1 640 655 656
1164 1 655 656 657
1165 1 656 657 658
1166 1 657 658 659
1167 1 648 660 661
1168 1 660 661 662
1169 1 661 662 663
1170 1 662 663 664
1171 1 651 665 666
1172 1 665 666 667
1173 1 666 667 668
1174 1 667 668 669
1175 1 652 670 671
1176 1 670 671 672
1177 1 671 672 673
1178 1 672 673 674
1179 1 676 675 5
1180 1 676 675 695
1181 1 5 675 695
1182 1 675 676 677
1183 1 676 677 678
1184 1 677 678 679
1185 1 677 678 700
1186 1 679 678 700
1187 1 678 679 680
1188 1 678 679 705
1189 1 680 679 705
1190 1 679 680 681
1191 1 680 681 682
1192 1 681 682 683
1193 1 682 683 684
1194 1 682 683 710
1195 1 684 683 710
1196 1 683 684 685
1197 1 683 684 715
1198 1 685 684 715
1199 1 684 685 686
1200 1 684 685 720
1201 1 686 685 720
1202 1 685 686 687
1203 1 685 686 725
1204 1 687 686 725
1205 1 686 687 688
1206 1 687 688 689
1207 1 688 689 690
1208 1 689 690 691
1209 1 690 691 692
1210 1 691 692 693
1211 1 692 693 694
1212 1 692 693 730
1213 1 694 693 730
1214 1 693 694 32
1215 1 675 695 696
1216 1 695 696 697
1217 1 696 697 698
1218 1 697 698 699
1219 1 678 700 701
1220 1 700 701 702
1221 1 701 702 703
1222 1 702 703 704
1223 1 679 705 706
1224 1 705 706 707
1225 1 706 707 708
1226 1 707 708 709
1227 1 683 710 711
1228 1 710 711 712
1229 1 711 712 713
1230 1 712 713 714
1231 1 684 715 716
1232 1 715 716 717
1233 1 716 717 718
1234 1 717 718 719
1235 1 685 720 721
1236 1 720 721 722
1237 1 721 722 723
1238 1 722 723 724
1239 1 686 725 726
1240 1 725 726 727
1241 1 726 727 728
1242 1 727 728 729
1243 1 693 730 731
1244 1 730 731 732
1245 1 731 732 733
1246 1 732 733 734
1247 1 736 735 6
1248 1 735 736 737
1249 1 735 736 755
1250 1 737 736 755
1251 1 736 737 738
1252 1 737 738 739
1253 1 738 739 740
1254 1 738 739 760
1255 1 740 739 760
1256 1 739 740 741
1257 1 740 741 742
1258 1 740 741 765
1259 1 742 741 765
1260 1 741 742 743
1261 1 741 742 770
1262 1 743 742 770
1263 1 742 743 744
1264 1 743 744 745
1265 1 743 744 775
1266 1 745 744 775
1267 1 744 745 746
1268 1 745 746 747
1269 1 746 747 748
1270 1 747 748 749
1271 1 748 749 750
1272 1 748 749 780
1273 1 750 749 780
1274 1 749 750 751
1275 1 749 750 785
1276 1 751 750 785
1277 1 750 751 752
1278 1 751 752 753
1279 1 752 753 754
1280 1 753 754 33
1281 1 736 755 756
1282 1 755 756 757
1283 1 756 757 758
1284 1 757 758 759
1285 1 739 760 761
1286 1 760 761 762
1287 1 761 762 763
1288 1 762 763 764
1289 1 741 765 766
1290 1 765 766 767
1291 1 766 767 768
1292 1 767 768 769
1293 1 742 770 771
1294 1 770 771 772
1295 1 771 772 773
1296 1 772 773 774
1297 1 744 775 776
1298 1 775 776 777
1299 1 776 777 778
1300 1 777 778 779
1301 1 749 780 781
1302 1 780 781 782
1303 1 781 782 783
1304 1 782 783 784
1305 1 750 785 786
1306 1 785 786 787
1307 1 786 787 788
1308 1 787 788 789
1309 1 791 790 6
1310 1 790 791 792
1311 1 791 792 793
1312 1 792 793 794
1313 1 793 794 795
1314 1 794 795 796
1315 1 794 795 810
1316 1 796 795 810
1317 1 795 796 797
1318 1 796 797 798
1319 1 797 798 799
1320 1 798 799 800
1321 1 799 800 801
1322 1 800 801 802
1323 1 800 801 815
1324 1 802 801 815
1325 1 801 802 803
1326 1 802 803 804
1327 1 803 804 805
1328 1 804 805 806
1329 1 805 806 807
1330 1 806 807 808
1331 1 807 808 809
1332 1 808 809 9
1333 1 795 810 811
1334 1 810 811 812
1335 1 811 812 813
1336 1 812 813 814
1337 1 801 815 816
1338 1 815 816 817
1339 1 816 817 818
1340 1 817 818 819
1341 1 821 820 6
1342 1 820 821 822
1343 1 820 821 840
1344 1 822 821 840
1345 1 821 822 823
1346 1 822 823 824
1347 1 822 823 845
1348 1 824 823 845
1349 1 823 824 825
1350 1 824 825 826
1351 1 825 826 827
1352 1 826 827 828
1353 1 827 828 829
1354 1 828 829 830
1355 1 829 830 831
1356 1 830 831 832
1357 1 831 832 833
1358 1 832 833 834
1359 1 833 834 835
1360 1 834 835 836
1361 1 835 836 837
1362 1 836 837 838
1363 1 837 838 839
1364 1 837 838 850
1365 1 839 838 850
1366 1 838 839 117
1367 1 821 840 841
1368 1 840 841 842
1369 1 841 842 843
1370 1 842 843 844
1371 1 823 845 846
1372 1 845 846 847
1373 1 846 847 848
1374 1 847 848 849
1375 1 838 850 851
1376 1 850 851 852
1377 1 851 852 853
1378 1 852 853 854
1379 1 856 855 7
1380 1 855 856 857
1381 1 856 857 858
1382 1 857 858 859
1383 1 858 859 860
1384 1 859 860 861
1385 1 860 861 862
1386 1 860 861 875
1387 1 862 861 875
1388 1 861 862 863
1389 1 862 863 864
1390 1 863 864 865
1391 1 864 865 866
1392 1 865 866 867
1393 1 866 867 868
1394 1 867 868 869
1395 1 868 869 870
1396 1 869 870 871
1397 1 870 871 872
1398 1 870 871 880
1399 1 872 871 880
1400 1 871 872 873
1401 1 872 873 874
1402 1 873 874 8
1403 1 861 875 876
1404 1 875 876 877
1405 1 876 877 878
1406 1 877 878 879
1407 1 871 880 881
1408 1 880 881 882
1409 1 881 882 883
1410 1 882 883 884
1411 1 886 885 7
1412 1 886 885 905
1413 1 7 885 905
1414 1 885 886 887
1415 1 885 886 910
1416 1 887 886 910
1417 1 886 887 888
1418 1 887 888 889
1419 1 888 889 890
1420 1 889 890 891
1421 1 890 891 892
1422 1 890 891 915
1423 1 892 891 915
1424 1 891 892 893
1425 1 892 893 894
1426 1 892 893 920
1427 1 894 893 920
1428 1 893 894 895
1429 1 893 894 925
1430 1 895 894 925
1431 1 894 895 896
1432 1 894 895 930
1433 1 896 895 930
1434 1 895 896 897
1435 1 896 897 898
1436 1 897 898 899
1437 1 898 899 900
1438 1 899 900 901
1439 1 900 901 902
1440 1 900 901 935
1441 1 902 901 935
1442 1 901 902 903
1443 1 902 903 904
1444 1 903 904 12
1445 1 885 905 906
1446 1 905 906 907
1447 1 906 907 908
1448 1 907 908 909
1449 1 886 910 911
1450 1 910 911 912
1451 1 911 912 913
1452 1 912 913 914
1453 1 891 915 916
1454 1 915 916 917
1455 1 916 917 918
1456 1 917 918 919
1457 1 893 920 921
1458 1 920 921 922
1459 1 921 922 923
1460 1 922 923 924
1461 1 894 925 926
1462 1 925 926 927
1463 1 926 927 928
1464 1 927 928 929
1465 1 895 930 931
1466 1 930 931 932
1467 1 931 932 933
1468 1 932 933 934
1469 1 901 935 936
1470 1 935 936 937
1471 1 936 937 938
1472 1 937 938 939
1473 1 941 940 7
1474 1 940 941 942
1475 1 941 942 943
1476 1 942 943 944
1477 1 943 944 945
1478 1 944 945 946
1479 1 945 946 947
1480 1 946 947 948
1481 1 947 948 949
1482 1 948 949 950
1483 1 948 949 960
1484 1 950 949 960
1485 1 949 950 951
1486 1 950 951 952
1487 1 951 952 953
1488 1 951 952 965
1489 1 953 952 965
1490 1 952 953 954
1491 1 953 954 955
1492 1 954 955 956
1493 1 955 956 957
1494 1 956 957 958
1495 1 957 958 959
1496 1 958 959 35
1497 1 949 960 961
1498 1 960 961 962
1499 1 961 962 963
1500 1 962 963 964
1501 1 952 965 966
1502 1 965 966 967
1503 1 966 967 968
1504 1 967 968 969
1505 1 971 970 7
1506 1 970 971 972
1507 1 971 972 973
1508 1 971 972 990
1509 1 973 972 990
1510 1 972 973 974
1511 1 973 974 975
1512 1 973 974 995
1513 1 975 974 995
1514 1 974 975 976
1515 1 974 975 1000
1516 1 976 975 1000
1517 1 975 976 977
1518 1 975 976 1005
1519 1 977 976 1005
1520 1 976 977 978
1521 1 977 978 979
1522 1 978 979 980
1523 1 979 980 981
1524 1 980 981 982
1525 1 980 981 1010
1526 1 982 981 1010
1527 1 981 982 983
1528 1 981 982 1015
1529 1 983 982 1015
1530 1 982 983 984
1531 1 983 984 985
1532 1 984 985 986
1533 1 985 986 987
1534 1 986 987 988
1535 1 987 988 989
1536 1 988 989 119
1537 1 972 990 991
1538 1 990 991 992
1539 1 991 992 993
1540 1 992 993 994
1541 1 974 995 996
1542 1 995 996 997
1543 1 996 997 998
1544 1 997 998 999
1545 1 975 1000 1001
1546 1 1000 1001 1002
1547 1 1001 1002 1003
1548 1 1002 1003 1004
1549 1 976 1005 1006
1550 1 1005 1006 1007
1551 1 1006 1007 1008
1552 1 1007 1008 1009
1553 1 981 1010 1011
1554 1 1010 1011 1012
1555 1 1011 1012 1013
1556 1 1012 1013 1014
1557 1 982 1015 1016
1558 1 1015 1016 1017
1559 1 1016 1017 1018
1560 1 1017 1018 1019
1561 1 1021 1020 8
1562 1 1020 1021 1022
1563 1 1020 1021 1040
1564 1 1022 1021 1040
1565 1 1021 1022 1023
1566 1 1022 1023 1024
1567 1 1022 1023 1045
1568 1 1024 1023 1045
1569 1 1023 1024 1025
1570 1 1023 1024 1050
1571 1 1025 1024 1050
1572 1 1024 1025 1026
1573 1 1024 1025 1055
1574 1 1026 1025 1055
1575 1 1025 1026 1027
1576 1 1026 1027 1028
1577 1 1027 1028 1029
1578 1 1028 1029 1030
1579 1 1029 1030 1031
1580 1 1029 1030 1060
1581 1 1031 1030 1060
1582 1 1030 1031 1032
1583 1 1031 1032 1033
1584 1 1032 1033 1034
1585 1 1033 1034 1035
1586 1 1034 1035 1036
1587 1 1035 1036 1037
1588 1 1036 1037 1038
1589 1 1037 1038 1039
1590 1 1038 1039 9
1591 1 1038 1039 1065
1592 1 9 1039 1065
1593 1 1021 1040 1041
1594 1 1040 1041 1042
1595 1 1041 1042 1043
1596 1 1042 1043 1044
1597 1 1023 1045 1046
1598 1 1045 1046 1047
1599 1 1046 1047 1048
1600 1 1047 1048 1049
1601 1 1024 1050 1051
1602 1 1050 1051 1052
1603 1 1051 1052 1053
1604 1 1052 1053 1054
1605 1 1025 1055 1056
1606 1 1055 1056 1057
1607 1 1056 1057 1058
1608 1 1057 1058 1059
1609 1 1030 1060 1061
1610 1 1060 1061 1062
1611 1 1061 1062 1063
1612 1 1062 1063 1064
1613 1 1039 1065 1066
1614 1 1065 1066 1067
1615 1 1066 1067 1068
1616 1 1067 1068 1069
1617 1 1071 1070 8
1618 1 1070 1071 1072
1619 1 1070 1071 1090
1620 1 1072 1071 1090
1621 1 1071 1072 1073
1622 1 1072 1073 1074
1623 1 1073 1074 1075
1624 1 1073 1074 1095
1625 1 1075 1074 1095
1626 1 1074 1075 1076
1627 1 1075 1076 1077
1628 1 1076 1077 1078
1629 1 1077 1078 1079
1630 1 1077 1078 1100
1631 1 1079 1078 1100
1632 1 1078 1079 1080
1633 1 1079 1080 1081
1634 1 1080 1081 1082
1635 1 1080 1081 1105
1636 1 1082 1081 1105
1637 1 1081 1082 1083
1638 1 1082 1083 1084
1639 1 1083 1084 1085
1640 1 1084 1085 1086
1641 1 1085 1086 1087
1642 1 1086 1087 1088
1643 1 1087 1088 1089
1644 1 1088 1089 120
1645 1 1071 1090 1091
1646 1 1090 1091 1092
1647 1 1091 1092 1093
1648 1 1092 1093 1094
1649 1 1074 1095 1096
1650 1 1095 1096 1097
1651 1 1096 1097 1098
1652 1 1097 1098 1099
1653 1 1078 1100 1101
1654 1 1100 1101 1102
1655 1 1101 1102 1103
1656 1 1102 1103 1104
1657 1 1081 1105 1106
1658 1 1105 1106 1107
1659 1 1106 1107 1108
1660 1 1107 1108 1109
1661 1 1111 1110 9
1662 1 1110 1111 1112
1663 1 1111 1112 1113
1664 1 1112 1113 1114
1665 1 1113 1114 1115
1666 1 1114 1115 1116
1667 1 1115 1116 1117
1668 1 1116 1117 1118
1669 1 1116 1117 1130
1670 1 1118 1117 1130
1671 1 1117 1118 1119
1672 1 1118 1119 1120
1673 1 1119 1120 1121
1674 1 1120 1121 1122
1675 1 1120 1121 1135
1676 1 1122 1121 1135
1677 1 1121 1122 1123
1678 1 1121 1122 1140
1679 1 1123 1122 1140
1680 1 1122 1123 1124
1681 1 1123 1124 1125
1682 1 1124 1125 1126
1683 1 1125 1126 1127
1684 1 1126 1127 1128
1685 1 1126 1127 1145
1686 1 1128 1127 1145
1687 1 1127 1128 1129
1688 1 1128 1129 37
1689 1 1117 1130 1131
1690 1 1130 1131 1132
1691 1 1131 1132 1133
1692 1 1132 1133 1134
1693 1 1121 1135 1136
1694 1 1135 1136 1137
1695 1 1136 1137 1138
1696 1 1137 1138 1139
1697 1 1122 1140 1141
1698 1 1140 1141 1142
1699 1 1141 1142 1143
1700 1 1142 1143 1144
1701 1 1127 1145 1146
1702 1 1145 1146 1147
1703 1 1146 1147 1148
1704 1 1147 1148 1149
1705 1 1151 1150 10
1706 1 1150 1151 1152
1707 1 1151 1152 1153
1708 1 1152 1153 1154
1709 1 1153 1154 1155
1710 1 1154 1155 1156
1711 1 1154 1155 1170
1712 1 1156 1155 1170
1713 1 1155 1156 1157
1714 1 1156 1157 1158
1715 1 1157 1158 1159
1716 1 1158 1159 1160
1717 1 1158 1159 1175
1718 1 1160 1159 1175
1719 1 1159 1160 1161
1720 1 1160 1161 1162
1721 1 1161 1162 1163
1722 1 1162 1163 1164
1723 1 1163 1164 1165
1724 1 1164 1165 1166
1725 1 1165 1166 1167
1726 1 1165 1166 1180
1727 1 1167 1166 1180
1728 1 1166 1167 1168
1729 1 1167 1168 1169
1730 1 1168 1169 15
1731 1 1155 1170 1171
1732 1 1170 1171 1172
1733 1 1171 1172 1173
1734 1 1172 1173 1174
1735 1 1159 1175 1176
1736 1 1175 1176 1177
1737 1 1176 1177 1178
1738 1 1177 1178 1179
1739 1 1166 1180 1181
1740 1 1180 1181 1182
1741 1 1181 1182 1183
1742 1 1182 1183 1184
1743 1 1186 1185 10
1744 1 1185 1186 1187
1745 1 1185 1186 1205
1746 1 1187 1186 1205
1747 1 1186 1187 1188
1748 1 1186 1187 1210
1749 1 1188 1187 1210
1750 1 1187 1188 1189
1751 1 1187 1188 1215
1752 1 1189 1188 1215
1753 1 1188 1189 1190
1754 1 1189 1190 1191
1755 1 1189 1190 1220
1756 1 1191 1190 1220
1757 1 1190 1191 1192
1758 1 1190 1191 1225
1759 1 1192 1191 1225
1760 1 1191 1192 1193
1761 1 1192 1193 1194
1762 1 1192 1193 1230
1763 1 1194 1193 1230
1764 1 1193 1194 1195
1765 1 1194 1195 1196
1766 1 1195 1196 1197
1767 1 1195 1196 1235
1768 1 1197 1196 1235
1769 1 1196 1197 1198
1770 1 1196 1197 1240
1771 1 1198 1197 1240
1772 1 1197 1198 1199
1773 1 1198 1199 1200
1774 1 1199 1200 1201
1775 1 1200 1201 1202
1776 1 1201 1202 1203
1777 1 1202 1203 1204
1778 1 1202 1203 1245
1779 1 1204 1203 1245
1780 1 1203 1204 38
1781 1 1186 1205 1206
1782 1 1205 1206 1207
1783 1 1206 1207 1208
1784 1 1207 1208 1209
1785 1 1187 1210 1211
1786 1 1210 1211 1212
1787 1 1211 1212 1213
1788 1 1212 1213 1214
1789 1 1188 1215 1216
1790 1 1215 1216 1217
1791 1 1216 1217 1218
1792 1 1217 1218 1219
1793 1 1190 1220 1221
1794 1 1220 1221 1222
1795 1 1221 1222 1223
1796 1 1222 1223 1224
1797 1 1191 1225 1226
1798 1 1225 1226 1227
1799 1 1226 1227 1228
1800 1 1227 1228 1229
1801 1 1193 1230 1231
1802 1 1230 1231 1232
1803 1 1231 1232 1233
1804 1 1232 1233 1234
1805 1 1196 1235 1236
1806 1 1235 1236 1237
1807 1 1236 1237 1238
1808 1 1237 1238 1239
1809 1 1197 1240 1241
1810 1 1240 1241 1242
1811 1 1241 1242 1243
1812 1 1242 1243 1244
1813 1 1203 1245 1246
1814 1 1245 1246 1247
1815 1 1246 1247 1248
1816 1 1247 1248 1249
1817 1 1251 1250 10
1818 1 1250 1251 1252
1819 1 1251 1252 1253
1820 1 1252 1253 1254
1821 1 1253 1254 1255
1822 1 1254 1255 1256
1823 1 1255 1256 1257
1824 1 1256 1257 1258
1825 1 1257 1258 1259
1826 1 1258 1259 1260
1827 1 1259 1260 1261
1828 1 1260 1261 1262
1829 1 1260 1261 1270
1830 1 1262 1261 1270
1831 1 1261 1262 1263
1832 1 1262 1263 1264
1833 1 1263 1264 1265
1834 1 1264 1265 1266
1835 1 1265 1266 1267
1836 1 1266 1267 1268
1837 1 1267 1268 1269
1838 1 1268 1269 14
1839 1 1261 1270 1271
1840 1 1270 1271 1272
1841 1 1271 1272 1273
1842 1 1272 1273 1274
1843 1 1276 1275 11
1844 1 1275 1276 1277
1845 1 1276 1277 1278
1846 1 1277 1278 1279
1847 1 1278 1279 1280
1848 1 1279 1280 1281
1849 1 1280 1281 1282
1850 1 1281 1282 1283
1851 1 1282 1283 1284
1852 1 1283 1284 1285
1853 1 1283 1284 1295
1854 1 1285 1284 1295
1855 1 1284 1285 1286
1856 1 1284 1285 1300
1857 1 1286 1285 1300
1858 1 1285 1286 1287
1859 1 1285 1286 1305
1860 1 1287 1286 1305
1861 1 1286 1287 1288
1862 1 1287 1288 1289
1863 1 1288 1289 1290
1864 1 1289 1290 1291
1865 1 1290 1291 1292
1866 1 1291 1292 1293
1867 1 1292 1293 1294
1868 1 1292 1293 1310
1869 1 1294 1293 1310
1870 1 1293 1294 12
1871 1 1284 1295 1296
1872 1 1295 1296 1297
1873 1 1296 1297 1298
1874 1 1297 1298 1299
1875 1 1285 1300 1301
1876 1 1300 1301 1302
1877 1 1301 1302 1303
1878 1 1302 1303 1304
1879 1 1286 1305 1306
1880 1 1305 1306 1307
1881 1 1306 1307 1308
1882 1 1307 1308 1309
1883 1 1293 1310 1311
1884 1 1310 1311 1312
1885 1 1311 1312 1313
1886 1 1312 1313 1314
1887 1 1316 1315 11
1888 1 1315 1316 1317
1889 1 1316 1317 1318
1890 1 1317 1318 1319
1891 1 1318 1319 1320
1892 1 1319 1320 1321
1893 1 1320 1321 1322
1894 1 1321 1322 1323
1895 1 1322 1323 1324
1896 1 1323 1324 1325
1897 1 1323 1324 1335
1898 1 1325 1324 1335
1899 1 1324 1325 1326
1900 1 1325 1326 1327
1901 1 1326 1327 1328
1902 1 1327 1328 1329
1903 1 1328 1329 1330
1904 1 1329 1330 1331
1905 1 1330 1331 1332
1906 1 1331 1332 1333
1907 1 1331 1332 1340
1908 1 1333 1332 1340
1909 1 1332 1333 1334
1910 1 1332 1333 1345
1911 1 1334 1333 1345
1912 1 1333 1334 16
1913 1 1333 1334 1350
1914 1 16 1334 1350
1915 1 1324 1335 1336
1916 1 1335 1336 1337
1917 1 1336 1337 1338
1918 1 1337 1338 1339
1919 1 1332 1340 1341
1920 1 1340 1341 1342
1921 1 1341 1342 1343
1922 1 1342 1343 1344
1923 1 1333 1345 1346
1924 1 1345 1346 1347
1925 1 1346 1347 1348
1926 1 1347 1348 1349
1927 1 1334 1350 1351
1928 1 1350 1351 1352
1929 1 1351 1352 1353
1930 1 1352 1353 1354
1931 1 1356 1355 11
1932 1 1356 1355 1375
1933 1 11 1355 1375
1934 1 1355 1356 1357
1935 1 1356 1357 1358
1936 1 1356 1357 1380
1937 1 1358 1357 1380
1938 1 1357 1358 1359
1939 1 1358 1359 1360
1940 1 1359 1360 1361
1941 1 1360 1361 1362
1942 1 1361 1362 1363
1943 1 1361 1362 1385
1944 1 1363 1362 1385
1945 1 1362 1363 1364
1946 1 1363 1364 1365
1947 1 1364 1365 1366
1948 1 1365 1366 1367
1949 1 1365 1366 1390
1950 1 1367 1366 1390
1951 1 1366 1367 1368
1952 1 1367 1368 1369
1953 1 1368 1369 1370
1954 1 1369 1370 1371
1955 1 1370 1371 1372
1956 1 1371 1372 1373
1957 1 1372 1373 1374
1958 1 1373 1374 39
1959 1 1355 1375 1376
1960 1 1375 1376 1377
1961 1 1376 1377 1378
1962 1 1377 1378 1379
1963 1 1357 1380 1381
1964 1 1380 1381 1382
1965 1 1381 1382 1383
1966 1 1382 1383 1384
1967 1 1362 1385 1386
1968 1 1385 1386 1387
1969 1 1386 1387 1388
1970 1 1387 1388 1389
1971 1 1366 1390 1391
1972 1 1390 1391 1392
1973 1 1391 1392 1393
1974 1 1392 1393 1394
1975 1 1396 1395 12
1976 1 1395 1396 1397
1977 1 1395 1396 1415
1978 1 1397 1396 1415
1979 1 1396 1397 1398
1980 1 1396 1397 1420
1981 1 1398 1397 1420
1982 1 1397 1398 1399
1983 1 1398 1399 1400
1984 1 1399 1400 1401
1985 1 1400 1401 1402
1986 1 1400 1401 1425
1987 1 1402 1401 1425
1988 1 1401 1402 1403
1989 1 1402 1403 1404
1990 1 1402 1403 1430
1991 1 1404 1403 1430
1992 1 1403 1404 1405
1993 1 1404 1405 1406
1994 1 1405 1406 1407
1995 1 1405 1406 1435
1996 1 1407 1406 1435
1997 1 1406 1407 1408
1998 1 1407 1408 1409
1999 1 1408 1409 1410
2000 1 1408 1409 1440
2001 1 1410 1409 1440
2002 1 1409 1410 1411
2003 1 1410 1411 1412
2004 1 1411 1412 1413
2005 1 1412 1413 1414
2006 1 1412 1413 1445
2007 1 1414 1413 1445
2008 1 1413 1414 40
2009 1 1396 1415 1416
2010 1 1415 1416 1417
2011 1 1416 1417 1418
2012 1 1417 1418 1419
2013 1 1397 1420 1421
2014 1 1420 1421 1422
2015 1 1421 1422 1423
2016 1 1422 1423 1424
2017 1 1401 1425 1426
2018 1 1425 1426 1427
2019 1 1426 1427 1428
2020 1 1427 1428 1429
2021 1 1403 1430 1431
2022 1 1430 1431 1432
2023 1 1431 1432 1433
2024 1 1432 1433 1434
2025 1 1406 1435 1436
2026 1 1435 1436 1437
2027 1 1436 1437 1438
2028 1 1437 1438 1439
2029 1 1409 1440 1441
2030 1 1440 1441 1442
2031 1 1441 1442 1443
2032 1 1442 1443 1444
2033 1 1413 1445 1446
2034 1 1445 1446 1447
2035 1 1446 1447 1448
2036 1 1447 1448 1449
2037 1 1451 1450 12
2038 1 1450 1451 1452
2039 1 1451 1452 1453
2040 1 1452 1453 1454
2041 1 1453 1454 1455
2042 1 1454 1455 1456
2043 1 1454 1455 1470
2044 1 1456 1455 1470
2045 1 1455 1456 1457
2046 1 1456 1457 1458
2047 1 1456 1457 1475
2048 1 1458 1457 1475
2049 1 1457 1458 1459
2050 1 1458 1459 1460
2051 1 1458 1459 1480
2052 1 1460 1459 1480
2053 1 1459 1460 1461
2054 1 1460 1461 1462
2055 1 1461 1462 1463
2056 1 1462 1463 1464
2057 1 1463 1464 1465
2058 1 1464 1465 1466
2059 1 1465 1466 1467
2060 1 1465 1466 1485
2061 1 1467 1466 1485
2062 1 1466 1467 1468
2063 1 1467 1468 1469
2064 1 1468 1469 124
2065 1 1455 1470 1471
2066 1 1470 1471 1472
2067 1 1471 1472 1473
2068 1 1472 1473 1474
2069 1 1457 1475 1476
2070 1 1475 1476 1477
2071 1 1476 1477 1478
2072 1 1477 1478 1479
2073 1 1459 1480 1481
2074 1 1480 1481 1482
2075 1 1481 1482 1483
2076 1 1482 1483 1484
2077 1 1466 1485 1486
2078 1 1485 1486 1487
2079 1 1486 1487 1488
2080 1 1487 1488 1489
2081 1 1491 1490 13
2082 1 1490 1491 1492
2083 1 1491 1492 1493
2084 1 1492 1493 1494
2085 1 1492 1493 1510
2086 1 1494 1493 1510
2087 1 1493 1494 1495
2088 1 1494 1495 1496
2089 1 1495 1496 1497
2090 1 1495 1496 1515
2091 1 1497 1496 1515
2092 1 1496 1497 1498
2093 1 1496 1497 1520
2094 1 1498 1497 1520
2095 1 1497 1498 1499
2096 1 1497 1498 1525
2097 1 1499 1498 1525
2098 1 1498 1499 1500
2099 1 1499 1500 1501
2100 1 1499 1500 1530
2101 1 1501 1500 1530
2102 1 1500 1501 1502
2103 1 1500 1501 1535
2104 1 1502 1501 1535
2105 1 1501 1502 1503
2106 1 1502 1503 1504
2107 1 1503 1504 1505
2108 1 1504 1505 1506
2109 1 1504 1505 1540
2110 1 1506 1505 1540
2111 1 1505 1506 1507
2112 1 1506 1507 1508
2113 1 1507 1508 1509
2114 1 1508 1509 14
2115 1 1493 1510 1511
2116 1 1510 1511 1512
2117 1 1511 1512 1513
2118 1 1512 1513 1514
2119 1 1496 1515 1516
2120 1 1515 1516 1517
2121 1 1516 1517 1518
2122 1 1517 1518 1519
2123 1 1497 1520 1521
2124 1 1520 1521 1522
2125 1 1521 1522 1523
2126 1 1522 1523 1524
2127 1 1498 1525 1526
2128 1 1525 1526 1527
2129 1 1526 1527 1528
2130 1 1527 1528 1529
2131 1 1500 1530 1531
2132 1 1530 1531 1532
2133 1 1531 1532 1533
2134 1 1532 1533 1534
2135 1 1501 1535 1536
2136 1 1535 1536 1537
2137 1 1536 1537 1538
2138 1 1537 1538 1539
2139 1 1505 1540 1541
2140 1 1540 1541 1542
2141 1 1541 1542 1543
2142 1 1542 1543 1544
2143 1 1546 1545 13
2144 1 1545 1546 1547
2145 1 1546 1547 1548
2146 1 1547 1548 1549
2147 1 1548 1549 1550
2148 1 1548 1549 1565
2149 1 1550 1549 1565
2150 1 1549 1550 1551
2151 1 1549 1550 1570
2152 1 1551 1550 1570
2153 1 1550 1551 1552
2154 1 1551 1552 1553
2155 1 1552 1553 1554
2156 1 1553 1554 1555
2157 1 1554 1555 1556
2158 1 1555 1556 1557
2159 1 1556 1557 1558
2160 1 1557 1558 1559
2161 1 1558 1559 1560
2162 1 1558 1559 1575
2163 1 1560 1559 1575
2164 1 1559 1560 1561
2165 1 1560 1561 1562
2166 1 1561 1562 1563
2167 1 1562 1563 1564
2168 1 1563 1564 21
2169 1 1563 1564 1580
2170 1 21 1564 1580
2171 1 1549 1565 1566
2172 1 1565 1566 1567
2173 1 1566 1567 1568
2174 1 1567 1568 1569
2175 1 1550 1570 1571
2176 1 1570 1571 1572
2177 1 1571 1572 1573
2178 1 1572 1573 1574
2179 1 1559 1575 1576
2180 1 1575 1576 1577
2181 1 1576 1577 1578
2182 1 1577 1578 1579
2183 1 1564 1580 1581
2184 1 1580 1581 1582
2185 1 1581 1582 1583
2186 1 1582 1583 1584
2187 1 1586 1585 13
2188 1 1586 1585 1605
2189 1 13 1585 1605
2190 1 1585 1586 1587
2191 1 1586 1587 1588
2192 1 1587 1588 1589
2193 1 1588 1589 1590
2194 1 1589 1590 1591
2195 1 1590 1591 1592
2196 1 1591 1592 1593
2197 1 1592 1593 1594
2198 1 1593 1594 1595
2199 1 1594 1595 1596
2200 1 1594 1595 1610
2201 1 1596 1595 1610
2202 1 1595 1596 1597
2203 1 1595 1596 1615
2204 1 1597 1596 1615
2205 1 1596 1597 1598
2206 1 1597 1598 1599
2207 1 1598 1599 1600
2208 1 1599 1600 1601
2209 1 1599 1600 1620
2210 1 1601 1600 1620
2211 1 1600 1601 1602
2212 1 1601 1602 1603
2213 1 1602 1603 1604
2214 1 1603 1604 125
2215 1 1585 1605 1606
2216 1 1605 1606 1607
2217 1 1606 1607 1608
2218 1 1607 1608 1609
2219 1 1595 1610 1611
2220 1 1610 1611 1612
2221 1 1611 1612 1613
2222 1 1612 1613 1614
2223 1 1596 1615 1616
2224 1 1615 1616 1617
2225 1 1616 1617 1618
2226 1 1617 1618 1619
2227 1 1600 1620 1621
2228 1 1620 1621 1622
2229 1 1621 1622 1623
2230 1 1622 1623 1624
2231 1 1626 1625 14
2232 1 1625 1626 1627
2233 1 1626 1627 1628
2234 1 1627 1628 1629
2235 1 1628 1629 1630
2236 1 1629 1630 1631
2237 1 1630 1631 1632
2238 1 1630 1631 1645
2239 1 1632 1631 1645
2240 1 1631 1632 1633
2241 1 1632 1633 1634
2242 1 1633 1634 1635
2243 1 1634 1635 1636
2244 1 1635 1636 1637
2245 1 1635 1636 1650
2246 1 1637 1636 1650
2247 1 1636 1637 1638
2248 1 1637 1638 1639
2249 1 1638 1639 1640
2250 1 1639 1640 1641
2251 1 1640 1641 1642
2252 1 1641 1642 1643
2253 1 1642 1643 1644
2254 1 1643 1644 22
2255 1 1631 1645 1646
2256 1 1645 1646 1647
2257 1 1646 1647 1648
2258 1 1647 1648 1649
2259 1 1636 1650 1651
2260 1 1650 1651 1652
2261 1 1651 1652 1653
2262 1 1652 1653 1654
2263 1 1656 1655 15
2264 1 1655 1656 1657
2265 1 1656 1657 1658
2266 1 1657 1658 1659
2267 1 1658 1659 1660
2268 1 1659 1660 1661
2269 1 1660 1661 1662
2270 1 1660 1661 1675
2271 1 1662 1661 1675
2272 1 1661 1662 1663
2273 1 1661 1662 1680
2274 1 1663 1662 1680
2275 1 1662 1663 1664
2276 1 1662 1663 1685
2277 1 1664 1663 1685
2278 1 1663 1664 1665
2279 1 1664 1665 1666
2280 1 1665 1666 1667
2281 1 1666 1667 1668
2282 1 1667 1668 1669
2283 1 1668 1669 1670
2284 1 1668 1669 1690
2285 1 1670 1669 1690
2286 1 1669 1670 1671
2287 1 1670 1671 1672
2288 1 1670 1671 1695
2289 1 1672 1671 1695
2290 1 1671 1672 1673
2291 1 1672 1673 1674
2292 1 1672 1673 1700
2293 1 1674 1673 1700
2294 1 1673 1674 23
2295 1 1673 1674 1705
2296 1 23 1674 1705
2297 1 1661 1675 1676
2298 1 1675 1676 1677
2299 1 1676 1677 1678
2300 1 1677 1678 1679
2301 1 1662 1680 1681
2302 1 1680 1681 1682
2303 1 1681 1682 1683
2304 1 1682 1683 1684
2305 1 1663 1685 1686
2306 1 1685 1686 1687
2307 1 1686 1687 1688
2308 1 1687 1688 1689
2309 1 1669 1690 1691
2310 1 1690 1691 1692
2311 1 1691 1692 1693
2312 1 1692 1693 1694
2313 1 1671 1695 1696
2314 1 1695 1696 1697
2315 1 1696 1697 1698
2316 1 1697 1698 1699
2317 1 1673 1700 1701
2318 1 1700 1701 1702
2319 1 1701 1702 1703
2320 1 1702 1703 1704
2321 1 1674 1705 1706
2322 1 1705 1706 1707
2323 1 1706 1707 1708
2324 1 1707 1708 1709
2325 1 1711 1710 15
2326 1 1710 1711 1712
2327 1 1711 1712 1713
2328 1 1712 1713 1714
2329 1 1713 1714 1715
2330 1 1714 1715 1716
2331 1 1715 1716 1717
2332 1 1715 1716 1730
2333 1 1717 1716 1730
2334 1 1716 1717 1718
2335 1 1717 1718 1719
2336 1 1718 1719 1720
2337 1 1719 1720 1721
2338 1 1719 1720 1735
2339 1 1721 1720 1735
2340 1 1720 1721 1722
2341 1 1721 1722 1723
2342 1 1722 1723 1724
2343 1 1723 1724 1725
2344 1 1724 1725 1726
2345 1 1724 1725 1740
2346 1 1726 1725 1740
2347 1 1725 1726 1727
2348 1 1726 1727 1728
2349 1 1727 1728 1729
2350 1 1728 1729 43
2351 1 1728 1729 1745
2352 1 43 1729 1745
2353 1 1716 1730 1731
2354 1 1730 1731 1732
2355 1 1731 1732 1733
2356 1 1732 1733 1734
2357 1 1720 1735 1736
2358 1 1735 1736 1737
2359 1 1736 1737 1738
2360 1 1737 1738 1739
2361 1 1725 1740 1741
2362 1 1740 1741 1742
2363 1 1741 1742 1743
2364 1 1742 1743 1744
2365 1 1729 1745 1746
2366 1 1745 1746 1747
2367 1 1746 1747 1748
2368 1 1747 1748 1749
2369 1 1751 1750 15
2370 1 1750 1751 1752
2371 1 1751 1752 1753
2372 1 1752 1753 1754
2373 1 1753 1754 1755
2374 1 1754 1755 1756
2375 1 1754 1755 1770
2376 1 1756 1755 1770
2377 1 1755 1756 1757
2378 1 1755 1756 1775
2379 1 1757 1756 1775
2380 1 1756 1757 1758
2381 1 1756 1757 1780
2382 1 1758 1757 1780
2383 1 1757 1758 1759
2384 1 1758 1759 1760
2385 1 1759 1760 1761
2386 1 1760 1761 1762
2387 1 1761 1762 1763
2388 1 1762 1763 1764
2389 1 1762 1763 1785
2390 1 1764 1763 1785
2391 1 1763 1764 1765
2392 1 1764 1765 1766
2393 1 1765 1766 1767
2394 1 1766 1767 1768
2395 1 1767 1768 1769
2396 1 1768 1769 22
2397 1 1755 1770 1771
2398 1 1770 1771 1772
2399 1 1771 1772 1773
2400 1 1772 1773 1774
2401 1 1756 1775 1776
2402 1 1775 1776 1777
2403 1 1776 1777 1778
2404 1 1777 1778 1779
2405 1 1757 1780 1781
2406 1 1780 1781 1782
2407 1 1781 1782 1783
2408 1 1782 1783 1784
2409 1 1763 1785 1786
2410 1 1785 1786 1787
2411 1 1786 1787 1788
2412 1 1787 1788 1789
2413 1 1791 1790 16
2414 1 1791 1790 1810
2415 1 16 1790 1810
2416 1 1790 1791 1792
2417 1 1790 1791 1815
2418 1 1792 1791 1815
2419 1 1791 1792 1793
2420 1 1792 1793 1794
2421 1 1793 1794 1795
2422 1 1794 1795 1796
2423 1 1795 1796 1797
2424 1 1796 1797 1798
2425 1 1797 1798 1799
2426 1 1798 1799 1800
2427 1 1799 1800 1801
2428 1 1799 1800 1820
2429 1 1801 1800 1820
2430 1 1800 1801 1802
2431 1 1801 1802 1803
2432 1 1802 1803 1804
2433 1 1803 1804 1805
2434 1 1804 1805 1806
2435 1 1805 1806 1807
2436 1 1806 1807 1808
2437 1 1807 1808 1809
2438 1 1808 1809 24
2439 1 1790 1810 1811
2440 1 1810 1811 1812
2441 1 1811 1812 1813
2442 1 1812 1813 1814
2443 1 1791 1815 1816
2444 1 1815 1816 1817
2445 1 1816 1817 1818
2446 1 1817 1818 1819
2447 1 1800 1820 1821
2448 1 1820 1821 1822
2449 1 1821 1822 1823
2450 1 1822 1823 1824
2451 1 1826 1825 16
2452 1 1826 1825 1845
2453 1 16 1825 1845
2454 1 1825 1826 1827
2455 1 1826 1827 1828
2456 1 1827 1828 1829
2457 1 1828 1829 1830
2458 1 1829 1830 1831
2459 1 1829 1830 1850
2460 1 1831 1830 1850
2461 1 1830 1831 1832
2462 1 1831 1832 1833
2463 1 1832 1833 1834
2464 1 1833 1834 1835
2465 1 1833 1834 1855
2466 1 1835 1834 1855
2467 1 1834 1835 1836
2468 1 1835 1836 1837
2469 1 1836 1837 1838
2470 1 1837 1838 1839
2471 1 1837 1838 1860
2472 1 1839 1838 1860
2473 1 1838 1839 1840
2474 1 1839 1840 1841
2475 1 1840 1841 1842
2476 1 1841 1842 1843
2477 1 1842 1843 1844
2478 1 1842 1843 1865
2479 1 1844 1843 1865
2480 1 1843 1844 131
2481 1 1825 1845 1846
2482 1 1845 1846 1847
2483 1 1846 1847 1848
2484 1 1847 1848 1849
2485 1 1830 1850 1851
2486 1 1850 1851 1852
2487 1 1851 1852 1853
2488 1 1852 1853 1854
2489 1 1834 1855 1856
2490 1 1855 1856 1857
2491 1 1856 1857 1858
2492 1 1857 1858 1859
2493 1 1838 1860 1861
2494 1 1860 1861 1862
2495 1 1861 1862 1863
2496 1 1862 1863 1864
2497 1 1843 1865 1866
2498 1 1865 1866 1867
2499 1 1866 1867 1868
2500 1 1867 1868 1869
2501 1 1871 1870 17
2502 1 1871 1870 1890
2503 1 17 1870 1890
2504 1 1870 1871 1872
2505 1 1871 1872 1873
2506 1 1872 1873 1874
2507 1 1873 1874 1875
2508 1 1874 1875 1876
2509 1 1875 1876 1877
2510 1 1876 1877 1878
2511 1 1877 1878 1879
2512 1 1878 1879 1880
2513 1 1879 1880 1881
2514 1 1880 1881 1882
2515 1 1881 1882 1883
2516 1 1882 1883 1884
2517 1 1883 1884 1885
2518 1 1883 1884 1895
2519 1 1885 1884 1895
2520 1 1884 1885 1886
2521 1 1885 1886 1887
2522 1 1886 1887 1888
2523 1 1887 1888 1889
2524 1 1887 1888 1900
2525 1 1889 1888 1900
2526 1 1888 1889 44
2527 1 1870 1890 1891
2528 1 1890 1891 1892
2529 1 1891 1892 1893
2530 1 1892 1893 1894
2531 1 1884 1895 1896
2532 1 1895 1896 1897
2533 1 1896 1897 1898
2534 1 1897 1898 1899
2535 1 1888 1900 1901
2536 1 1900 1901 1902
2537 1 1901 1902 1903
2538 1 1902 1903 1904
2539 1 1906 1905 21
2540 1 1905 1906 1907
2541 1 1906 1907 1908
2542 1 1907 1908 1909
2543 1 1908 1909 1910
2544 1 1909 1910 1911
2545 1 1910 1911 1912
2546 1 1911 1912 1913
2547 1 1912 1913 1914
2548 1 1913 1914 1915
2549 1 1914 1915 1916
2550 1 1915 1916 1917
2551 1 1916 1917 1918
2552 1 1916 1917 1925
2553 1 1918 1917 1925
2554 1 1917 1918 1919
2555 1 1918 1919 1920
2556 1 1919 1920 1921
2557 1 1920 1921 1922
2558 1 1920 1921 1930
2559 1 1922 1921 1930
2560 1 1921 1922 1923
2561 1 1922 1923 1924
2562 1 1923 1924 26
2563 1 1917 1925 1926
2564 1 1925 1926 1927
2565 1 1926 1927 1928
2566 1 1927 1928 1929
2567 1 1921 1930 1931
2568 1 1930 1931 1932
2569 1 1931 1932 1933
2570 1 1932 1933 1934
2571 1 1936 1935 21
2572 1 1935 1936 1937
2573 1 1936 1937 1938
2574 1 1937 1938 1939
2575 1 1938 1939 1940
2576 1 1938 1939 1955
2577 1 1940 1939 1955
2578 1 1939 1940 1941
2579 1 1940 1941 1942
2580 1 1941 1942 1943
2581 1 1941 1942 1960
2582 1 1943 1942 1960
2583 1 1942 1943 1944
2584 1 1942 1943 1965
2585 1 1944 1943 1965
2586 1 1943 1944 1945
2587 1 1943 1944 1970
2588 1 1945 1944 1970
2589 1 1944 1945 1946
2590 1 1945 1946 1947
2591 1 1945 1946 1975
2592 1 1947 1946 1975
2593 1 1946 1947 1948
2594 1 1947 1948 1949
2595 1 1947 1948 1980
2596 1 1949 1948 1980
2597 1 1948 1949 1950
2598 1 1949 1950 1951
2599 1 1950 1951 1952
2600 1 1950 1951 1985
2601 1 1952 1951 1985
2602 1 1951 1952 1953
2603 1 1952 1953 1954
2604 1 1953 1954 133
2605 1 1939 1955 1956
2606 1 1955 1956 1957
2607 1 1956 1957 1958
2608 1 1957 1958 1959
2609 1 1942 1960 1961
2610 1 1960 1961 1962
2611 1 1961 1962 1963
2612 1 1962 1963 1964
2613 1 1943 1965 1966
2614 1 1965 1966 1967
2615 1 1966 1967 1968
2616 1 1967 1968 1969
2617 1 1944 1970 1971
2618 1 1970 1971 1972
2619 1 1971 1972 1973
2620 1 1972 1973 1974
2621 1 1946 1975 1976
2622 1 1975 1976 1977
2623 1 1976 1977 1978
2624 1 1977 1978 1979
2625 1 1948 1980 1981
2626 1 1980 1981 1982
2627 1 1981 1982 1983
2628 1 1982 1983 1984
2629 1 1951 1985 1986
2630 1 1985 1986 1987
2631 1 1986 1987 1988
2632 1 1987 1988 1989
2633 1 1991 1990 22
2634 1 1990 1991 1992
2635 1 1990 1991 2010
2636 1 1992 1991 2010
2637 1 1991 1992 1993
2638 1 1992 1993 1994
2639 1 1993 1994 1995
2640 1 1994 1995 1996
2641 1 1995 1996 1997
2642 1 1996 1997 1998
2643 1 1997 1998 1999
2644 1 1998 1999 2000
2645 1 1999 2000 2001
2646 1 2000 2001 2002
2647 1 2001 2002 2003
2648 1 2002 2003 2004
2649 1 2002 2003 2015
2650 1 2004 2003 2015
2651 1 2003 2004 2005
2652 1 2004 2005 2006
2653 1 2005 2006 2007
2654 1 2006 2007 2008
2655 1 2007 2008 2009
2656 1 2008 2009 27
2657 1 1991 2010 2011
2658 1 2010 2011 2012
2659 1 2011 2012 2013
2660 1 2012 2013 2014
2661 1 2003 2015 2016
2662 1 2015 2016 2017
2663 1 2016 2017 2018
2664 1 2017 2018 2019
2665 1 2021 2020 22
2666 1 2021 2020 2040
2667 1 22 2020 2040
2668 1 2020 2021 2022
2669 1 2020 2021 2045
2670 1 2022 2021 2045
2671 1 2021 2022 2023
2672 1 2022 2023 2024
2673 1 2023 2024 2025
2674 1 2024 2025 2026
2675 1 2025 2026 2027
2676 1 2026 2027 2028
2677 1 2026 2027 2050
2678 1 2028 2027 2050
2679 1 2027 2028 2029
2680 1 2028 2029 2030
2681 1 2029 2030 2031
2682 1 2030 2031 2032
2683 1 2031 2032 2033
2684 1 2032 2033 2034
2685 1 2033 2034 2035
2686 1 2034 2035 2036
2687 1 2035 2036 2037
2688 1 2036 2037 2038
2689 1 2037 2038 2039
2690 1 2038 2039 134
2691 1 2020 2040 2041
2692 1 2040 2041 2042
2693 1 2041 2042 2043
2694 1 2042 2043 2044
2695 1 2021 2045 2046
2696 1 2045 2046 2047
2697 1 2046 2047 2048
2698 1 2047 2048 2049
2699 1 2027 2050 2051
2700 1 2050 2051 2052
2701 1 2051 2052 2053
2702 1 2052 2053 2054
2703 1 2056 2055 23
2704 1 2055 2056 2057
2705 1 2055 2056 2075
2706 1 2057 2056 2075
2707 1 2056 2057 2058
2708 1 2057 2058 2059
2709 1 2058 2059 2060
2710 1 2059 2060 2061
2711 1 2059 2060 2080
2712 1 2061 2060 2080
2713 1 2060 2061 2062
2714 1 2061 2062 2063
2715 1 2062 2063 2064
2716 1 2063 2064 2065
2717 1 2064 2065 2066
2718 1 2065 2066 2067
2719 1 2066 2067 2068
2720 1 2067 2068 2069
2721 1 2068 2069 2070
2722 1 2068 2069 2085
2723 1 2070 2069 2085
2724 1 2069 2070 2071
2725 1 2070 2071 2072
2726 1 2071 2072 2073
2727 1 2071 2072 2090
2728 1 2073 2072 2090
2729 1 2072 2073 2074
2730 1 2072 2073 2095
2731 1 2074 2073 2095
2732 1 2073 2074 24
2733 1 2073 2074 2100
2734 1 24 2074 2100
2735 1 2056 2075 2076
2736 1 2075 2076 2077
2737 1 2076 2077 2078
2738 1 2077 2078 2079
2739 1 2060 2080 2081
2740 1 2080 2081 2082
2741 1 2081 2082 2083
2742 1 2082 2083 2084
2743 1 2069 2085 2086
2744 1 2085 2086 2087
2745 1 2086 2087 2088
2746 1 2087 2088 2089
2747 1 2072 2090 2091
2748 1 2090 2091 2092
2749 1 2091 2092 2093
2750 1 2092 2093 2094
2751 1 2073 2095 2096
2752 1 2095 2096 2097
2753 1 2096 2097 2098
2754 1 2097 2098 2099
2755 1 2074 2100 2101
2756 1 2100 2101 2102
2757 1 2101 2102 2103
2758 1 2102 2103 2104
2759 1 2106 2105 23
2760 1 2105 2106 2107
2761 1 2105 2106 2125
2762 1 2107 2106 2125
2763 1 2106 2107 2108
2764 1 2107 2108 2109
2765 1 2108 2109 2110
2766 1 2108 2109 2130
2767 1 2110 2109 2130
2768 1 2109 2110 2111
2769 1 2110 2111 2112
2770 1 2111 2112 2113
2771 1 2112 2113 2114
2772 1 2112 2113 2135
2773 1 2114 2113 2135
2774 1 2113 2114 2115
2775 1 2114 2115 2116
2776 1 2115 2116 2117
2777 1 2116 2117 2118
2778 1 2117 2118 2119
2779 1 2118 2119 2120
2780 1 2118 2119 2140
2781 1 2120 2119 2140
2782 1 2119 2120 2121
2783 1 2120 2121 2122
2784 1 2121 2122 2123
2785 1 2122 2123 2124
2786 1 2123 2124 27
2787 1 2106 2125 2126
2788 1 2125 2126 2127
2789 1 2126 2127 2128
2790 1 2127 2128 2129
2791 1 2109 2130 2131
2792 1 2130 2131 2132
2793 1 2131 2132 2133
2794 1 2132 2133 2134
2795 1 2113 2135 2136
2796 1 2135 2136 2137
2797 1 2136 2137 2138
2798 1 2137 2138 2139
2799 1 2119 2140 2141
2800 1 2140 2141 2142
2801 1 2141 2142 2143
2802 1 2142 2143 2144
2803 1 2146 2145 24
2804 1 2146 2145 2165
2805 1 24 2145 2165
2806 1 2145 2146 2147
2807 1 2146 2147 2148
2808 1 2147 2148 2149
2809 1 2148 2149 2150
2810 1 2149 2150 2151
2811 1 2150 2151 2152
2812 1 2151 2152 2153
2813 1 2152 2153 2154
2814 1 2153 2154 2155
2815 1 2154 2155 2156
2816 1 2155 2156 2157
2817 1 2156 2157 2158
2818 1 2157 2158 2159
2819 1 2158 2159 2160
2820 1 2159 2160 2161
2821 1 2160 2161 2162
2822 1 2161 2162 2163
2823 1 2162 2163 2164
2824 1 2163 2164 48
2825 1 2163 2164 2170
2826 1 48 2164 2170
2827 1 2145 2165 2166
2828 1 2165 2166 2167
2829 1 2166 2167 2168
2830 1 2167 2168 2169
2831 1 2164 2170 2171
2832 1 2170 2171 2172
2833 1 2171 2172 2173
2834 1 2172 2173 2174
2835 1 2176 2175 25
2836 1 2176 2175 2195
2837 1 25 2175 2195
2838 1 2175 2176 2177
2839 1 2176 2177 2178
2840 1 2177 2178 2179
2841 1 2178 2179 2180
2842 1 2179 2180 2181
2843 1 2179 2180 2200
2844 1 2181 2180 2200
2845 1 2180 2181 2182
2846 1 2181 2182 2183
2847 1 2182 2183 2184
2848 1 2182 2183 2205
2849 1 2184 2183 2205
2850 1 2183 2184 2185
2851 1 2184 2185 2186
2852 1 2185 2186 2187
2853 1 2186 2187 2188
2854 1 2187 2188 2189
2855 1 2188 2189 2190
2856 1 2189 2190 2191
2857 1 2190 2191 2192
2858 1 2191 2192 2193
2859 1 2192 2193 2194
2860 1 2193 2194 26
2861 1 2175 2195 2196
2862 1 2195 2196 2197
2863 1 2196 2197 2198
2864 1 2197 2198 2199
2865 1 2180 2200 2201
2866 1 2200 2201 2202
2867 1 2201 2202 2203
2868 1 2202 2203 2204
2869 1 2183 2205 2206
2870 1 2205 2206 2207
2871 1 2206 2207 2208
2872 1 2207 2208 2209
2873 1 2211 2210 25
2874 1 2210 2211 2212
2875 1 2211 2212 2213
2876 1 2211 2212 2230
2877 1 2213 2212 2230
2878 1 2212 2213 2214
2879 1 2212 2213 2235
2880 1 2214 2213 2235
2881 1 2213 2214 2215
2882 1 2214 2215 2216
2883 1 2215 2216 2217
2884 1 2216 2217 2218
2885 1 2216 2217 2240
2886 1 2218 2217 2240
2887 1 2217 2218 2219
2888 1 2217 2218 2245
2889 1 2219 2218 2245
2890 1 2218 2219 2220
2891 1 2218 2219 2250
2892 1 2220 2219 2250
2893 1 2219 2220 2221
2894 1 2220 2221 2222
2895 1 2221 2222 2223
2896 1 2222 2223 2224
2897 1 2223 2224 2225
2898 1 2224 2225 2226
2899 1 2224 2225 2255
2900 1 2226 2225 2255
2901 1 2225 2226 2227
2902 1 2225 2226 2260
2903 1 2227 2226 2260
2904 1 2226 2227 2228
2905 1 2227 2228 2229
2906 1 2228 2229 49
2907 1 2212 2230 2231
2908 1 2230 2231 2232
2909 1 2231 2232 2233
2910 1 2232 2233 2234
2911 1 2213 2235 2236
2912 1 2235 2236 2237
2913 1 2236 2237 2238
2914 1 2237 2238 2239
2915 1 2217 2240 2241
2916 1 2240 2241 2242
2917 1 2241 2242 2243
2918 1 2242 2243 2244
2919 1 2218 2245 2246
2920 1 2245 2246 2247
2921 1 2246 2247 2248
2922 1 2247 2248 2249
2923 1 2219 2250 2251
2924 1 2250 2251 2252
2925 1 2251 2252 2253
2926 1 2252 2253 2254
2927 1 2225 2255 2256
2928 1 2255 2256 2257
2929 1 2256 2257 2258
2930 1 2257 2258 2259
2931 1 2226 2260 2261
2932 1 2260 2261 2262
2933 1 2261 2262 2263
2934 1 2262 2263 2264
2935 1 2266 2265 26
2936 1 2265 2266 2267
2937 1 2265 2266 2285
2938 1 2267 2266 2285
2939 1 2266 2267 2268
2940 1 2267 2268 2269
2941 1 2268 2269 2270
2942 1 2269 2270 2271
2943 1 2270 2271 2272
2944 1 2271 2272 2273
2945 1 2271 2272 2290
2946 1 2273 2272 2290
2947 1 2272 2273 2274
2948 1 2273 2274 2275
2949 1 2274 2275 2276
2950 1 2275 2276 2277
2951 1 2276 2277 2278
2952 1 2277 2278 2279
2953 1 2278 2279 2280
2954 1 2279 2280 2281
2955 1 2280 2281 2282
2956 1 2281 2282 2283
2957 1 2282 2283 2284
2958 1 2283 2284 27
2959 1 2266 2285 2286
2960 1 2285 2286 2287
2961 1 2286 2287 2288
2962 1 2287 2288 2289
2963 1 2272 2290 2291
2964 1 2290 2291 2292
2965 1 2291 2292 2293
2966 1 2292 2293 2294
2967 1 2296 2295 26
2968 1 2296 2295 2315
2969 1 26 2295 2315
2970 1 2295 2296 2297
2971 1 2296 2297 2298
2972 1 2297 2298 2299
2973 1 2298 2299 2300
2974 1 2299 2300 2301
2975 1 2300 2301 2302
2976 1 2301 2302 2303
2977 1 2301 2302 2320
2978 1 2303 2302 2320
2979 1 2302 2303 2304
2980 1 2303 2304 2305
2981 1 2304 2305 2306
2982 1 2304 2305 2325
2983 1 2306 2305 2325
2984 1 2305 2306 2307
2985 1 2306 2307 2308
2986 1 2307 2308 2309
2987 1 2308 2309 2310
2988 1 2309 2310 2311
2989 1 2310 2311 2312
2990 1 2311 2312 2313
2991 1 2312 2313 2314
2992 1 2313 2314 53
2993 1 2295 2315 2316
2994 1 2315 2316 2317
2995 1 2316 2317 2318
2996 1 2317 2318 2319
2997 1 2302 2320 2321
2998 1 2320 2321 2322
2999 1 2321 2322 2323
3000 1 2322 2323 2324
3001 1 2305 2325 2326
3002 1 2325 2326 2327
3003 1 2326 2327 2328
3004 1 2327 2328 2329
3005 1 2331 2330 27
3006 1 2330 2331 2332
3007 1 2331 2332 2333
3008 1 2332 2333 2334
3009 1 2333 2334 2335
3010 1 2334 2335 2336
3011 1 2335 2336 2337
3012 1 2336 2337 2338
3013 1 2336 2337 2350
3014 1 2338 2337 2350
3015 1 2337 2338 2339
3016 1 2338 2339 2340
3017 1 2339 2340 2341
3018 1 2340 2341 2342
3019 1 2341 2342 2343
3020 1 2342 2343 2344
3021 1 2343 2344 2345
3022 1 2344 2345 2346
3023 1 2344 2345 2355
3024 1 2346 2345 2355
3025 1 2345 2346 2347
3026 1 2346 2347 2348
3027 1 2347 2348 2349
3028 1 2347 2348 2360
3029 1 2349 2348 2360
3030 1 2348 2349 139
3031 1 2337 2350 2351
3032 1 2350 2351 2352
3033 1 2351 2352 2353
3034 1 2352 2353 2354
3035 1 2345 2355 2356
3036 1 2355 2356 2357
3037 1 2356 2357 2358
3038 1 2357 2358 2359
3039 1 2348 2360 2361
3040 1 2360 2361 2362
3041 1 2361 2362 2363
3042 1 2362 2363 2364
3043 1 2366 2365 28
3044 1 2365 2366 2367
3045 1 2366 2367 2368
3046 1 2367 2368 2369
3047 1 2368 2369 2370
3048 1 2369 2370 2371
3049 1 2370 2371 2372
3050 1 2371 2372 2373
3051 1 2371 2372 2385
3052 1 2373 2372 2385
3053 1 2372 2373 2374
3054 1 2372 2373 2390
3055 1 2374 2373 2390
3056 1 2373 2374 2375
3057 1 2374 2375 2376
3058 1 2375 2376 2377
3059 1 2375 2376 2395
3060 1 2377 2376 2395
3061 1 2376 2377 2378
3062 1 2377 2378 2379
3063 1 2378 2379 2380
3064 1 2378 2379 2400
3065 1 2380 2379 2400
3066 1 2379 2380 2381
3067 1 2380 2381 2382
3068 1 2381 2382 2383
3069 1 2382 2383 2384
3070 1 2383 2384 55
3071 1 2383 2384 2405
3072 1 55 2384 2405
3073 1 2372 2385 2386
3074 1 2385 2386 2387
3075 1 2386 2387 2388
3076 1 2387 2388 2389
3077 1 2373 2390 2391
3078 1 2390 2391 2392
3079 1 2391 2392 2393
3080 1 2392 2393 2394
3081 1 2376 2395 2396
3082 1 2395 2396 2397
3083 1 2396 2397 2398
3084 1 2397 2398 2399
3085 1 2379 2400 2401
3086 1 2400 2401 2402
3087 1 2401 2402 2403
3088 1 2402 2403 2404
3089 1 2384 2405 2406
3090 1 2405 2406 2407
3091 1 2406 2407 2408
3092 1 2407 2408 2409
3093 1 2411 2410 28
3094 1 2411 2410 2430
3095 1 28 2410 2430
3096 1 2410 2411 2412
3097 1 2411 2412 2413
3098 1 2411 2412 2435
3099 1 2413 2412 2435
3100 1 2412 2413 2414
3101 1 2413 2414 2415
3102 1 2414 2415 2416
3103 1 2415 2416 2417
3104 1 2416 2417 2418
3105 1 2417 2418 2419
3106 1 2417 2418 2440
3107 1 2419 2418 2440
3108 1 2418 2419 2420
3109 1 2419 2420 2421
3110 1 2420 2421 2422
3111 1 2421 2422 2423
3112 1 2421 2422 2445
3113 1 2423 2422 2445
3114 1 2422 2423 2424
3115 1 2422 2423 2450
3116 1 2424 2423 2450
3117 1 2423 2424 2425
3118 1 2424 2425 2426
3119 1 2425 2426 2427
3120 1 2425 2426 2455
3121 1 2427 2426 2455
3122 1 2426 2427 2428
3123 1 2427 2428 2429
3124 1 2427 2428 2460
3125 1 2429 2428 2460
3126 1 2428 2429 32
3127 1 2410 2430 2431
3128 1 2430 2431 2432
3129 1 2431 2432 2433
3130 1 2432 2433 2434
3131 1 2412 2435 2436
3132 1 2435 2436 2437
3133 1 2436 2437 2438
3134 1 2437 2438 2439
3135 1 2418 2440 2441
3136 1 2440 2441 2442
3137 1 2441 2442 2443
3138 1 2442 2443 2444
3139 1 2422 2445 2446
3140 1 2445 2446 2447
3141 1 2446 2447 2448
3142 1 2447 2448 2449
3143 1 2423 2450 2451
3144 1 2450 2451 2452
3145 1 2451 2452 2453
3146 1 2452 2453 2454
3147 1 2426 2455 2456
3148 1 2455 2456 2457
3149 1 2456 2457 2458
3150 1 2457 2458 2459
3151 1 2428 2460 2461
3152 1 2460 2461 2462
3153 1 2461 2462 2463
3154 1 2462 2463 2464
3155 1 2466 2465 28
3156 1 2465 2466 2467
3157 1 2465 2466 2485
3158 1 2467 2466 2485
3159 1 2466 2467 2468
3160 1 2466 2467 2490
3161 1 2468 2467 2490
3162 1 2467 2468 2469
3163 1 2468 2469 2470
3164 1 2469 2470 2471
3165 1 2470 2471 2472
3166 1 2471 2472 2473
3167 1 2472 2473 2474
3168 1 2473 2474 2475
3169 1 2473 2474 2495
3170 1 2475 2474 2495
3171 1 2474 2475 2476
3172 1 2475 2476 2477
3173 1 2475 2476 2500
3174 1 2477 2476 2500
3175 1 2476 2477 2478
3176 1 2477 2478 2479
3177 1 2478 2479 2480
3178 1 2478 2479 2505
3179 1 2480 2479 2505
3180 1 2479 2480 2481
3181 1 2480 2481 2482
3182 1 2481 2482 2483
3183 1 2482 2483 2484
3184 1 2483 2484 47
3185 1 2466 2485 2486
3186 1 2485 2486 2487
3187 1 2486 2487 2488
3188 1 2487 2488 2489
3189 1 2467 2490 2491
3190 1 2490 2491 2492
3191 1 2491 2492 2493
3192 1 2492 2493 2494
3193 1 2474 2495 2496
3194 1 2495 2496 2497
3195 1 2496 2497 2498
3196 1 2497 2498 2499
3197 1 2476 2500 2501
3198 1 2500 2501 2502
3199 1 2501 2502 2503
3200 1 2502 2503 2504
3201 1 2479 2505 2506
3202 1 2505 2506 2507
3203 1 2506 2507 2508
3204 1 2507 2508 2509
3205 1 2511 2510 29
3206 1 2510 2511 2512
3207 1 2511 2512 2513
3208 1 2512 2513 2514
3209 1 2513 2514 2515
3210 1 2514 2515 2516
3211 1 2514 2515 2530
3212 1 2516 2515 2530
3213 1 2515 2516 2517
3214 1 2515 2516 2535
3215 1 2517 2516 2535
3216 1 2516 2517 2518
3217 1 2516 2517 2540
3218 1 2518 2517 2540
3219 1 2517 2518 2519
3220 1 2518 2519 2520
3221 1 2519 2520 2521
3222 1 2520 2521 2522
3223 1 2521 2522 2523
3224 1 2521 2522 2545
3225 1 2523 2522 2545
3226 1 2522 2523 2524
3227 1 2523 2524 2525
3228 1 2523 2524 2550
3229 1 2525 2524 2550
3230 1 2524 2525 2526
3231 1 2525 2526 2527
3232 1 2526 2527 2528
3233 1 2527 2528 2529
3234 1 2527 2528 2555
3235 1 2529 2528 2555
3236 1 2528 2529 30
3237 1 2528 2529 2560
3238 1 30 2529 2560
3239 1 2515 2530 2531
3240 1 2530 2531 2532
3241 1 2531 2532 2533
3242 1 2532 2533 2534
3243 1 2516 2535 2536
3244 1 2535 2536 2537
3245 1 2536 2537 2538
3246 1 2537 2538 2539
3247 1 2517 2540 2541
3248 1 2540 2541 2542
3249 1 2541 2542 2543
3250 1 2542 2543 2544
3251 1 2522 2545 2546
3252 1 2545 2546 2547
3253 1 2546 2547 2548
3254 1 2547 2548 2549
3255 1 2524 2550 2551
3256 1 2550 2551 2552
3257 1 2551 2552 2553
3258 1 2552 2553 2554
3259 1 2528 2555 2556
3260 1 2555 2556 2557
3261 1 2556 2557 2558
3262 1 2557 2558 2559
3263 1 2529 2560 2561
3264 1 2560 2561 2562
3265 1 2561 2562 2563
3266 1 2562 2563 2564
3267 1 2566 2565 29
3268 1 2565 2566 2567
3269 1 2566 2567 2568
3270 1 2567 2568 2569
3271 1 2568 2569 2570
3272 1 2569 2570 2571
3273 1 2570 2571 2572
3274 1 2570 2571 2585
3275 1 2572 2571 2585
3276 1 2571 2572 2573
3277 1 2572 2573 2574
3278 1 2573 2574 2575
3279 1 2574 2575 2576
3280 1 2575 2576 2577
3281 1 2576 2577 2578
3282 1 2577 2578 2579
3283 1 2577 2578 2590
3284 1 2579 2578 2590
3285 1 2578 2579 2580
3286 1 2579 2580 2581
3287 1 2579 2580 2595
3288 1 2581 2580 2595
3289 1 2580 2581 2582
3290 1 2581 2582 2583
3291 1 2582 2583 2584
3292 1 2583 2584 34
3293 1 2571 2585 2586
3294 1 2585 2586 2587
3295 1 2586 2587 2588
3296 1 2587 2588 2589
3297 1 2578 2590 2591
3298 1 2590 2591 2592
3299 1 2591 2592 2593
3300 1 2592 2593 2594
3301 1 2580 2595 2596
3302 1 2595 2596 2597
3303 1 2596 2597 2598
3304 1 2597 2598 2599
3305 1 2601 2600 29
3306 1 2600 2601 2602
3307 1 2601 2602 2603
3308 1 2602 2603 2604
3309 1 2603 2604 2605
3310 1 2603 2604 2620
3311 1 2605 2604 2620
3312 1 2604 2605 2606
3313 1 2605 2606 2607
3314 1 2606 2607 2608
3315 1 2606 2607 2625
3316 1 2608 2607 2625
3317 1 2607 2608 2609
3318 1 2608 2609 2610
3319 1 2609 2610 2611
3320 1 2610 2611 2612
3321 1 2611 2612 2613
3322 1 2612 2613 2614
3323 1 2613 2614 2615
3324 1 2614 2615 2616
3325 1 2615 2616 2617
3326 1 2616 2617 2618
3327 1 2617 2618 2619
3328 1 2618 2619 48
3329 1 2604 2620 2621
3330 1 2620 2621 2622
3331 1 2621 2622 2623
3332 1 2622 2623 2624
3333 1 2607 2625 2626
3334 1 2625 2626 2627
3335 1 2626 2627 2628
3336 1 2627 2628 2629
3337 1 2631 2630 30
3338 1 2630 2631 2632
3339 1 2631 2632 2633
3340 1 2631 2632 2650
3341 1 2633 2632 2650
3342 1 2632 2633 2634
3343 1 2633 2634 2635
3344 1 2634 2635 2636
3345 1 2635 2636 2637
3346 1 2636 2637 2638
3347 1 2636 2637 2655
3348 1 2638 2637 2655
3349 1 2637 2638 2639
3350 1 2637 2638 2660
3351 1 2639 2638 2660
3352 1 2638 2639 2640
3353 1 2639 2640 2641
3354 1 2640 2641 2642
3355 1 2641 2642 2643
3356 1 2642 2643 2644
3357 1 2643 2644 2645
3358 1 2644 2645 2646
3359 1 2645 2646 2647
3360 1 2646 2647 2648
3361 1 2647 2648 2649
3362 1 2648 2649 35
3363 1 2632 2650 2651
3364 1 2650 2651 2652
3365 1 2651 2652 2653
3366 1 2652 2653 2654
3367 1 2637 2655 2656
3368 1 2655 2656 2657
3369 1 2656 2657 2658
3370 1 2657 2658 2659
3371 1 2638 2660 2661
3372 1 2660 2661 2662
3373 1 2661 2662 2663
3374 1 2662 2663 2664
3375 1 2666 2665 30
3376 1 2665 2666 2667
3377 1 2666 2667 2668
3378 1 2667 2668 2669
3379 1 2668 2669 2670
3380 1 2669 2670 2671
3381 1 2670 2671 2672
3382 1 2670 2671 2685
3383 1 2672 2671 2685
3384 1 2671 2672 2673
3385 1 2672 2673 2674
3386 1 2673 2674 2675
3387 1 2674 2675 2676
3388 1 2675 2676 2677
3389 1 2676 2677 2678
3390 1 2677 2678 2679
3391 1 2678 2679 2680
3392 1 2679 2680 2681
3393 1 2680 2681 2682
3394 1 2681 2682 2683
3395 1 2682 2683 2684
3396 1 2683 2684 59
3397 1 2671 2685 2686
3398 1 2685 2686 2687
3399 1 2686 2687 2688
3400 1 2687 2688 2689
3401 1 2691 2690 31
3402 1 2690 2691 2692
3403 1 2691 2692 2693
3404 1 2692 2693 2694
3405 1 2693 2694 2695
3406 1 2694 2695 2696
3407 1 2694 2695 2710
3408 1 2696 2695 2710
3409 1 2695 2696 2697
3410 1 2696 2697 2698
3411 1 2697 2698 2699
3412 1 2698 2699 2700
3413 1 2698 2699 2715
3414 1 2700 2699 2715
3415 1 2699 2700 2701
3416 1 2699 2700 2720
3417 1 2701 2700 2720
3418 1 2700 2701 2702
3419 1 2701 2702 2703
3420 1 2702 2703 2704
3421 1 2703 2704 2705
3422 1 2704 2705 2706
3423 1 2704 2705 2725
3424 1 2706 2705 2725
3425 1 2705 2706 2707
3426 1 2706 2707 2708
3427 1 2707 2708 2709
3428 1 2708 2709 32
3429 1 2695 2710 2711
3430 1 2710 2711 2712
3431 1 2711 2712 2713
3432 1 2712 2713 2714
3433 1 2699 2715 2716
3434 1 2715 2716 2717
3435 1 2716 2717 2718
3436 1 2717 2718 2719
3437 1 2700 2720 2721
3438 1 2720 2721 2722
3439 1 2721 2722 2723
3440 1 2722 2723 2724
3441 1 2705 2725 2726
3442 1 2725 2726 2727
3443 1 2726 2727 2728
3444 1 2727 2728 2729
3445 1 2731 2730 31
3446 1 2730 2731 2732
3447 1 2731 2732 2733
3448 1 2732 2733 2734
3449 1 2733 2734 2735
3450 1 2733 2734 2750
3451 1 2735 2734 2750
3452 1 2734 2735 2736
3453 1 2735 2736 2737
3454 1 2736 2737 2738
3455 1 2737 2738 2739
3456 1 2738 2739 2740
3457 1 2739 2740 2741
3458 1 2740 2741 2742
3459 1 2741 2742 2743
3460 1 2741 2742 2755
3461 1 2743 2742 2755
3462 1 2742 2743 2744
3463 1 2743 2744 2745
3464 1 2743 2744 2760
3465 1 2745 2744 2760
3466 1 2744 2745 2746
3467 1 2745 2746 2747
3468 1 2746 2747 2748
3469 1 2747 2748 2749
3470 1 2747 2748 2765
3471 1 2749 2748 2765
3472 1 2748 2749 36
3473 1 2734 2750 2751
3474 1 2750 2751 2752
3475 1 2751 2752 2753
3476 1 2752 2753 2754
3477 1 2742 2755 2756
3478 1 2755 2756 2757
3479 1 2756 2757 2758
3480 1 2757 2758 2759
3481 1 2744 2760 2761
3482 1 2760 2761 2762
3483 1 2761 2762 2763
3484 1 2762 2763 2764
3485 1 2748 2765 2766
3486 1 2765 2766 2767
3487 1 2766 2767 2768
3488 1 2767 2768 2769
3489 1 2771 2770 31
3490 1 2770 2771 2772
3491 1 2771 2772 2773
3492 1 2772 2773 2774
3493 1 2773 2774 2775
3494 1 2773 2774 2790
3495 1 2775 2774 2790
3496 1 2774 2775 2776
3497 1 2775 2776 2777
3498 1 2776 2777 2778
3499 1 2776 2777 2795
3500 1 2778 2777 2795
3501 1 2777 2778 2779
3502 1 2777 2778 2800
3503 1 2779 2778 2800
3504 1 2778 2779 2780
3505 1 2779 2780 2781
3506 1 2780 2781 2782
3507 1 2780 2781 2805
3508 1 2782 2781 2805
3509 1 2781 2782 2783
3510 1 2782 2783 2784
3511 1 2783 2784 2785
3512 1 2784 2785 2786
3513 1 2785 2786 2787
3514 1 2786 2787 2788
3515 1 2787 2788 2789
3516 1 2788 2789 53
3517 1 2774 2790 2791
3518 1 2790 2791 2792
3519 1 2791 2792 2793
3520 1 2792 2793 2794
3521 1 2777 2795 2796
3522 1 2795 2796 2797
3523 1 2796 2797 2798
3524 1 2797 2798 2799
3525 1 2778 2800 2801
3526 1 2800 2801 2802
3527 1 2801 2802 2803
3528 1 2802 2803 2804
3529 1 2781 2805 2806
3530 1 2805 2806 2807
3531 1 2806 2807 2808
3532 1 2807 2808 2809
3533 1 2811 2810 32
3534 1 2811 2810 2830
3535 1 32 2810 2830
3536 1 2810 2811 2812
3537 1 2811 2812 2813
3538 1 2811 2812 2835
3539 1 2813 2812 2835
3540 1 2812 2813 2814
3541 1 2812 2813 2840
3542 1 2814 2813 2840
3543 1 2813 2814 2815
3544 1 2814 2815 2816
3545 1 2815 2816 2817
3546 1 2816 2817 2818
3547 1 2816 2817 2845
3548 1 2818 2817 2845
3549 1 2817 2818 2819
3550 1 2818 2819 2820
3551 1 2818 2819 2850
3552 1 2820 2819 2850
3553 1 2819 2820 2821
3554 1 2820 2821 2822
3555 1 2821 2822 2823
3556 1 2822 2823 2824
3557 1 2823 2824 2825
3558 1 2824 2825 2826
3559 1 2825 2826 2827
3560 1 2826 2827 2828
3561 1 2827 2828 2829
3562 1 2828 2829 61
3563 1 2828 2829 2855
3564 1 61 2829 2855
3565 1 2810 2830 2831
3566 1 2830 2831 2832
3567 1 2831 2832 2833
3568 1 2832 2833 2834
3569 1 2812 2835 2836
3570 1 2835 2836 2837
3571 1 2836 2837 2838
3572 1 2837 2838 2839
3573 1 2813 2840 2841
3574 1 2840 2841 2842
3575 1 2841 2842 2843
3576 1 2842 2843 2844
3577 1 2817 2845 2846
3578 1 2845 2846 2847
3579 1 2846 2847 2848
3580 1 2847 2848 2849
3581 1 2819 2850 2851
3582 1 2850 2851 2852
3583 1 2851 2852 2853
3584 1 2852 2853 2854
3585 1 2829 2855 2856
3586 1 2855 2856 2857
3587 1 2856 2857 2858
3588 1 2857 2858 2859
3589 1 2861 2860 33
3590 1 2860 2861 2862
3591 1 2861 2862 2863
3592 1 2862 2863 2864
3593 1 2863 2864 2865
3594 1 2864 2865 2866
3595 1 2865 2866 2867
3596 1 2866 2867 2868
3597 1 2867 2868 2869
3598 1 2868 2869 2870
3599 1 2869 2870 2871
3600 1 2870 2871 2872
3601 1 2870 2871 2880
3602 1 2872 2871 2880
3603 1 2871 2872 2873
3604 1 2872 2873 2874
3605 1 2872 2873 2885
3606 1 2874 2873 2885
3607 1 2873 2874 2875
3608 1 2874 2875 2876
3609 1 2875 2876 2877
3610 1 2876 2877 2878
3611 1 2877 2878 2879
3612 1 2877 2878 2890
3613 1 2879 2878 2890
3614 1 2878 2879 34
3615 1 2878 2879 2895
3616 1 34 2879 2895
3617 1 2871 2880 2881
3618 1 2880 2881 2882
3619 1 2881 2882 2883
3620 1 2882 2883 2884
3621 1 2873 2885 2886
3622 1 2885 2886 2887
3623 1 2886 2887 2888
3624 1 2887 2888 2889
3625 1 2878 2890 2891
3626 1 2890 2891 2892
3627 1 2891 2892 2893
3628 1 2892 2893 2894
3629 1 2879 2895 2896
3630 1 2895 2896 2897
3631 1 2896 2897 2898
3632 1 2897 2898 2899
3633 1 2901 2900 33
3634 1 2900 2901 2902
3635 1 2901 2902 2903
3636 1 2902 2903 2904
3637 1 2902 2903 2920
3638 1 2904 2903 2920
3639 1 2903 2904 2905
3640 1 2904 2905 2906
3641 1 2905 2906 2907
3642 1 2906 2907 2908
3643 1 2907 2908 2909
3644 1 2908 2909 2910
3645 1 2909 2910 2911
3646 1 2910 2911 2912
3647 1 2911 2912 2913
3648 1 2912 2913 2914
3649 1 2913 2914 2915
3650 1 2914 2915 2916
3651 1 2915 2916 2917
3652 1 2916 2917 2918
3653 1 2917 2918 2919
3654 1 2918 2919 38
3655 1 2903 2920 2921
3656 1 2920 2921 2922
3657 1 2921 2922 2923
3658 1 2922 2923 2924
3659 1 2926 2925 34
3660 1 2925 2926 2927
3661 1 2925 2926 2945
3662 1 2927 2926 2945
3663 1 2926 2927 2928
3664 1 2927 2928 2929
3665 1 2927 2928 2950
3666 1 2929 2928 2950
3667 1 2928 2929 2930
3668 1 2929 2930 2931
3669 1 2930 2931 2932
3670 1 2931 2932 2933
3671 1 2932 2933 2934
3672 1 2932 2933 2955
3673 1 2934 2933 2955
3674 1 2933 2934 2935
3675 1 2933 2934 2960
3676 1 2935 2934 2960
3677 1 2934 2935 2936
3678 1 2935 2936 2937
3679 1 2936 2937 2938
3680 1 2937 2938 2939
3681 1 2938 2939 2940
3682 1 2939 2940 2941
3683 1 2940 2941 2942
3684 1 2941 2942 2943
3685 1 2942 2943 2944
3686 1 2942 2943 2965
3687 1 2944 2943 2965
3688 1 2943 2944 39
3689 1 2926 2945 2946
3690 1 2945 2946 2947
3691 1 2946 2947 2948
3692 1 2947 2948 2949
3693 1 2928 2950 2951
3694 1 2950 2951 2952
3695 1 2951 2952 2953
3696 1 2952 2953 2954
3697 1 2933 2955 2956
3698 1 2955 2956 2957
3699 1 2956 2957 2958
3700 1 2957 2958 2959
3701 1 2934 2960 2961
3702 1 2960 2961 2962
3703 1 2961 2962 2963
3704 1 2962 2963 2964
3705 1 2943 2965 2966
3706 1 2965 2966 2967
3707 1 2966 2967 2968
3708 1 2967 2968 2969
3709 1 2971 2970 34
3710 1 2971 2970 2990
3711 1 34 2970 2990
3712 1 2970 2971 2972
3713 1 2970 2971 2995
3714 1 2972 2971 2995
3715 1 2971 2972 2973
3716 1 2972 2973 2974
3717 1 2973 2974 2975
3718 1 2974 2975 2976
3719 1 2975 2976 2977
3720 1 2976 2977 2978
3721 1 2977 2978 2979
3722 1 2978 2979 2980
3723 1 2979 2980 2981
3724 1 2980 2981 2982
3725 1 2980 2981 3000
3726 1 2982 2981 3000
3727 1 2981 2982 2983
3728 1 2982 2983 2984
3729 1 2983 2984 2985
3730 1 2984 2985 2986
3731 1 2984 2985 3005
3732 1 2986 2985 3005
3733 1 2985 2986 2987
3734 1 2986 2987 2988
3735 1 2986 2987 3010
3736 1 2988 2987 3010
3737 1 2987 2988 2989
3738 1 2987 2988 3015
3739 1 2989 2988 3015
3740 1 2988 2989 63
3741 1 2988 2989 3020
3742 1 63 2989 3020
3743 1 2970 2990 2991
3744 1 2990 2991 2992
3745 1 2991 2992 2993
3746 1 2992 2993 2994
3747 1 2971 2995 2996
3748 1 2995 2996 2997
3749 1 2996 2997 2998
3750 1 2997 2998 2999
3751 1 2981 3000 3001
3752 1 3000 3001 3002
3753 1 3001 3002 3003
3754 1 3002 3003 3004
3755 1 2985 3005 3006
3756 1 3005 3006 3007
3757 1 3006 3007 3008
3758 1 3007 3008 3009
3759 1 2987 3010 3011
3760 1 3010 3011 3012
3761 1 3011 3012 3013
3762 1 3012 3013 3014
3763 1 2988 3015 3016
3764 1 3015 3016 3017
3765 1 3016 3017 3018
3766 1 3017 3018 3019
3767 1 2989 3020 3021
3768 1 3020 3021 3022
3769 1 3021 3022 3023
3770 1 3022 3023 3024
3771 1 3026 3025 35
3772 1 3025 3026 3027
3773 1 3025 3026 3045
3774 1 3027 3026 3045
3775 1 3026 3027 3028
3776 1 3027 3028 3029
3777 1 3028 3029 3030
3778 1 3029 3030 3031
3779 1 3030 3031 3032
3780 1 3030 3031 3050
3781 1 3032 3031 3050
3782 1 3031 3032 3033
3783 1 3032 3033 3034
3784 1 3032 3033 3055
3785 1 3034 3033 3055
3786 1 3033 3034 3035
3787 1 3034 3035 3036
3788 1 3035 3036 3037
3789 1 3036 3037 3038
3790 1 3037 3038 3039
3791 1 3037 3038 3060
3792 1 3039 3038 3060
3793 1 3038 3039 3040
3794 1 3038 3039 3065
3795 1 3040 3039 3065
3796 1 3039 3040 3041
3797 1 3040 3041 3042
3798 1 3041 3042 3043
3799 1 3041 3042 3070
3800 1 3043 3042 3070
3801 1 3042 3043 3044
3802 1 3043 3044 40
3803 1 3026 3045 3046
3804 1 3045 3046 3047
3805 1 3046 3047 3048
3806 1 3047 3048 3049
3807 1 3031 3050 3051
3808 1 3050 3051 3052
3809 1 3051 3052 3053
3810 1 3052 3053 3054
3811 1 3033 3055 3056
3812 1 3055 3056 3057
3813 1 3056 3057 3058
3814 1 3057 3058 3059
3815 1 3038 3060 3061
3816 1 3060 3061 3062
3817 1 3061 3062 3063
3818 1 3062 3063 3064
3819 1 3039 3065 3066
3820 1 3065 3066 3067
3821 1 3066 3067 3068
3822 1 3067 3068 3069
3823 1 3042 3070 3071
3824 1 3070 3071 3072
3825 1 3071 3072 3073
3826 1 3072 3073 3074
3827 1 3076 3075 35
3828 1 3075 3076 3077
3829 1 3076 3077 3078
3830 1 3076 3077 3095
3831 1 3078 3077 3095
3832 1 3077 3078 3079
3833 1 3078 3079 3080
3834 1 3078 3079 3100
3835 1 3080 3079 3100
3836 1 3079 3080 3081
3837 1 3080 3081 3082
3838 1 3081 3082 3083
3839 1 3082 3083 3084
3840 1 3083 3084 3085
3841 1 3084 3085 3086
3842 1 3085 3086 3087
3843 1 3086 3087 3088
3844 1 3087 3088 3089
3845 1 3088 3089 3090
3846 1 3089 3090 3091
3847 1 3089 3090 3105
3848 1 3091 3090 3105
3849 1 3090 3091 3092
3850 1 3091 3092 3093
3851 1 3092 3093 3094
3852 1 3093 3094 64
3853 1 3077 3095 3096
3854 1 3095 3096 3097
3855 1 3096 3097 3098
3856 1 3097 3098 3099
3857 1 3079 3100 3101
3858 1 3100 3101 3102
3859 1 3101 3102 3103
3860 1 3102 3103 3104
3861 1 3090 3105 3106
3862 1 3105 3106 3107
3863 1 3106 3107 3108
3864 1 3107 3108 3109
3865 1 3111 3110 36
3866 1 3110 3111 3112
3867 1 3111 3112 3113
3868 1 3112 3113 3114
3869 1 3112 3113 3130
3870 1 3114 3113 3130
3871 1 3113 3114 3115
3872 1 3114 3115 3116
3873 1 3115 3116 3117
3874 1 3116 3117 3118
3875 1 3117 3118 3119
3876 1 3118 3119 3120
3877 1 3118 3119 3135
3878 1 3120 3119 3135
3879 1 3119 3120 3121
3880 1 3120 3121 3122
3881 1 3121 3122 3123
3882 1 3122 3123 3124
3883 1 3122 3123 3140
3884 1 3124 3123 3140
3885 1 3123 3124 3125
3886 1 3124 3125 3126
3887 1 3124 3125 3145
3888 1 3126 3125 3145
3889 1 3125 3126 3127
3890 1 3126 3127 3128
3891 1 3126 3127 3150
3892 1 3128 3127 3150
3893 1 3127 3128 3129
3894 1 3128 3129 37
3895 1 3113 3130 3131
3896 1 3130 3131 3132
3897 1 3131 3132 3133
3898 1 3132 3133 3134
3899 1 3119 3135 3136
3900 1 3135 3136 3137
3901 1 3136 3137 3138
3902 1 3137 3138 3139
3903 1 3123 3140 3141
3904 1 3140 3141 3142
3905 1 3141 3142 3143
3906 1 3142 3143 3144
3907 1 3125 3145 3146
3908 1 3145 3146 3147
3909 1 3146 3147 3148
3910 1 3147 3148 3149
3911 1 3127 3150 3151
3912 1 3150 3151 3152
3913 1 3151 3152 3153
3914 1 3152 3153 3154
3915 1 3156 3155 36
3916 1 3155 3156 3157
3917 1 3156 3157 3158
3918 1 3157 3158 3159
3919 1 3158 3159 3160
3920 1 3158 3159 3175
3921 1 3160 3159 3175
3922 1 3159 3160 3161
3923 1 3160 3161 3162
3924 1 3161 3162 3163
3925 1 3161 3162 3180
3926 1 3163 3162 3180
3927 1 3162 3163 3164
3928 1 3163 3164 3165
3929 1 3164 3165 3166
3930 1 3165 3166 3167
3931 1 3166 3167 3168
3932 1 3166 3167 3185
3933 1 3168 3167 3185
3934 1 3167 3168 3169
3935 1 3168 3169 3170
3936 1 3169 3170 3171
3937 1 3170 3171 3172
3938 1 3171 3172 3173
3939 1 3172 3173 3174
3940 1 3173 3174 65
3941 1 3159 3175 3176
3942 1 3175 3176 3177
3943 1 3176 3177 3178
3944 1 3177 3178 3179
3945 1 3162 3180 3181
3946 1 3180 3181 3182
3947 1 3181 3182 3183
3948 1 3182 3183 3184
3949 1 3167 3185 3186
3950 1 3185 3186 3187
3951 1 3186 3187 3188
3952 1 3187 3188 3189
3953 1 3191 3190 37
3954 1 3190 3191 3192
3955 1 3191 3192 3193
3956 1 3192 3193 3194
3957 1 3193 3194 3195
3958 1 3194 3195 3196
3959 1 3194 3195 3210
3960 1 3196 3195 3210
3961 1 3195 3196 3197
3962 1 3196 3197 3198
3963 1 3197 3198 3199
3964 1 3198 3199 3200
3965 1 3198 3199 3215
3966 1 3200 3199 3215
3967 1 3199 3200 3201
3968 1 3200 3201 3202
3969 1 3201 3202 3203
3970 1 3202 3203 3204
3971 1 3203 3204 3205
3972 1 3204 3205 3206
3973 1 3205 3206 3207
3974 1 3206 3207 3208
3975 1 3207 3208 3209
3976 1 3208 3209 42
3977 1 3208 3209 3220
3978 1 42 3209 3220
3979 1 3195 3210 3211
3980 1 3210 3211 3212
3981 1 3211 3212 3213
3982 1 3212 3213 3214
3983 1 3199 3215 3216
3984 1 3215 3216 3217
3985 1 3216 3217 3218
3986 1 3217 3218 3219
3987 1 3209 3220 3221
3988 1 3220 3221 3222
3989 1 3221 3222 3223
3990 1 3222 3223 3224
3991 1 3226 3225 38
3992 1 3225 3226 3227
3993 1 3226 3227 3228
3994 1 3227 3228 3229
3995 1 3227 3228 3245
3996 1 3229 3228 3245
3997 1 3228 3229 3230
3998 1 3229 3230 3231
3999 1 3230 3231 3232
4000 1 3231 3232 3233
4001 1 3232 3233 3234
4002 1 3232 3233 3250
4003 1 3234 3233 3250
4004 1 3233 3234 3235
4005 1 3234 3235 3236
4006 1 3235 3236 3237
4007 1 3236 3237 3238
4008 1 3237 3238 3239
4009 1 3238 3239 3240
4010 1 3239 3240 3241
4011 1 3240 3241 3242
4012 1 3241 3242 3243
4013 1 3241 3242 3255
4014 1 3243 3242 3255
4015 1 3242 3243 3244
4016 1 3242 3243 3260
4017 1 3244 3243 3260
4018 1 3243 3244 43
4019 1 3243 3244 3265
4020 1 43 3244 3265
4021 1 3228 3245 3246
4022 1 3245 3246 3247
4023 1 3246 3247 3248
4024 1 3247 3248 3249
4025 1 3233 3250 3251
4026 1 3250 3251 3252
4027 1 3251 3252 3253
4028 1 3252 3253 3254
4029 1 3242 3255 3256
4030 1 3255 3256 3257
4031 1 3256 3257 3258
4032 1 3257 3258 3259
4033 1 3243 3260 3261
4034 1 3260 3261 3262
4035 1 3261 3262 3263
4036 1 3262 3263 3264
4037 1 3244 3265 3266
4038 1 3265 3266 3267
4039 1 3266 3267 3268
4040 1 3267 3268 3269
4041 1 3271 3270 39
4042 1 3270 3271 3272
4043 1 3271 3272 3273
4044 1 3271 3272 3290
4045 1 3273 3272 3290
4046 1 3272 3273 3274
4047 1 3273 3274 3275
4048 1 3274 3275 3276
4049 1 3274 3275 3295
4050 1 3276 3275 3295
4051 1 3275 3276 3277
4052 1 3276 3277 3278
4053 1 3277 3278 3279
4054 1 3278 3279 3280
4055 1 3279 3280 3281
4056 1 3280 3281 3282
4057 1 3280 3281 3300
4058 1 3282 3281 3300
4059 1 3281 3282 3283
4060 1 3281 3282 3305
4061 1 3283 3282 3305
4062 1 3282 3283 3284
4063 1 3283 3284 3285
4064 1 3283 3284 3310
4065 1 3285 3284 3310
4066 1 3284 3285 3286
4067 1 3284 3285 3315
4068 1 3286 3285 3315
4069 1 3285 3286 3287
4070 1 3286 3287 3288
4071 1 3287 3288 3289
4072 1 3288 3289 68
4073 1 3272 3290 3291
4074 1 3290 3291 3292
4075 1 3291 3292 3293
4076 1 3292 3293 3294
4077 1 3275 3295 3296
4078 1 3295 3296 3297
4079 1 3296 3297 3298
4080 1 3297 3298 3299
4081 1 3281 3300 3301
4082 1 3300 3301 3302
4083 1 3301 3302 3303
4084 1 3302 3303 3304
4085 1 3282 3305 3306
4086 1 3305 3306 3307
4087 1 3306 3307 3308
4088 1 3307 3308 3309
4089 1 3284 3310 3311
4090 1 3310 3311 3312
4091 1 3311 3312 3313
4092 1 3312 3313 3314
4093 1 3285 3315 3316
4094 1 3315 3316 3317
4095 1 3316 3317 3318
4096 1 3317 3318 3319
4097 1 3321 3320 40
4098 1 3321 3320 3340
4099 1 40 3320 3340
4100 1 3320 3321 3322
4101 1 3321 3322 3323
4102 1 3322 3323 3324
4103 1 3323 3324 3325
4104 1 3323 3324 3345
4105 1 3325 3324 3345
4106 1 3324 3325 3326
4107 1 3325 3326 3327
4108 1 3326 3327 3328
4109 1 3327 3328 3329
4110 1 3328 3329 3330
4111 1 3329 3330 3331
4112 1 3329 3330 3350
4113 1 3331 3330 3350
4114 1 3330 3331 3332
4115 1 3330 3331 3355
4116 1 3332 3331 3355
4117 1 3331 3332 3333
4118 1 3332 3333 3334
4119 1 3333 3334 3335
4120 1 3334 3335 3336
4121 1 3334 3335 3360
4122 1 3336 3335 3360
4123 1 3335 3336 3337
4124 1 3336 3337 3338
4125 1 3337 3338 3339
4126 1 3338 3339 41
4127 1 3320 3340 3341
4128 1 3340 3341 3342
4129 1 3341 3342 3343
4130 1 3342 3343 3344
4131 1 3324 3345 3346
4132 1 3345 3346 3347
4133 1 3346 3347 3348
4134 1 3347 3348 3349
4135 1 3330 3350 3351
4136 1 3350 3351 3352
4137 1 3351 3352 3353
4138 1 3352 3353 3354
4139 1 3331 3355 3356
4140 1 3355 3356 3357
4141 1 3356 3357 3358
4142 1 3357 3358 3359
4143 1 3335 3360 3361
4144 1 3360 3361 3362
4145 1 3361 3362 3363
4146 1 3362 3363 3364
4147 1 3366 3365 40
4148 1 3365 3366 3367
4149 1 3366 3367 3368
4150 1 3367 3368 3369
4151 1 3368 3369 3370
4152 1 3369 3370 3371
4153 1 3370 3371 3372
4154 1 3371 3372 3373
4155 1 3372 3373 3374
4156 1 3373 3374 3375
4157 1 3374 3375 3376
4158 1 3375 3376 3377
4159 1 3375 3376 3385
4160 1 3377 3376 3385
4161 1 3376 3377 3378
4162 1 3377 3378 3379
4163 1 3378 3379 3380
4164 1 3378 3379 3390
4165 1 3380 3379 3390
4166 1 3379 3380 3381
4167 1 3380 3381 3382
4168 1 3381 3382 3383
4169 1 3381 3382 3395
4170 1 3383 3382 3395
4171 1 3382 3383 3384
4172 1 3383 3384 69
4173 1 3376 3385 3386
4174 1 3385 3386 3387
4175 1 3386 3387 3388
4176 1 3387 3388 3389
4177 1 3379 3390 3391
4178 1 3390 3391 3392
4179 1 3391 3392 3393
4180 1 3392 3393 3394
4181 1 3382 3395 3396
4182 1 3395 3396 3397
4183 1 3396 3397 3398
4184 1 3397 3398 3399
4185 1 3401 3400 41
4186 1 3400 3401 3402
4187 1 3401 3402 3403
4188 1 3402 3403 3404
4189 1 3403 3404 3405
4190 1 3404 3405 3406
4191 1 3405 3406 3407
4192 1 3405 3406 3420
4193 1 3407 3406 3420
4194 1 3406 3407 3408
4195 1 3407 3408 3409
4196 1 3408 3409 3410
4197 1 3409 3410 3411
4198 1 3410 3411 3412
4199 1 3410 3411 3425
4200 1 3412 3411 3425
4201 1 3411 3412 3413
4202 1 3412 3413 3414
4203 1 3413 3414 3415
4204 1 3414 3415 3416
4205 1 3415 3416 3417
4206 1 3415 3416 3430
4207 1 3417 3416 3430
4208 1 3416 3417 3418
4209 1 3417 3418 3419
4210 1 3418 3419 42
4211 1 3406 3420 3421
4212 1 3420 3421 3422
4213 1 3421 3422 3423
4214 1 3422 3423 3424
4215 1 3411 3425 3426
4216 1 3425 3426 3427
4217 1 3426 3427 3428
4218 1 3427 3428 3429
4219 1 3416 3430 3431
4220 1 3430 3431 3432
4221 1 3431 3432 3433
4222 1 3432 3433 3434
4223 1 3436 3435 41
4224 1 3436 3435 3455
4225 1 41 3435 3455
4226 1 3435 3436 3437
4227 1 3436 3437 3438
4228 1 3437 3438 3439
4229 1 3438 3439 3440
4230 1 3439 3440 3441
4231 1 3439 3440 3460
4232 1 3441 3440 3460
4233 1 3440 3441 3442
4234 1 3441 3442 3443
4235 1 3442 3443 3444
4236 1 3443 3444 3445
4237 1 3444 3445 3446
4238 1 3444 3445 3465
4239 1 3446 3445 3465
4240 1 3445 3446 3447
4241 1 3446 3447 3448
4242 1 3446 3447 3470
4243 1 3448 3447 3470
4244 1 3447 3448 3449
4245 1 3448 3449 3450
4246 1 3449 3450 3451
4247 1 3449 3450 3475
4248 1 3451 3450 3475
4249 1 3450 3451 3452
4250 1 3451 3452 3453
4251 1 3452 3453 3454
4252 1 3453 3454 45
4253 1 3435 3455 3456
4254 1 3455 3456 3457
4255 1 3456 3457 3458
4256 1 3457 3458 3459
4257 1 3440 3460 3461
4258 1 3460 3461 3462
4259 1 3461 3462 3463
4260 1 3462 3463 3464
4261 1 3445 3465 3466
4262 1 3465 3466 3467
4263 1 3466 3467 3468
4264 1 3467 3468 3469
4265 1 3447 3470 3471
4266 1 3470 3471 3472
4267 1 3471 3472 3473
4268 1 3472 3473 3474
4269 1 3450 3475 3476
4270 1 3475 3476 3477
4271 1 3476 3477 3478
4272 1 3477 3478 3479
4273 1 3481 3480 41
4274 1 3481 3480 3500
4275 1 41 3480 3500
4276 1 3480 3481 3482
4277 1 3481 3482 3483
4278 1 3482 3483 3484
4279 1 3483 3484 3485
4280 1 3483 3484 3505
4281 1 3485 3484 3505
4282 1 3484 3485 3486
4283 1 3485 3486 3487
4284 1 3486 3487 3488
4285 1 3487 3488 3489
4286 1 3488 3489 3490
4287 1 3489 3490 3491
4288 1 3490 3491 3492
4289 1 3491 3492 3493
4290 1 3492 3493 3494
4291 1 3493 3494 3495
4292 1 3494 3495 3496
4293 1 3495 3496 3497
4294 1 3496 3497 3498
4295 1 3497 3498 3499
4296 1 3498 3499 70
4297 1 3480 3500 3501
4298 1 3500 3501 3502
4299 1 3501 3502 3503
4300 1 3502 3503 3504
4301 1 3484 3505 3506
4302 1 3505 3506 3507
4303 1 3506 3507 3508
4304 1 3507 3508 3509
4305 1 3511 3510 42
4306 1 3510 3511 3512
4307 1 3511 3512 3513
4308 1 3511 3512 3530
4309 1 3513 3512 3530
4310 1 3512 3513 3514
4311 1 3513 3514 3515
4312 1 3514 3515 3516
4313 1 3515 3516 3517
4314 1 3516 3517 3518
4315 1 3517 3518 3519
4316 1 3517 3518 3535
4317 1 3519 3518 3535
4318 1 3518 3519 3520
4319 1 3519 3520 3521
4320 1 3519 3520 3540
4321 1 3521 3520 3540
4322 1 3520 3521 3522
4323 1 3521 3522 3523
4324 1 3522 3523 3524
4325 1 3523 3524 3525
4326 1 3524 3525 3526
4327 1 3525 3526 3527
4328 1 3526 3527 3528
4329 1 3527 3528 3529
4330 1 3528 3529 46
4331 1 3512 3530 3531
4332 1 3530 3531 3532
4333 1 3531 3532 3533
4334 1 3532 3533 3534
4335 1 3518 3535 3536
4336 1 3535 3536 3537
4337 1 3536 3537 3538
4338 1 3537 3538 3539
4339 1 3520 3540 3541
4340 1 3540 3541 3542
4341 1 3541 3542 3543
4342 1 3542 3543 3544
4343 1 3546 3545 42
4344 1 3546 3545 3565
4345 1 42 3545 3565
4346 1 3545 3546 3547
4347 1 3546 3547 3548
4348 1 3547 3548 3549
4349 1 3547 3548 3570
4350 1 3549 3548 3570
4351 1 3548 3549 3550
4352 1 3548 3549 3575
4353 1 3550 3549 3575
4354 1 3549 3550 3551
4355 1 3550 3551 3552
4356 1 3551 3552 3553
4357 1 3552 3553 3554
4358 1 3553 3554 3555
4359 1 3553 3554 3580
4360 1 3555 3554 3580
4361 1 3554 3555 3556
4362 1 3555 3556 3557
4363 1 3556 3557 3558
4364 1 3556 3557 3585
4365 1 3558 3557 3585
4366 1 3557 3558 3559
4367 1 3558 3559 3560
4368 1 3559 3560 3561
4369 1 3560 3561 3562
4370 1 3561 3562 3563
4371 1 3562 3563 3564
4372 1 3563 3564 71
4373 1 3563 3564 3590
4374 1 71 3564 3590
4375 1 3545 3565 3566
4376 1 3565 3566 3567
4377 1 3566 3567 3568
4378 1 3567 3568 3569
4379 1 3548 3570 3571
4380 1 3570 3571 3572
4381 1 3571 3572 3573
4382 1 3572 3573 3574
4383 1 3549 3575 3576
4384 1 3575 3576 3577
4385 1 3576 3577 3578
4386 1 3577 3578 3579
4387 1 3554 3580 3581
4388 1 3580 3581 3582
4389 1 3581 3582 3583
4390 1 3582 3583 3584
4391 1 3557 3585 3586
4392 1 3585 3586 3587
4393 1 3586 3587 3588
4394 1 3587 3588 3589
4395 1 3564 3590 3591
4396 1 3590 3591 3592
4397 1 3591 3592 3593
4398 1 3592 3593 3594
4399 1 3596 3595 43
4400 1 3595 3596 3597
4401 1 3596 3597 3598
4402 1 3597 3598 3599
4403 1 3598 3599 3600
4404 1 3598 3599 3615
4405 1 3600 3599 3615
4406 1 3599 3600 3601
4407 1 3600 3601 3602
4408 1 3601 3602 3603
4409 1 3602 3603 3604
4410 1 3603 3604 3605
4411 1 3604 3605 3606
4412 1 3604 3605 3620
4413 1 3606 3605 3620
4414 1 3605 3606 3607
4415 1 3605 3606 3625
4416 1 3607 3606 3625
4417 1 3606 3607 3608
4418 1 3606 3607 3630
4419 1 3608 3607 3630
4420 1 3607 3608 3609
4421 1 3608 3609 3610
4422 1 3609 3610 3611
4423 1 3609 3610 3635
4424 1 3611 3610 3635
4425 1 3610 3611 3612
4426 1 3611 3612 3613
4427 1 3611 3612 3640
4428 1 3613 3612 3640
4429 1 3612 3613 3614
4430 1 3613 3614 47
4431 1 3599 3615 3616
4432 1 3615 3616 3617
4433 1 3616 3617 3618
4434 1 3617 3618 3619
4435 1 3605 3620 3621
4436 1 3620 3621 3622
4437 1 3621 3622 3623
4438 1 3622 3623 3624
4439 1 3606 3625 3626
4440 1 3625 3626 3627
4441 1 3626 3627 3628
4442 1 3627 3628 3629
4443 1 3607 3630 3631
4444 1 3630 3631 3632
4445 1 3631 3632 3633
4446 1 3632 3633 3634
4447 1 3610 3635 3636
4448 1 3635 3636 3637
4449 1 3636 3637 3638
4450 1 3637 3638 3639
4451 1 3612 3640 3641
4452 1 3640 3641 3642
4453 1 3641 3642 3643
4454 1 3642 3643 3644
4455 1 3646 3645 43
4456 1 3645 3646 3647
4457 1 3646 3647 3648
4458 1 3646 3647 3665
4459 1 3648 3647 3665
4460 1 3647 3648 3649
4461 1 3648 3649 3650
4462 1 3649 3650 3651
4463 1 3649 3650 3670
4464 1 3651 3650 3670
4465 1 3650 3651 3652
4466 1 3651 3652 3653
4467 1 3652 3653 3654
4468 1 3653 3654 3655
4469 1 3653 3654 3675
4470 1 3655 3654 3675
4471 1 3654 3655 3656
4472 1 3655 3656 3657
4473 1 3655 3656 3680
4474 1 3657 3656 3680
4475 1 3656 3657 3658
4476 1 3657 3658 3659
4477 1 3658 3659 3660
4478 1 3659 3660 3661
4479 1 3660 3661 3662
4480 1 3661 3662 3663
4481 1 3662 3663 3664
4482 1 3663 3664 46
4483 1 3647 3665 3666
4484 1 3665 3666 3667
4485 1 3666 3667 3668
4486 1 3667 3668 3669
4487 1 3650 3670 3671
4488 1 3670 3671 3672
4489 1 3671 3672 3673
4490 1 3672 3673 3674
4491 1 3654 3675 3676
4492 1 3675 3676 3677
4493 1 3676 3677 3678
4494 1 3677 3678 3679
4495 1 3656 3680 3681
4496 1 3680 3681 3682
4497 1 3681 3682 3683
4498 1 3682 3683 3684
4499 1 3686 3685 44
4500 1 3685 3686 3687
4501 1 3686 3687 3688
4502 1 3687 3688 3689
4503 1 3688 3689 3690
4504 1 3689 3690 3691
4505 1 3690 3691 3692
4506 1 3691 3692 3693
4507 1 3692 3693 3694
4508 1 3692 3693 3705
4509 1 3694 3693 3705
4510 1 3693 3694 3695
4511 1 3694 3695 3696
4512 1 3695 3696 3697
4513 1 3696 3697 3698
4514 1 3697 3698 3699
4515 1 3698 3699 3700
4516 1 3699 3700 3701
4517 1 3699 3700 3710
4518 1 3701 3700 3710
4519 1 3700 3701 3702
4520 1 3701 3702 3703
4521 1 3702 3703 3704
4522 1 3702 3703 3715
4523 1 3704 3703 3715
4524 1 3703 3704 45
4525 1 3693 3705 3706
4526 1 3705 3706 3707
4527 1 3706 3707 3708
4528 1 3707 3708 3709
4529 1 3700 3710 3711
4530 1 3710 3711 3712
4531 1 3711 3712 3713
4532 1 3712 3713 3714
4533 1 3703 3715 3716
4534 1 3715 3716 3717
4535 1 3716 3717 3718
4536 1 3717 3718 3719
4537 1 3721 3720 44
4538 1 3720 3721 3722
4539 1 3720 3721 3740
4540 1 3722 3721 3740
4541 1 3721 3722 3723
4542 1 3722 3723 3724
4543 1 3723 3724 3725
4544 1 3723 3724 3745
4545 1 3725 3724 3745
4546 1 3724 3725 3726
4547 1 3725 3726 3727
4548 1 3726 3727 3728
4549 1 3727 3728 3729
4550 1 3728 3729 3730
4551 1 3729 3730 3731
4552 1 3730 3731 3732
4553 1 3731 3732 3733
4554 1 3731 3732 3750
4555 1 3733 3732 3750
4556 1 3732 3733 3734
4557 1 3733 3734 3735
4558 1 3734 3735 3736
4559 1 3735 3736 3737
4560 1 3736 3737 3738
4561 1 3737 3738 3739
4562 1 3738 3739 73
4563 1 3721 3740 3741
4564 1 3740 3741 3742
4565 1 3741 3742 3743
4566 1 3742 3743 3744
4567 1 3724 3745 3746
4568 1 3745 3746 3747
4569 1 3746 3747 3748
4570 1 3747 3748 3749
4571 1 3732 3750 3751
4572 1 3750 3751 3752
4573 1 3751 3752 3753
4574 1 3752 3753 3754
4575 1 3756 3755 45
4576 1 3755 3756 3757
4577 1 3756 3757 3758
4578 1 3757 3758 3759
4579 1 3758 3759 3760
4580 1 3758 3759 3775
4581 1 3760 3759 3775
4582 1 3759 3760 3761
4583 1 3759 3760 3780
4584 1 3761 3760 3780
4585 1 3760 3761 3762
4586 1 3761 3762 3763
4587 1 3762 3763 3764
4588 1 3763 3764 3765
4589 1 3764 3765 3766
4590 1 3765 3766 3767
4591 1 3766 3767 3768
4592 1 3767 3768 3769
4593 1 3767 3768 3785
4594 1 3769 3768 3785
4595 1 3768 3769 3770
4596 1 3769 3770 3771
4597 1 3770 3771 3772
4598 1 3771 3772 3773
4599 1 3772 3773 3774
4600 1 3772 3773 3790
4601 1 3774 3773 3790
4602 1 3773 3774 53
4603 1 3773 3774 3795
4604 1 53 3774 3795
4605 1 3759 3775 3776
4606 1 3775 3776 3777
4607 1 3776 3777 3778
4608 1 3777 3778 3779
4609 1 3760 3780 3781
4610 1 3780 3781 3782
4611 1 3781 3782 3783
4612 1 3782 3783 3784
4613 1 3768 3785 3786
4614 1 3785 3786 3787
4615 1 3786 3787 3788
4616 1 3787 3788 3789
4617 1 3773 3790 3791
4618 1 3790 3791 3792
4619 1 3791 3792 3793
4620 1 3792 3793 3794
4621 1 3774 3795 3796
4622 1 3795 3796 3797
4623 1 3796 3797 3798
4624 1 3797 3798 3799
4625 1 3801 3800 46
4626 1 3801 3800 3820
4627 1 46 3800 3820
4628 1 3800 3801 3802
4629 1 3801 3802 3803
4630 1 3801 3802 3825
4631 1 3803 3802 3825
4632 1 3802 3803 3804
4633 1 3803 3804 3805
4634 1 3803 3804 3830
4635 1 3805 3804 3830
4636 1 3804 3805 3806
4637 1 3805 3806 3807
4638 1 3806 3807 3808
4639 1 3807 3808 3809
4640 1 3808 3809 3810
4641 1 3809 3810 3811
4642 1 3809 3810 3835
4643 1 3811 3810 3835
4644 1 3810 3811 3812
4645 1 3811 3812 3813
4646 1 3811 3812 3840
4647 1 3813 3812 3840
4648 1 3812 3813 3814
4649 1 3813 3814 3815
4650 1 3814 3815 3816
4651 1 3815 3816 3817
4652 1 3816 3817 3818
4653 1 3817 3818 3819
4654 1 3818 3819 54
4655 1 3800 3820 3821
4656 1 3820 3821 3822
4657 1 3821 3822 3823
4658 1 3822 3823 3824
4659 1 3802 3825 3826
4660 1 3825 3826 3827
4661 1 3826 3827 3828
4662 1 3827 3828 3829
4663 1 3804 3830 3831
4664 1 3830 3831 3832
4665 1 3831 3832 3833
4666 1 3832 3833 3834
4667 1 3810 3835 3836
4668 1 3835 3836 3837
4669 1 3836 3837 3838
4670 1 3837 3838 3839
4671 1 3812 3840 3841
4672 1 3840 3841 3842
4673 1 3841 3842 3843
4674 1 3842 3843 3844
4675 1 3846 3845 47
4676 1 3845 3846 3847
4677 1 3846 3847 3848
4678 1 3847 3848 3849
4679 1 3848 3849 3850
4680 1 3849 3850 3851
4681 1 3850 3851 3852
4682 1 3851 3852 3853
4683 1 3852 3853 3854
4684 1 3853 3854 3855
4685 1 3853 3854 3865
4686 1 3855 3854 3865
4687 1 3854 3855 3856
4688 1 3854 3855 3870
4689 1 3856 3855 3870
4690 1 3855 3856 3857
4691 1 3856 3857 3858
4692 1 3856 3857 3875
4693 1 3858 3857 3875
4694 1 3857 3858 3859
4695 1 3858 3859 3860
4696 1 3858 3859 3880
4697 1 3860 3859 3880
4698 1 3859 3860 3861
4699 1 3860 3861 3862
4700 1 3861 3862 3863
4701 1 3862 3863 3864
4702 1 3863 3864 76
4703 1 3854 3865 3866
4704 1 3865 3866 3867
4705 1 3866 3867 3868
4706 1 3867 3868 3869
4707 1 3855 3870 3871
4708 1 3870 3871 3872
4709 1 3871 3872 3873
4710 1 3872 3873 3874
4711 1 3857 3875 3876
4712 1 3875 3876 3877
4713 1 3876 3877 3878
4714 1 3877 3878 3879
4715 1 3859 3880 3881
4716 1 3880 3881 3882
4717 1 3881 3882 3883
4718 1 3882 3883 3884
4719 1 3886 3885 48
4720 1 3885 3886 3887
4721 1 3885 3886 3905
4722 1 3887 3886 3905
4723 1 3886 3887 3888
4724 1 3886 3887 3910
4725 1 3888 3887 3910
4726 1 3887 3888 3889
4727 1 3888 3889 3890
4728 1 3888 3889 3915
4729 1 3890 3889 3915
4730 1 3889 3890 3891
4731 1 3889 3890 3920
4732 1 3891 3890 3920
4733 1 3890 3891 3892
4734 1 3891 3892 3893
4735 1 3892 3893 3894
4736 1 3893 3894 3895
4737 1 3894 3895 3896
4738 1 3895 3896 3897
4739 1 3896 3897 3898
4740 1 3897 3898 3899
4741 1 3898 3899 3900
4742 1 3899 3900 3901
4743 1 3900 3901 3902
4744 1 3901 3902 3903
4745 1 3901 3902 3925
4746 1 3903 3902 3925
4747 1 3902 3903 3904
4748 1 3903 3904 77
4749 1 3886 3905 3906
4750 1 3905 3906 3907
4751 1 3906 3907 3908
4752 1 3907 3908 3909
4753 1 3887 3910 3911
4754 1 3910 3911 3912
4755 1 3911 3912 3913
4756 1 3912 3913 3914
4757 1 3889 3915 3916
4758 1 3915 3916 3917
4759 1 3916 3917 3918
4760 1 3917 3918 3919
4761 1 3890 3920 3921
4762 1 3920 3921 3922
4763 1 3921 3922 3923
4764 1 3922 3923 3924
4765 1 3902 3925 3926
4766 1 3925 3926 3927
4767 1 3926 3927 3928
4768 1 3927 3928 3929
4769 1 3931 3930 53
4770 1 3931 3930 3950
4771 1 53 3930 3950
4772 1 3930 3931 3932
4773 1 3931 3932 3933
4774 1 3932 3933 3934
4775 1 3933 3934 3935
4776 1 3934 3935 3936
4777 1 3935 3936 3937
4778 1 3936 3937 3938
4779 1 3937 3938 3939
4780 1 3938 3939 3940
4781 1 3938 3939 3955
4782 1 3940 3939 3955
4783 1 3939 3940 3941
4784 1 3940 3941 3942
4785 1 3941 3942 3943
4786 1 3941 3942 3960
4787 1 3943 3942 3960
4788 1 3942 3943 3944
4789 1 3943 3944 3945
4790 1 3944 3945 3946
4791 1 3945 3946 3947
4792 1 3945 3946 3965
4793 1 3947 3946 3965
4794 1 3946 3947 3948
4795 1 3947 3948 3949
4796 1 3948 3949 54
4797 1 3930 3950 3951
4798 1 3950 3951 3952
4799 1 3951 3952 3953
4800 1 3952 3953 3954
4801 1 3939 3955 3956
4802 1 3955 3956 3957
4803 1 3956 3957 3958
4804 1 3957 3958 3959
4805 1 3942 3960 3961
4806 1 3960 3961 3962
4807 1 3961 3962 3963
4808 1 3962 3963 3964
4809 1 3946 3965 3966
4810 1 3965 3966 3967
4811 1 3966 3967 3968
4812 1 3967 3968 3969
4813 1 3971 3970 54
4814 1 3970 3971 3972
4815 1 3971 3972 3973
4816 1 3972 3973 3974
4817 1 3972 3973 3990
4818 1 3974 3973 3990
4819 1 3973 3974 3975
4820 1 3974 3975 3976
4821 1 3974 3975 3995
4822 1 3976 3975 3995
4823 1 3975 3976 3977
4824 1 3976 3977 3978
4825 1 3977 3978 3979
4826 1 3978 3979 3980
4827 1 3979 3980 3981
4828 1 3980 3981 3982
4829 1 3981 3982 3983
4830 1 3982 3983 3984
4831 1 3982 3983 4000
4832 1 3984 3983 4000
4833 1 3983 3984 3985
4834 1 3983 3984 4005
4835 1 3985 3984 4005
4836 1 3984 3985 3986
4837 1 3984 3985 4010
4838 1 3986 3985 4010
4839 1 3985 3986 3987
4840 1 3986 3987 3988
4841 1 3987 3988 3989
4842 1 3988 3989 83
4843 1 3973 3990 3991
4844 1 3990 3991 3992
4845 1 3991 3992 3993
4846 1 3992 3993 3994
4847 1 3975 3995 3996
4848 1 3995 3996 3997
4849 1 3996 3997 3998
4850 1 3997 3998 3999
4851 1 3983 4000 4001
4852 1 4000 4001 4002
4853 1 4001 4002 4003
4854 1 4002 4003 4004
4855 1 3984 4005 4006
4856 1 4005 4006 4007
4857 1 4006 4007 4008
4858 1 4007 4008 4009
4859 1 3985 4010 4011
4860 1 4010 4011 4012
4861 1 4011 4012 4013
4862 1 4012 4013 4014
4863 1 4016 4015 59
4864 1 4015 4016 4017
4865 1 4016 4017 4018
4866 1 4016 4017 4035
4867 1 4018 4017 4035
4868 1 4017 4018 4019
4869 1 4018 4019 4020
4870 1 4019 4020 4021
4871 1 4019 4020 4040
4872 1 4021 4020 4040
4873 1 4020 4021 4022
4874 1 4021 4022 4023
4875 1 4022 4023 4024
4876 1 4023 4024 4025
4877 1 4024 4025 4026
4878 1 4025 4026 4027
4879 1 4026 4027 4028
4880 1 4026 4027 4045
4881 1 4028 4027 4045
4882 1 4027 4028 4029
4883 1 4028 4029 4030
4884 1 4029 4030 4031
4885 1 4030 4031 4032
4886 1 4031 4032 4033
4887 1 4032 4033 4034
4888 1 4033 4034 60
4889 1 4017 4035 4036
4890 1 4035 4036 4037
4891 1 4036 4037 4038
4892 1 4037 4038 4039
4893 1 4020 4040 4041
4894 1 4040 4041 4042
4895 1 4041 4042 4043
4896 1 4042 4043 4044
4897 1 4027 4045 4046
4898 1 4045 4046 4047
4899 1 4046 4047 4048
4900 1 4047 4048 4049
4901 1 4051 4050 59
4902 1 4050 4051 4052
4903 1 4051 4052 4053
4904 1 4052 4053 4054
4905 1 4053 4054 4055
4906 1 4054 4055 4056
4907 1 4055 4056 4057
4908 1 4056 4057 4058
4909 1 4057 4058 4059
4910 1 4058 4059 4060
4911 1 4059 4060 4061
4912 1 4060 4061 4062
4913 1 4061 4062 4063
4914 1 4062 4063 4064
4915 1 4063 4064 4065
4916 1 4064 4065 4066
4917 1 4065 4066 4067
4918 1 4066 4067 4068
4919 1 4067 4068 4069
4920 1 4068 4069 64
4921 1 4068 4069 4070
4922 1 64 4069 4070
4923 1 4069 4070 4071
4924 1 4070 4071 4072
4925 1 4071 4072 4073
4926 1 4072 4073 4074
4927 1 4076 4075 59
4928 1 4075 4076 4077
4929 1 4076 4077 4078
4930 1 4077 4078 4079
4931 1 4077 4078 4095
4932 1 4079 4078 4095
4933 1 4078 4079 4080
4934 1 4079 4080 4081
4935 1 4080 4081 4082
4936 1 4081 4082 4083
4937 1 4082 4083 4084
4938 1 4082 4083 4100
4939 1 4084 4083 4100
4940 1 4083 4084 4085
4941 1 4084 4085 4086
4942 1 4085 4086 4087
4943 1 4086 4087 4088
4944 1 4087 4088 4089
4945 1 4088 4089 4090
4946 1 4089 4090 4091
4947 1 4090 4091 4092
4948 1 4091 4092 4093
4949 1 4092 4093 4094
4950 1 4093 4094 89
4951 1 4078 4095 4096
4952 1 4095 4096 4097
4953 1 4096 4097 4098
4954 1 4097 4098 4099
4955 1 4083 4100 4101
4956 1 4100 4101 4102
4957 1 4101 4102 4103
4958 1 4102 4103 4104
4959 1 4106 4105 60
4960 1 4105 4106 4107
4961 1 4106 4107 4108
4962 1 4106 4107 4125
4963 1 4108 4107 4125
4964 1 4107 4108 4109
4965 1 4107 4108 4130
4966 1 4109 4108 4130
4967 1 4108 4109 4110
4968 1 4109 4110 4111
4969 1 4110 4111 4112
4970 1 4111 4112 4113
4971 1 4112 4113 4114
4972 1 4113 4114 4115
4973 1 4114 4115 4116
4974 1 4114 4115 4135
4975 1 4116 4115 4135
4976 1 4115 4116 4117
4977 1 4116 4117 4118
4978 1 4117 4118 4119
4979 1 4118 4119 4120
4980 1 4119 4120 4121
4981 1 4120 4121 4122
4982 1 4121 4122 4123
4983 1 4122 4123 4124
4984 1 4123 4124 65
4985 1 4107 4125 4126
4986 1 4125 4126 4127
4987 1 4126 4127 4128
4988 1 4127 4128 4129
4989 1 4108 4130 4131
4990 1 4130 4131 4132
4991 1 4131 4132 4133
4992 1 4132 4133 4134
4993 1 4115 4135 4136
4994 1 4135 4136 4137
4995 1 4136 4137 4138
4996 1 4137 4138 4139
4997 1 4141 4140 60
4998 1 4140 4141 4142
4999 1 4141 4142 4143
5000 1 4141 4142 4160
5001 1 4143 4142 4160
5002 1 4142 4143 4144
5003 1 4143 4144 4145
5004 1 4144 4145 4146
5005 1 4145 4146 4147
5006 1 4146 4147 4148
5007 1 4147 4148 4149
5008 1 4147 4148 4165
5009 1 4149 4148 4165
5010 1 4148 4149 4150
5011 1 4149 4150 4151
5012 1 4150 4151 4152
5013 1 4150 4151 4170
5014 1 4152 4151 4170
5015 1 4151 4152 4153
5016 1 4151 4152 4175
5017 1 4153 4152 4175
5018 1 4152 4153 4154
5019 1 4153 4154 4155
5020 1 4154 4155 4156
5021 1 4155 4156 4157
5022 1 4156 4157 4158
5023 1 4157 4158 4159
5024 1 4158 4159 90
5025 1 4158 4159 4180
5026 1 90 4159 4180
5027 1 4142 4160 4161
5028 1 4160 4161 4162
5029 1 4161 4162 4163
5030 1 4162 4163 4164
5031 1 4148 4165 4166
5032 1 4165 4166 4167
5033 1 4166 4167 4168
5034 1 4167 4168 4169
5035 1 4151 4170 4171
5036 1 4170 4171 4172
5037 1 4171 4172 4173
5038 1 4172 4173 4174
5039 1 4152 4175 4176
5040 1 4175 4176 4177
5041 1 4176 4177 4178
5042 1 4177 4178 4179
5043 1 4159 4180 4181
5044 1 4180 4181 4182
5045 1 4181 4182 4183
5046 1 4182 4183 4184
5047 1 4186 4185 60
5048 1 4185 4186 4187
5049 1 4186 4187 4188
5050 1 4187 4188 4189
5051 1 4188 4189 4190
5052 1 4189 4190 4191
5053 1 4189 4190 4205
5054 1 4191 4190 4205
5055 1 4190 4191 4192
5056 1 4191 4192 4193
5057 1 4192 4193 4194
5058 1 4193 4194 4195
5059 1 4194 4195 4196
5060 1 4195 4196 4197
5061 1 4196 4197 4198
5062 1 4196 4197 4210
5063 1 4198 4197 4210
5064 1 4197 4198 4199
5065 1 4197 4198 4215
5066 1 4199 4198 4215
5067 1 4198 4199 4200
5068 1 4199 4200 4201
5069 1 4200 4201 4202
5070 1 4200 4201 4220
5071 1 4202 4201 4220
5072 1 4201 4202 4203
5073 1 4202 4203 4204
5074 1 4203 4204 82
5075 1 4203 4204 4225
5076 1 82 4204 4225
5077 1 4190 4205 4206
5078 1 4205 4206 4207
5079 1 4206 4207 4208
5080 1 4207 4208 4209
5081 1 4197 4210 4211
5082 1 4210 4211 4212
5083 1 4211 4212 4213
5084 1 4212 4213 4214
5085 1 4198 4215 4216
5086 1 4215 4216 4217
5087 1 4216 4217 4218
5088 1 4217 4218 4219
5089 1 4201 4220 4221
5090 1 4220 4221 4222
5091 1 4221 4222 4223
5092 1 4222 4223 4224
5093 1 4204 4225 4226
5094 1 4225 4226 4227
5095 1 4226 4227 4228
5096 1 4227 4228 4229
5097 1 4231 4230 61
5098 1 4230 4231 4232
5099 1 4231 4232 4233
5100 1 4232 4233 4234
5101 1 4233 4234 4235
5102 1 4233 4234 4250
5103 1 4235 4234 4250
5104 1 4234 4235 4236
5105 1 4235 4236 4237
5106 1 4236 4237 4238
5107 1 4236 4237 4255
5108 1 4238 4237 4255
5109 1 4237 4238 4239
5110 1 4238 4239 4240
5111 1 4239 4240 4241
5112 1 4240 4241 4242
5113 1 4241 4242 4243
5114 1 4242 4243 4244
5115 1 4243 4244 4245
5116 1 4244 4245 4246
5117 1 4245 4246 4247
5118 1 4246 4247 4248
5119 1 4247 4248 4249
5120 1 4248 4249 66
5121 1 4248 4249 4260
5122 1 66 4249 4260
5123 1 4234 4250 4251
5124 1 4250 4251 4252
5125 1 4251 4252 4253
5126 1 4252 4253 4254
5127 1 4237 4255 4256
5128 1 4255 4256 4257
5129 1 4256 4257 4258
5130 1 4257 4258 4259
5131 1 4249 4260 4261
5132 1 4260 4261 4262
5133 1 4261 4262 4263
5134 1 4262 4263 4264
5135 1 4266 4265 61
5136 1 4266 4265 4285
5137 1 61 4265 4285
5138 1 4265 4266 4267
5139 1 4266 4267 4268
5140 1 4267 4268 4269
5141 1 4268 4269 4270
5142 1 4269 4270 4271
5143 1 4269 4270 4290
5144 1 4271 4270 4290
5145 1 4270 4271 4272
5146 1 4271 4272 4273
5147 1 4272 4273 4274
5148 1 4273 4274 4275
5149 1 4274 4275 4276
5150 1 4274 4275 4295
5151 1 4276 4275 4295
5152 1 4275 4276 4277
5153 1 4276 4277 4278
5154 1 4277 4278 4279
5155 1 4278 4279 4280
5156 1 4279 4280 4281
5157 1 4280 4281 4282
5158 1 4281 4282 4283
5159 1 4282 4283 4284
5160 1 4282 4283 4300
5161 1 4284 4283 4300
5162 1 4283 4284 91
5163 1 4283 4284 4305
5164 1 91 4284 4305
5165 1 4265 4285 4286
5166 1 4285 4286 4287
5167 1 4286 4287 4288
5168 1 4287 4288 4289
5169 1 4270 4290 4291
5170 1 4290 4291 4292
5171 1 4291 4292 4293
5172 1 4292 4293 4294
5173 1 4275 4295 4296
5174 1 4295 4296 4297
5175 1 4296 4297 4298
5176 1 4297 4298 4299
5177 1 4283 4300 4301
5178 1 4300 4301 4302
5179 1 4301 4302 4303
5180 1 4302 4303 4304
5181 1 4284 4305 4306
5182 1 4305 4306 4307
5183 1 4306 4307 4308
5184 1 4307 4308 4309
5185 1 4311 4310 61
5186 1 4310 4311 4312
5187 1 4311 4312 4313
5188 1 4312 4313 4314
5189 1 4313 4314 4315
5190 1 4313 4314 4330
5191 1 4315 4314 4330
5192 1 4314 4315 4316
5193 1 4315 4316 4317
5194 1 4315 4316 4335
5195 1 4317 4316 4335
5196 1 4316 4317 4318
5197 1 4316 4317 4340
5198 1 4318 4317 4340
5199 1 4317 4318 4319
5200 1 4318 4319 4320
5201 1 4319 4320 4321
5202 1 4320 4321 4322
5203 1 4321 4322 4323
5204 1 4322 4323 4324
5205 1 4323 4324 4325
5206 1 4324 4325 4326
5207 1 4325 4326 4327
5208 1 4326 4327 4328
5209 1 4327 4328 4329
5210 1 4328 4329 83
5211 1 4314 4330 4331
5212 1 4330 4331 4332
5213 1 4331 4332 4333
5214 1 4332 4333 4334
5215 1 4316 4335 4336
5216 1 4335 4336 4337
5217 1 4336 4337 4338
5218 1 4337 4338 4339
5219 1 4317 4340 4341
5220 1 4340 4341 4342
5221 1 4341 4342 4343
5222 1 4342 4343 4344
5223 1 4346 4345 62
5224 1 4345 4346 4347
5225 1 4346 4347 4348
5226 1 4346 4347 4365
5227 1 4348 4347 4365
5228 1 4347 4348 4349
5229 1 4348 4349 4350
5230 1 4349 4350 4351
5231 1 4349 4350 4370
5232 1 4351 4350 4370
5233 1 4350 4351 4352
5234 1 4351 4352 4353
5235 1 4352 4353 4354
5236 1 4352 4353 4375
5237 1 4354 4353 4375
5238 1 4353 4354 4355
5239 1 4354 4355 4356
5240 1 4355 4356 4357
5241 1 4356 4357 4358
5242 1 4357 4358 4359
5243 1 4358 4359 4360
5244 1 4358 4359 4380
5245 1 4360 4359 4380
5246 1 4359 4360 4361
5247 1 4359 4360 4385
5248 1 4361 4360 4385
5249 1 4360 4361 4362
5250 1 4361 4362 4363
5251 1 4362 4363 4364
5252 1 4363 4364 63
5253 1 4347 4365 4366
5254 1 4365 4366 4367
5255 1 4366 4367 4368
5256 1 4367 4368 4369
5257 1 4350 4370 4371
5258 1 4370 4371 4372
5259 1 4371 4372 4373
5260 1 4372 4373 4374
5261 1 4353 4375 4376
5262 1 4375 4376 4377
5263 1 4376 4377 4378
5264 1 4377 4378 4379
5265 1 4359 4380 4381
5266 1 4380 4381 4382
5267 1 4381 4382 4383
5268 1 4382 4383 4384
5269 1 4360 4385 4386
5270 1 4385 4386 4387
5271 1 4386 4387 4388
5272 1 4387 4388 4389
5273 1 4391 4390 62
5274 1 4390 4391 4392
5275 1 4390 4391 4410
5276 1 4392 4391 4410
5277 1 4391 4392 4393
5278 1 4392 4393 4394
5279 1 4393 4394 4395
5280 1 4394 4395 4396
5281 1 4395 4396 4397
5282 1 4395 4396 4415
5283 1 4397 4396 4415
5284 1 4396 4397 4398
5285 1 4397 4398 4399
5286 1 4398 4399 4400
5287 1 4399 4400 4401
5288 1 4400 4401 4402
5289 1 4401 4402 4403
5290 1 4401 4402 4420
5291 1 4403 4402 4420
5292 1 4402 4403 4404
5293 1 4402 4403 4425
5294 1 4404 4403 4425
5295 1 4403 4404 4405
5296 1 4404 4405 4406
5297 1 4405 4406 4407
5298 1 4405 4406 4430
5299 1 4407 4406 4430
5300 1 4406 4407 4408
5301 1 4406 4407 4435
5302 1 4408 4407 4435
5303 1 4407 4408 4409
5304 1 4407 4408 4440
5305 1 4409 4408 4440
5306 1 4408 4409 67
5307 1 4391 4410 4411
5308 1 4410 4411 4412
5309 1 4411 4412 4413
5310 1 4412 4413 4414
5311 1 4396 4415 4416
5312 1 4415 4416 4417
5313 1 4416 4417 4418
5314 1 4417 4418 4419
5315 1 4402 4420 4421
5316 1 4420 4421 4422
5317 1 4421 4422 4423
5318 1 4422 4423 4424
5319 1 4403 4425 4426
5320 1 4425 4426 4427
5321 1 4426 4427 4428
5322 1 4427 4428 4429
5323 1 4406 4430 4431
5324 1 4430 4431 4432
5325 1 4431 4432 4433
5326 1 4432 4433 4434
5327 1 4407 4435 4436
5328 1 4435 4436 4437
5329 1 4436 4437 4438
5330 1 4437 4438 4439
5331 1 4408 4440 4441
5332 1 4440 4441 4442
5333 1 4441 4442 4443
5334 1 4442 4443 4444
5335 1 4446 4445 62
5336 1 4445 4446 4447
5337 1 4446 4447 4448
5338 1 4446 4447 4465
5339 1 4448 4447 4465
5340 1 4447 4448 4449
5341 1 4448 4449 4450
5342 1 4449 4450 4451
5343 1 4450 4451 4452
5344 1 4450 4451 4470
5345 1 4452 4451 4470
5346 1 4451 4452 4453
5347 1 4452 4453 4454
5348 1 4452 4453 4475
5349 1 4454 4453 4475
5350 1 4453 4454 4455
5351 1 4453 4454 4480
5352 1 4455 4454 4480
5353 1 4454 4455 4456
5354 1 4454 4455 4485
5355 1 4456 4455 4485
5356 1 4455 4456 4457
5357 1 4456 4457 4458
5358 1 4457 4458 4459
5359 1 4458 4459 4460
5360 1 4459 4460 4461
5361 1 4460 4461 4462
5362 1 4461 4462 4463
5363 1 4462 4463 4464
5364 1 4462 4463 4490
5365 1 4464 4463 4490
5366 1 4463 4464 92
5367 1 4463 4464 4495
5368 1 92 4464 4495
5369 1 4447 4465 4466
5370 1 4465 4466 4467
5371 1 4466 4467 4468
5372 1 4467 4468 4469
5373 1 4451 4470 4471
5374 1 4470 4471 4472
5375 1 4471 4472 4473
5376 1 4472 4473 4474
5377 1 4453 4475 4476
5378 1 4475 4476 4477
5379 1 4476 4477 4478
5380 1 4477 4478 4479
5381 1 4454 4480 4481
5382 1 4480 4481 4482
5383 1 4481 4482 4483
5384 1 4482 4483 4484
5385 1 4455 4485 4486
5386 1 4485 4486 4487
5387 1 4486 4487 4488
5388 1 4487 4488 4489
5389 1 4463 4490 4491
5390 1 4490 4491 4492
5391 1 4491 4492 4493
5392 1 4492 4493 4494
5393 1 4464 4495 4496
5394 1 4495 4496 4497
5395 1 4496 4497 4498
5396 1 4497 4498 4499
5397 1 4501 4500 62
5398 1 4500 4501 4502
5399 1 4501 4502 4503
5400 1 4502 4503 4504
5401 1 4502 4503 4520
5402 1 4504 4503 4520
5403 1 4503 4504 4505
5404 1 4504 4505 4506
5405 1 4504 4505 4525
5406 1 4506 4505 4525
5407 1 4505 4506 4507
5408 1 4506 4507 4508
5409 1 4506 4507 4530
5410 1 4508 4507 4530
5411 1 4507 4508 4509
5412 1 4508 4509 4510
5413 1 4509 4510 4511
5414 1 4510 4511 4512
5415 1 4511 4512 4513
5416 1 4512 4513 4514
5417 1 4513 4514 4515
5418 1 4514 4515 4516
5419 1 4514 4515 4535
5420 1 4516 4515 4535
5421 1 4515 4516 4517
5422 1 4516 4517 4518
5423 1 4517 4518 4519
5424 1 4518 4519 66
5425 1 4518 4519 4540
5426 1 66 4519 4540
5427 1 4503 4520 4521
5428 1 4520 4521 4522
5429 1 4521 4522 4523
5430 1 4522 4523 4524
5431 1 4505 4525 4526
5432 1 4525 4526 4527
5433 1 4526 4527 4528
5434 1 4527 4528 4529
5435 1 4507 4530 4531
5436 1 4530 4531 4532
5437 1 4531 4532 4533
5438 1 4532 4533 4534
5439 1 4515 4535 4536
5440 1 4535 4536 4537
5441 1 4536 4537 4538
5442 1 4537 4538 4539
5443 1 4519 4540 4541
5444 1 4540 4541 4542
5445 1 4541 4542 4543
5446 1 4542 4543 4544
5447 1 4546 4545 63
5448 1 4545 4546 4547
5449 1 4546 4547 4548
5450 1 4547 4548 4549
5451 1 4548 4549 4550
5452 1 4549 4550 4551
5453 1 4550 4551 4552
5454 1 4551 4552 4553
5455 1 4552 4553 4554
5456 1 4553 4554 4555
5457 1 4554 4555 4556
5458 1 4555 4556 4557
5459 1 4556 4557 4558
5460 1 4557 4558 4559
5461 1 4558 4559 4560
5462 1 4558 4559 4565
5463 1 4560 4559 4565
5464 1 4559 4560 4561
5465 1 4559 4560 4570
5466 1 4561 4560 4570
5467 1 4560 4561 4562
5468 1 4560 4561 4575
5469 1 4562 4561 4575
5470 1 4561 4562 4563
5471 1 4562 4563 4564
5472 1 4562 4563 4580
5473 1 4564 4563 4580
5474 1 4563 4564 68
5475 1 4559 4565 4566
5476 1 4565 4566 4567
5477 1 4566 4567 4568
5478 1 4567 4568 4569
5479 1 4560 4570 4571
5480 1 4570 4571 4572
5481 1 4571 4572 4573
5482 1 4572 4573 4574
5483 1 4561 4575 4576
5484 1 4575 4576 4577
5485 1 4576 4577 4578
5486 1 4577 4578 4579
5487 1 4563 4580 4581
5488 1 4580 4581 4582
5489 1 4581 4582 4583
5490 1 4582 4583 4584
5491 1 4586 4585 63
5492 1 4585 4586 4587
5493 1 4586 4587 4588
5494 1 4587 4588 4589
5495 1 4588 4589 4590
5496 1 4589 4590 4591
5497 1 4590 4591 4592
5498 1 4591 4592 4593
5499 1 4591 4592 4605
5500 1 4593 4592 4605
5501 1 4592 4593 4594
5502 1 4593 4594 4595
5503 1 4593 4594 4610
5504 1 4595 4594 4610
5505 1 4594 4595 4596
5506 1 4595 4596 4597
5507 1 4595 4596 4615
5508 1 4597 4596 4615
5509 1 4596 4597 4598
5510 1 4597 4598 4599
5511 1 4598 4599 4600
5512 1 4599 4600 4601
5513 1 4600 4601 4602
5514 1 4600 4601 4620
5515 1 4602 4601 4620
5516 1 4601 4602 4603
5517 1 4602 4603 4604
5518 1 4603 4604 93
5519 1 4592 4605 4606
5520 1 4605 4606 4607
5521 1 4606 4607 4608
5522 1 4607 4608 4609
5523 1 4594 4610 4611
5524 1 4610 4611 4612
5525 1 4611 4612 4613
5526 1 4612 4613 4614
5527 1 4596 4615 4616
5528 1 4615 4616 4617
5529 1 4616 4617 4618
5530 1 4617 4618 4619
5531 1 4601 4620 4621
5532 1 4620 4621 4622
5533 1 4621 4622 4623
5534 1 4622 4623 4624
5535 1 4626 4625 64
5536 1 4625 4626 4627
5537 1 4626 4627 4628
5538 1 4627 4628 4629
5539 1 4627 4628 4645
5540 1 4629 4628 4645
5541 1 4628 4629 4630
5542 1 4629 4630 4631
5543 1 4630 4631 4632
5544 1 4631 4632 4633
5545 1 4632 4633 4634
5546 1 4632 4633 4650
5547 1 4634 4633 4650
5548 1 4633 4634 4635
5549 1 4634 4635 4636
5550 1 4635 4636 4637
5551 1 4636 4637 4638
5552 1 4637 4638 4639
5553 1 4637 4638 4655
5554 1 4639 4638 4655
5555 1 4638 4639 4640
5556 1 4639 4640 4641
5557 1 4639 4640 4660
5558 1 4641 4640 4660
5559 1 4640 4641 4642
5560 1 4640 4641 4665
5561 1 4642 4641 4665
5562 1 4641 4642 4643
5563 1 4642 4643 4644
5564 1 4643 4644 65
5565 1 4628 4645 4646
5566 1 4645 4646 4647
5567 1 4646 4647 4648
5568 1 4647 4648 4649
5569 1 4633 4650 4651
5570 1 4650 4651 4652
5571 1 4651 4652 4653
5572 1 4652 4653 4654
5573 1 4638 4655 4656
5574 1 4655 4656 4657
5575 1 4656 4657 4658
5576 1 4657 4658 4659
5577 1 4640 4660 4661
5578 1 4660 4661 4662
5579 1 4661 4662 4663
5580 1 4662 4663 4664
5581 1 4641 4665 4666
5582 1 4665 4666 4667
5583 1 4666 4667 4668
5584 1 4667 4668 4669
5585 1 4671 4670 66
5586 1 4670 4671 4672
5587 1 4671 4672 4673
5588 1 4672 4673 4674
5589 1 4673 4674 4675
5590 1 4674 4675 4676
5591 1 4675 4676 4677
5592 1 4676 4677 4678
5593 1 4677 4678 4679
5594 1 4678 4679 4680
5595 1 4679 4680 4681
5596 1 4680 4681 4682
5597 1 4681 4682 4683
5598 1 4682 4683 4684
5599 1 4683 4684 4685
5600 1 4684 4685 4686
5601 1 4685 4686 4687
5602 1 4686 4687 4688
5603 1 4687 4688 4689
5604 1 4687 4688 4690
5605 1 4689 4688 4690
5606 1 4688 4689 71
5607 1 4688 4690 4691
5608 1 4690 4691 4692
5609 1 4691 4692 4693
5610 1 4692 4693 4694
5611 1 4696 4695 66
5612 1 4695 4696 4697
5613 1 4696 4697 4698
5614 1 4697 4698 4699
5615 1 4698 4699 4700
5616 1 4699 4700 4701
5617 1 4700 4701 4702
5618 1 4701 4702 4703
5619 1 4701 4702 4715
5620 1 4703 4702 4715
5621 1 4702 4703 4704
5622 1 4703 4704 4705
5623 1 4703 4704 4720
5624 1 4705 4704 4720
5625 1 4704 4705 4706
5626 1 4705 4706 4707
5627 1 4706 4707 4708
5628 1 4707 4708 4709
5629 1 4708 4709 4710
5630 1 4709 4710 4711
5631 1 4710 4711 4712
5632 1 4710 4711 4725
5633 1 4712 4711 4725
5634 1 4711 4712 4713
5635 1 4712 4713 4714
5636 1 4713 4714 96
5637 1 4702 4715 4716
5638 1 4715 4716 4717
5639 1 4716 4717 4718
5640 1 4717 4718 4719
5641 1 4704 4720 4721
5642 1 4720 4721 4722
5643 1 4721 4722 4723
5644 1 4722 4723 4724
5645 1 4711 4725 4726
5646 1 4725 4726 4727
5647 1 4726 4727 4728
5648 1 4727 4728 4729
5649 1 4731 4730 67
5650 1 4730 4731 4732
5651 1 4731 4732 4733
5652 1 4732 4733 4734
5653 1 4733 4734 4735
5654 1 4734 4735 4736
5655 1 4735 4736 4737
5656 1 4736 4737 4738
5657 1 4737 4738 4739
5658 1 4738 4739 4740
5659 1 4739 4740 4741
5660 1 4740 4741 4742
5661 1 4740 4741 4750
5662 1 4742 4741 4750
5663 1 4741 4742 4743
5664 1 4742 4743 4744
5665 1 4742 4743 4755
5666 1 4744 4743 4755
5667 1 4743 4744 4745
5668 1 4744 4745 4746
5669 1 4745 4746 4747
5670 1 4746 4747 4748
5671 1 4747 4748 4749
5672 1 4748 4749 97
5673 1 4741 4750 4751
5674 1 4750 4751 4752
5675 1 4751 4752 4753
5676 1 4752 4753 4754
5677 1 4743 4755 4756
5678 1 4755 4756 4757
5679 1 4756 4757 4758
5680 1 4757 4758 4759
5681 1 4761 4760 67
5682 1 4761 4760 4780
5683 1 67 4760 4780
5684 1 4760 4761 4762
5685 1 4761 4762 4763
5686 1 4762 4763 4764
5687 1 4763 4764 4765
5688 1 4764 4765 4766
5689 1 4765 4766 4767
5690 1 4766 4767 4768
5691 1 4766 4767 4785
5692 1 4768 4767 4785
5693 1 4767 4768 4769
5694 1 4768 4769 4770
5695 1 4769 4770 4771
5696 1 4770 4771 4772
5697 1 4771 4772 4773
5698 1 4772 4773 4774
5699 1 4773 4774 4775
5700 1 4774 4775 4776
5701 1 4775 4776 4777
5702 1 4775 4776 4790
5703 1 4777 4776 4790
5704 1 4776 4777 4778
5705 1 4777 4778 4779
5706 1 4778 4779 71
5707 1 4760 4780 4781
5708 1 4780 4781 4782
5709 1 4781 4782 4783
5710 1 4782 4783 4784
5711 1 4767 4785 4786
5712 1 4785 4786 4787
5713 1 4786 4787 4788
5714 1 4787 4788 4789
5715 1 4776 4790 4791
5716 1 4790 4791 4792
5717 1 4791 4792 4793
5718 1 4792 4793 4794
5719 1 4796 4795 68
5720 1 4796 4795 4815
5721 1 68 4795 4815
5722 1 4795 4796 4797
5723 1 4796 4797 4798
5724 1 4797 4798 4799
5725 1 4798 4799 4800
5726 1 4798 4799 4820
5727 1 4800 4799 4820
5728 1 4799 4800 4801
5729 1 4799 4800 4825
5730 1 4801 4800 4825
5731 1 4800 4801 4802
5732 1 4801 4802 4803
5733 1 4802 4803 4804
5734 1 4803 4804 4805
5735 1 4804 4805 4806
5736 1 4805 4806 4807
5737 1 4806 4807 4808
5738 1 4806 4807 4830
5739 1 4808 4807 4830
5740 1 4807 4808 4809
5741 1 4808 4809 4810
5742 1 4809 4810 4811
5743 1 4810 4811 4812
5744 1 4811 4812 4813
5745 1 4812 4813 4814
5746 1 4813 4814 72
5747 1 4813 4814 4835
5748 1 72 4814 4835
5749 1 4795 4815 4816
5750 1 4815 4816 4817
5751 1 4816 4817 4818
5752 1 4817 4818 4819
5753 1 4799 4820 4821
5754 1 4820 4821 4822
5755 1 4821 4822 4823
5756 1 4822 4823 4824
5757 1 4800 4825 4826
5758 1 4825 4826 4827
5759 1 4826 4827 4828
5760 1 4827 4828 4829
5761 1 4807 4830 4831
5762 1 4830 4831 4832
5763 1 4831 4832 4833
5764 1 4832 4833 4834
5765 1 4814 4835 4836
5766 1 4835 4836 4837
5767 1 4836 4837 4838
5768 1 4837 4838 4839
5769 1 4841 4840 68
5770 1 4840 4841 4842
5771 1 4841 4842 4843
5772 1 4842 4843 4844
5773 1 4843 4844 4845
5774 1 4844 4845 4846
5775 1 4845 4846 4847
5776 1 4845 4846 4860
5777 1 4847 4846 4860
5778 1 4846 4847 4848
5779 1 4847 4848 4849
5780 1 4848 4849 4850
5781 1 4848 4849 4865
5782 1 4850 4849 4865
5783 1 4849 4850 4851
5784 1 4849 4850 4870
5785 1 4851 4850 4870
5786 1 4850 4851 4852
5787 1 4851 4852 4853
5788 1 4852 4853 4854
5789 1 4853 4854 4855
5790 1 4854 4855 4856
5791 1 4854 4855 4875
5792 1 4856 4855 4875
5793 1 4855 4856 4857
5794 1 4856 4857 4858
5795 1 4857 4858 4859
5796 1 4858 4859 98
5797 1 4846 4860 4861
5798 1 4860 4861 4862
5799 1 4861 4862 4863
5800 1 4862 4863 4864
5801 1 4849 4865 4866
5802 1 4865 4866 4867
5803 1 4866 4867 4868
5804 1 4867 4868 4869
5805 1 4850 4870 4871
5806 1 4870 4871 4872
5807 1 4871 4872 4873
5808 1 4872 4873 4874
5809 1 4855 4875 4876
5810 1 4875 4876 4877
5811 1 4876 4877 4878
5812 1 4877 4878 4879
5813 1 4881 4880 69
5814 1 4880 4881 4882
5815 1 4881 4882 4883
5816 1 4882 4883 4884
5817 1 4883 4884 4885
5818 1 4884 4885 4886
5819 1 4885 4886 4887
5820 1 4886 4887 4888
5821 1 4887 4888 4889
5822 1 4888 4889 4890
5823 1 4889 4890 4891
5824 1 4890 4891 4892
5825 1 4891 4892 4893
5826 1 4891 4892 4900
5827 1 4893 4892 4900
5828 1 4892 4893 4894
5829 1 4892 4893 4905
5830 1 4894 4893 4905
5831 1 4893 4894 4895
5832 1 4894 4895 4896
5833 1 4895 4896 4897
5834 1 4896 4897 4898
5835 1 4897 4898 4899
5836 1 4897 4898 4910
5837 1 4899 4898 4910
5838 1 4898 4899 70
5839 1 4892 4900 4901
5840 1 4900 4901 4902
5841 1 4901 4902 4903
5842 1 4902 4903 4904
5843 1 4893 4905 4906
5844 1 4905 4906 4907
5845 1 4906 4907 4908
5846 1 4907 4908 4909
5847 1 4898 4910 4911
5848 1 4910 4911 4912
5849 1 4911 4912 4913
5850 1 4912 4913 4914
5851 1 4916 4915 69
5852 1 4916 4915 4935
5853 1 69 4915 4935
5854 1 4915 4916 4917
5855 1 4915 4916 4940
5856 1 4917 4916 4940
5857 1 4916 4917 4918
5858 1 4917 4918 4919
5859 1 4918 4919 4920
5860 1 4919 4920 4921
5861 1 4920 4921 4922
5862 1 4920 4921 4945
5863 1 4922 4921 4945
5864 1 4921 4922 4923
5865 1 4922 4923 4924
5866 1 4923 4924 4925
5867 1 4924 4925 4926
5868 1 4925 4926 4927
5869 1 4926 4927 4928
5870 1 4927 4928 4929
5871 1 4928 4929 4930
5872 1 4929 4930 4931
5873 1 4929 4930 4950
5874 1 4931 4930 4950
5875 1 4930 4931 4932
5876 1 4931 4932 4933
5877 1 4932 4933 4934
5878 1 4933 4934 73
5879 1 4933 4934 4955
5880 1 73 4934 4955
5881 1 4915 4935 4936
5882 1 4935 4936 4937
5883 1 4936 4937 4938
5884 1 4937 4938 4939
5885 1 4916 4940 4941
5886 1 4940 4941 4942
5887 1 4941 4942 4943
5888 1 4942 4943 4944
5889 1 4921 4945 4946
5890 1 4945 4946 4947
5891 1 4946 4947 4948
5892 1 4947 4948 4949
5893 1 4930 4950 4951
5894 1 4950 4951 4952
5895 1 4951 4952 4953
5896 1 4952 4953 4954
5897 1 4934 4955 4956
5898 1 4955 4956 4957
5899 1 4956 4957 4958
5900 1 4957 4958 4959
5901 1 4961 4960 69
5902 1 4961 4960 4980
5903 1 69 4960 4980
5904 1 4960 4961 4962
5905 1 4961 4962 4963
5906 1 4961 4962 4985
5907 1 4963 4962 4985
5908 1 4962 4963 4964
5909 1 4962 4963 4990
5910 1 4964 4963 4990
5911 1 4963 4964 4965
5912 1 4964 4965 4966
5913 1 4965 4966 4967
5914 1 4966 4967 4968
5915 1 4967 4968 4969
5916 1 4968 4969 4970
5917 1 4969 4970 4971
5918 1 4969 4970 4995
5919 1 4971 4970 4995
5920 1 4970 4971 4972
5921 1 4971 4972 4973
5922 1 4971 4972 5000
5923 1 4973 4972 5000
5924 1 4972 4973 4974
5925 1 4972 4973 5005
5926 1 4974 4973 5005
5927 1 4973 4974 4975
5928 1 4974 4975 4976
5929 1 4975 4976 4977
5930 1 4976 4977 4978
5931 1 4977 4978 4979
5932 1 4978 4979 99
5933 1 4960 4980 4981
5934 1 4980 4981 4982
5935 1 4981 4982 4983
5936 1 4982 4983 4984
5937 1 4962 4985 4986
5938 1 4985 4986 4987
5939 1 4986 4987 4988
5940 1 4987 4988 4989
5941 1 4963 4990 4991
5942 1 4990 4991 4992
5943 1 4991 4992 4993
5944 1 4992 4993 4994
5945 1 4970 4995 4996
5946 1 4995 4996 4997
5947 1 4996 4997 4998
5948 1 4997 4998 4999
5949 1 4972 5000 5001
5950 1 5000 5001 5002
5951 1 5001 5002 5003
5952 1 5002 5003 5004
5953 1 4973 5005 5006
5954 1 5005 5006 5007
5955 1 5006 5007 5008
5956 1 5007 5008 5009
5957 1 5011 5010 70
5958 1 5010 5011 5012
5959 1 5010 5011 5030
5960 1 5012 5011 5030
5961 1 5011 5012 5013
5962 1 5011 5012 5035
5963 1 5013 5012 5035
5964 1 5012 5013 5014
5965 1 5013 5014 5015
5966 1 5014 5015 5016
5967 1 5015 5016 5017
5968 1 5016 5017 5018
5969 1 5016 5017 5040
5970 1 5018 5017 5040
5971 1 5017 5018 5019
5972 1 5018 5019 5020
5973 1 5018 5019 5045
5974 1 5020 5019 5045
5975 1 5019 5020 5021
5976 1 5020 5021 5022
5977 1 5021 5022 5023
5978 1 5021 5022 5050
5979 1 5023 5022 5050
5980 1 5022 5023 5024
5981 1 5023 5024 5025
5982 1 5024 5025 5026
5983 1 5024 5025 5055
5984 1 5026 5025 5055
5985 1 5025 5026 5027
5986 1 5025 5026 5060
5987 1 5027 5026 5060
5988 1 5026 5027 5028
5989 1 5027 5028 5029
5990 1 5027 5028 5065
5991 1 5029 5028 5065
5992 1 5028 5029 74
5993 1 5011 5030 5031
5994 1 5030 5031 5032
5995 1 5031 5032 5033
5996 1 5032 5033 5034
5997 1 5012 5035 5036
5998 1 5035 5036 5037
5999 1 5036 5037 5038
6000 1 5037 5038 5039
6001 1 5017 5040 5041
6002 1 5040 5041 5042
6003 1 5041 5042 5043
6004 1 5042 5043 5044
6005 1 5019 5045 5046
6006 1 5045 5046 5047
6007 1 5046 5047 5048
6008 1 5047 5048 5049
6009 1 5022 5050 5051
6010 1 5050 5051 5052
6011 1 5051 5052 5053
6012 1 5052 5053 5054
6013 1 5025 5055 5056
6014 1 5055 5056 5057
6015 1 5056 5057 5058
6016 1 5057 5058 5059
6017 1 5026 5060 5061
6018 1 5060 5061 5062
6019 1 5061 5062 5063
6020 1 5062 5063 5064
6021 1 5028 5065 5066
6022 1 5065 5066 5067
6023 1 5066 5067 5068
6024 1 5067 5068 5069
6025 1 5071 5070 70
6026 1 5071 5070 5090
6027 1 70 5070 5090
6028 1 5070 5071 5072
6029 1 5071 5072 5073
6030 1 5071 5072 5095
6031 1 5073 5072 5095
6032 1 5072 5073 5074
6033 1 5073 5074 5075
6034 1 5074 5075 5076
6035 1 5075 5076 5077
6036 1 5076 5077 5078
6037 1 5077 5078 5079
6038 1 5078 5079 5080
6039 1 5079 5080 5081
6040 1 5079 5080 5100
6041 1 5081 5080 5100
6042 1 5080 5081 5082
6043 1 5081 5082 5083
6044 1 5082 5083 5084
6045 1 5083 5084 5085
6046 1 5084 5085 5086
6047 1 5085 5086 5087
6048 1 5086 5087 5088
6049 1 5087 5088 5089
6050 1 5087 5088 5105
6051 1 5089 5088 5105
6052 1 5088 5089 100
6053 1 5070 5090 5091
6054 1 5090 5091 5092
6055 1 5091 5092 5093
6056 1 5092 5093 5094
6057 1 5072 5095 5096
6058 1 5095 5096 5097
6059 1 5096 5097 5098
6060 1 5097 5098 5099
6061 1 5080 5100 5101
6062 1 5100 5101 5102
6063 1 5101 5102 5103
6064 1 5102 5103 5104
6065 1 5088 5105 5106
6066 1 5105 5106 5107
6067 1 5106 5107 5108
6068 1 5107 5108 5109
6069 1 5111 5110 71
6070 1 5111 5110 5130
6071 1 71 5110 5130
6072 1 5110 5111 5112
6073 1 5111 5112 5113
6074 1 5111 5112 5135
6075 1 5113 5112 5135
6076 1 5112 5113 5114
6077 1 5112 5113 5140
6078 1 5114 5113 5140
6079 1 5113 5114 5115
6080 1 5114 5115 5116
6081 1 5115 5116 5117
6082 1 5116 5117 5118
6083 1 5117 5118 5119
6084 1 5118 5119 5120
6085 1 5118 5119 5145
6086 1 5120 5119 5145
6087 1 5119 5120 5121
6088 1 5120 5121 5122
6089 1 5121 5122 5123
6090 1 5122 5123 5124
6091 1 5122 5123 5150
6092 1 5124 5123 5150
6093 1 5123 5124 5125
6094 1 5124 5125 5126
6095 1 5125 5126 5127
6096 1 5126 5127 5128
6097 1 5127 5128 5129
6098 1 5127 5128 5155
6099 1 5129 5128 5155
6100 1 5128 5129 75
6101 1 5110 5130 5131
6102 1 5130 5131 5132
6103 1 5131 5132 5133
6104 1 5132 5133 5134
6105 1 5112 5135 5136
6106 1 5135 5136 5137
6107 1 5136 5137 5138
6108 1 5137 5138 5139
6109 1 5113 5140 5141
6110 1 5140 5141 5142
6111 1 5141 5142 5143
6112 1 5142 5143 5144
6113 1 5119 5145 5146
6114 1 5145 5146 5147
6115 1 5146 5147 5148
6116 1 5147 5148 5149
6117 1 5123 5150 5151
6118 1 5150 5151 5152
6119 1 5151 5152 5153
6120 1 5152 5153 5154
6121 1 5128 5155 5156
6122 1 5155 5156 5157
6123 1 5156 5157 5158
6124 1 5157 5158 5159
6125 1 5161 5160 72
6126 1 5160 5161 5162
6127 1 5161 5162 5163
6128 1 5162 5163 5164
6129 1 5163 5164 5165
6130 1 5163 5164 5180
6131 1 5165 5164 5180
6132 1 5164 5165 5166
6133 1 5165 5166 5167
6134 1 5166 5167 5168
6135 1 5167 5168 5169
6136 1 5168 5169 5170
6137 1 5169 5170 5171
6138 1 5169 5170 5185
6139 1 5171 5170 5185
6140 1 5170 5171 5172
6141 1 5171 5172 5173
6142 1 5171 5172 5190
6143 1 5173 5172 5190
6144 1 5172 5173 5174
6145 1 5173 5174 5175
6146 1 5174 5175 5176
6147 1 5175 5176 5177
6148 1 5176 5177 5178
6149 1 5176 5177 5195
6150 1 5178 5177 5195
6151 1 5177 5178 5179
6152 1 5178 5179 77
6153 1 5164 5180 5181
6154 1 5180 5181 5182
6155 1 5181 5182 5183
6156 1 5182 5183 5184
6157 1 5170 5185 5186
6158 1 5185 5186 5187
6159 1 5186 5187 5188
6160 1 5187 5188 5189
6161 1 5172 5190 5191
6162 1 5190 5191 5192
6163 1 5191 5192 5193
6164 1 5192 5193 5194
6165 1 5177 5195 5196
6166 1 5195 5196 5197
6167 1 5196 5197 5198
6168 1 5197 5198 5199
6169 1 5201 5200 72
6170 1 5200 5201 5202
6171 1 5201 5202 5203
6172 1 5202 5203 5204
6173 1 5203 5204 5205
6174 1 5204 5205 5206
6175 1 5205 5206 5207
6176 1 5206 5207 5208
6177 1 5207 5208 5209
6178 1 5207 5208 5220
6179 1 5209 5208 5220
6180 1 5208 5209 5210
6181 1 5209 5210 5211
6182 1 5210 5211 5212
6183 1 5211 5212 5213
6184 1 5212 5213 5214
6185 1 5213 5214 5215
6186 1 5214 5215 5216
6187 1 5214 5215 5225
6188 1 5216 5215 5225
6189 1 5215 5216 5217
6190 1 5216 5217 5218
6191 1 5217 5218 5219
6192 1 5218 5219 103
6193 1 5208 5220 5221
6194 1 5220 5221 5222
6195 1 5221 5222 5223
6196 1 5222 5223 5224
6197 1 5215 5225 5226
6198 1 5225 5226 5227
6199 1 5226 5227 5228
6200 1 5227 5228 5229
6201 1 5231 5230 73
6202 1 5230 5231 5232
6203 1 5230 5231 5250
6204 1 5232 5231 5250
6205 1 5231 5232 5233
6206 1 5232 5233 5234
6207 1 5232 5233 5255
6208 1 5234 5233 5255
6209 1 5233 5234 5235
6210 1 5234 5235 5236
6211 1 5235 5236 5237
6212 1 5236 5237 5238
6213 1 5237 5238 5239
6214 1 5237 5238 5260
6215 1 5239 5238 5260
6216 1 5238 5239 5240
6217 1 5239 5240 5241
6218 1 5240 5241 5242
6219 1 5241 5242 5243
6220 1 5242 5243 5244
6221 1 5243 5244 5245
6222 1 5244 5245 5246
6223 1 5245 5246 5247
6224 1 5246 5247 5248
6225 1 5247 5248 5249
6226 1 5247 5248 5265
6227 1 5249 5248 5265
6228 1 5248 5249 74
6229 1 5231 5250 5251
6230 1 5250 5251 5252
6231 1 5251 5252 5253
6232 1 5252 5253 5254
6233 1 5233 5255 5256
6234 1 5255 5256 5257
6235 1 5256 5257 5258
6236 1 5257 5258 5259
6237 1 5238 5260 5261
6238 1 5260 5261 5262
6239 1 5261 5262 5263
6240 1 5262 5263 5264
6241 1 5248 5265 5266
6242 1 5265 5266 5267
6243 1 5266 5267 5268
6244 1 5267 5268 5269
6245 1 5271 5270 73
6246 1 5270 5271 5272
6247 1 5270 5271 5290
6248 1 5272 5271 5290
6249 1 5271 5272 5273
6250 1 5272 5273 5274
6251 1 5272 5273 5295
6252 1 5274 5273 5295
6253 1 5273 5274 5275
6254 1 5273 5274 5300
6255 1 5275 5274 5300
6256 1 5274 5275 5276
6257 1 5275 5276 5277
6258 1 5276 5277 5278
6259 1 5277 5278 5279
6260 1 5278 5279 5280
6261 1 5279 5280 5281
6262 1 5280 5281 5282
6263 1 5281 5282 5283
6264 1 5282 5283 5284
6265 1 5282 5283 5305
6266 1 5284 5283 5305
6267 1 5283 5284 5285
6268 1 5284 5285 5286
6269 1 5285 5286 5287
6270 1 5286 5287 5288
6271 1 5287 5288 5289
6272 1 5288 5289 104
6273 1 5271 5290 5291
6274 1 5290 5291 5292
6275 1 5291 5292 5293
6276 1 5292 5293 5294
6277 1 5273 5295 5296
6278 1 5295 5296 5297
6279 1 5296 5297 5298
6280 1 5297 5298 5299
6281 1 5274 5300 5301
6282 1 5300 5301 5302
6283 1 5301 5302 5303
6284 1 5302 5303 5304
6285 1 5283 5305 5306
6286 1 5305 5306 5307
6287 1 5306 5307 5308
6288 1 5307 5308 5309
6289 1 5311 5310 74
6290 1 5311 5310 5330
6291 1 74 5310 5330
6292 1 5310 5311 5312
6293 1 5311 5312 5313
6294 1 5311 5312 5335
6295 1 5313 5312 5335
6296 1 5312 5313 5314
6297 1 5313 5314 5315
6298 1 5314 5315 5316
6299 1 5315 5316 5317
6300 1 5316 5317 5318
6301 1 5317 5318 5319
6302 1 5318 5319 5320
6303 1 5319 5320 5321
6304 1 5320 5321 5322
6305 1 5321 5322 5323
6306 1 5321 5322 5340
6307 1 5323 5322 5340
6308 1 5322 5323 5324
6309 1 5322 5323 5345
6310 1 5324 5323 5345
6311 1 5323 5324 5325
6312 1 5324 5325 5326
6313 1 5325 5326 5327
6314 1 5326 5327 5328
6315 1 5327 5328 5329
6316 1 5327 5328 5350
6317 1 5329 5328 5350
6318 1 5328 5329 75
6319 1 5310 5330 5331
6320 1 5330 5331 5332
6321 1 5331 5332 5333
6322 1 5332 5333 5334
6323 1 5312 5335 5336
6324 1 5335 5336 5337
6325 1 5336 5337 5338
6326 1 5337 5338 5339
6327 1 5322 5340 5341
6328 1 5340 5341 5342
6329 1 5341 5342 5343
6330 1 5342 5343 5344
6331 1 5323 5345 5346
6332 1 5345 5346 5347
6333 1 5346 5347 5348
6334 1 5347 5348 5349
6335 1 5328 5350 5351
6336 1 5350 5351 5352
6337 1 5351 5352 5353
6338 1 5352 5353 5354
6339 1 5356 5355 74
6340 1 5355 5356 5357
6341 1 5356 5357 5358
6342 1 5357 5358 5359
6343 1 5358 5359 5360
6344 1 5359 5360 5361
6345 1 5360 5361 5362
6346 1 5361 5362 5363
6347 1 5362 5363 5364
6348 1 5362 5363 5375
6349 1 5364 5363 5375
6350 1 5363 5364 5365
6351 1 5364 5365 5366
6352 1 5364 5365 5380
6353 1 5366 5365 5380
6354 1 5365 5366 5367
6355 1 5366 5367 5368
6356 1 5367 5368 5369
6357 1 5367 5368 5385
6358 1 5369 5368 5385
6359 1 5368 5369 5370
6360 1 5369 5370 5371
6361 1 5370 5371 5372
6362 1 5371 5372 5373
6363 1 5372 5373 5374
6364 1 5372 5373 5390
6365 1 5374 5373 5390
6366 1 5373 5374 82
6367 1 5363 5375 5376
6368 1 5375 5376 5377
6369 1 5376 5377 5378
6370 1 5377 5378 5379
6371 1 5365 5380 5381
6372 1 5380 5381 5382
6373 1 5381 5382 5383
6374 1 5382 5383 5384
6375 1 5368 5385 5386
6376 1 5385 5386 5387
6377 1 5386 5387 5388
6378 1 5387 5388 5389
6379 1 5373 5390 5391
6380 1 5390 5391 5392
6381 1 5391 5392 5393
6382 1 5392 5393 5394
6383 1 5396 5395 75
6384 1 5395 5396 5397
6385 1 5396 5397 5398
6386 1 5397 5398 5399
6387 1 5398 5399 5400
6388 1 5399 5400 5401
6389 1 5399 5400 5415
6390 1 5401 5400 5415
6391 1 5400 5401 5402
6392 1 5401 5402 5403
6393 1 5402 5403 5404
6394 1 5403 5404 5405
6395 1 5404 5405 5406
6396 1 5404 5405 5420
6397 1 5406 5405 5420
6398 1 5405 5406 5407
6399 1 5406 5407 5408
6400 1 5407 5408 5409
6401 1 5408 5409 5410
6402 1 5409 5410 5411
6403 1 5410 5411 5412
6404 1 5411 5412 5413
6405 1 5412 5413 5414
6406 1 5412 5413 5425
6407 1 5414 5413 5425
6408 1 5413 5414 106
6409 1 5400 5415 5416
6410 1 5415 5416 5417
6411 1 5416 5417 5418
6412 1 5417 5418 5419
6413 1 5405 5420 5421
6414 1 5420 5421 5422
6415 1 5421 5422 5423
6416 1 5422 5423 5424
6417 1 5413 5425 5426
6418 1 5425 5426 5427
6419 1 5426 5427 5428
6420 1 5427 5428 5429
6421 1 5431 5430 76
6422 1 5430 5431 5432
6423 1 5431 5432 5433
6424 1 5432 5433 5434
6425 1 5433 5434 5435
6426 1 5434 5435 5436
6427 1 5435 5436 5437
6428 1 5436 5437 5438
6429 1 5437 5438 5439
6430 1 5438 5439 5440
6431 1 5439 5440 5441
6432 1 5440 5441 5442
6433 1 5440 5441 5450
6434 1 5442 5441 5450
6435 1 5441 5442 5443
6436 1 5442 5443 5444
6437 1 5443 5444 5445
6438 1 5444 5445 5446
6439 1 5445 5446 5447
6440 1 5446 5447 5448
6441 1 5447 5448 5449
6442 1 5448 5449 77
6443 1 5441 5450 5451
6444 1 5450 5451 5452
6445 1 5451 5452 5453
6446 1 5452 5453 5454
6447 1 5456 5455 76
6448 1 5456 5455 5475
6449 1 76 5455 5475
6450 1 5455 5456 5457
6451 1 5456 5457 5458
6452 1 5457 5458 5459
6453 1 5458 5459 5460
6454 1 5459 5460 5461
6455 1 5460 5461 5462
6456 1 5461 5462 5463
6457 1 5462 5463 5464
6458 1 5463 5464 5465
6459 1 5464 5465 5466
6460 1 5465 5466 5467
6461 1 5465 5466 5480
6462 1 5467 5466 5480
6463 1 5466 5467 5468
6464 1 5467 5468 5469
6465 1 5468 5469 5470
6466 1 5469 5470 5471
6467 1 5470 5471 5472
6468 1 5471 5472 5473
6469 1 5472 5473 5474
6470 1 5473 5474 107
6471 1 5455 5475 5476
6472 1 5475 5476 5477
6473 1 5476 5477 5478
6474 1 5477 5478 5479
6475 1 5466 5480 5481
6476 1 5480 5481 5482
6477 1 5481 5482 5483
6478 1 5482 5483 5484
6479 1 5486 5485 77
6480 1 5486 5485 5505
6481 1 77 5485 5505
6482 1 5485 5486 5487
6483 1 5485 5486 5510
6484 1 5487 5486 5510
6485 1 5486 5487 5488
6486 1 5487 5488 5489
6487 1 5488 5489 5490
6488 1 5489 5490 5491
6489 1 5490 5491 5492
6490 1 5491 5492 5493
6491 1 5492 5493 5494
6492 1 5493 5494 5495
6493 1 5494 5495 5496
6494 1 5495 5496 5497
6495 1 5496 5497 5498
6496 1 5497 5498 5499
6497 1 5497 5498 5515
6498 1 5499 5498 5515
6499 1 5498 5499 5500
6500 1 5499 5500 5501
6501 1 5500 5501 5502
6502 1 5501 5502 5503
6503 1 5502 5503 5504
6504 1 5503 5504 78
6505 1 5503 5504 5520
6506 1 78 5504 5520
6507 1 5485 5505 5506
6508 1 5505 5506 5507
6509 1 5506 5507 5508
6510 1 5507 5508 5509
6511 1 5486 5510 5511
6512 1 5510 5511 5512
6513 1 5511 5512 5513
6514 1 5512 5513 5514
6515 1 5498 5515 5516
6516 1 5515 5516 5517
6517 1 5516 5517 5518
6518 1 5517 5518 5519
6519 1 5504 5520 5521
6520 1 5520 5521 5522
6521 1 5521 5522 5523
6522 1 5522 5523 5524
6523 1 5526 5525 82
6524 1 5525 5526 5527
6525 1 5526 5527 5528
6526 1 5527 5528 5529
6527 1 5527 5528 5545
6528 1 5529 5528 5545
6529 1 5528 5529 5530
6530 1 5529 5530 5531
6531 1 5530 5531 5532
6532 1 5531 5532 5533
6533 1 5532 5533 5534
6534 1 5533 5534 5535
6535 1 5534 5535 5536
6536 1 5535 5536 5537
6537 1 5536 5537 5538
6538 1 5537 5538 5539
6539 1 5538 5539 5540
6540 1 5539 5540 5541
6541 1 5540 5541 5542
6542 1 5541 5542 5543
6543 1 5542 5543 5544
6544 1 5542 5543 5550
6545 1 5544 5543 5550
6546 1 5543 5544 83
6547 1 5528 5545 5546
6548 1 5545 5546 5547
6549 1 5546 5547 5548
6550 1 5547 5548 5549
6551 1 5543 5550 5551
6552 1 5550 5551 5552
6553 1 5551 5552 5553
6554 1 5552 5553 5554
6555 1 5556 5555 82
6556 1 5555 5556 5557
6557 1 5556 5557 5558
6558 1 5557 5558 5559
6559 1 5557 5558 5575
6560 1 5559 5558 5575
6561 1 5558 5559 5560
6562 1 5559 5560 5561
6563 1 5559 5560 5580
6564 1 5561 5560 5580
6565 1 5560 5561 5562
6566 1 5560 5561 5585
6567 1 5562 5561 5585
6568 1 5561 5562 5563
6569 1 5562 5563 5564
6570 1 5563 5564 5565
6571 1 5563 5564 5590
6572 1 5565 5564 5590
6573 1 5564 5565 5566
6574 1 5565 5566 5567
6575 1 5565 5566 5595
6576 1 5567 5566 5595
6577 1 5566 5567 5568
6578 1 5566 5567 5600
6579 1 5568 5567 5600
6580 1 5567 5568 5569
6581 1 5568 5569 5570
6582 1 5569 5570 5571
6583 1 5570 5571 5572
6584 1 5571 5572 5573
6585 1 5571 5572 5605
6586 1 5573 5572 5605
6587 1 5572 5573 5574
6588 1 5573 5574 110
6589 1 5573 5574 5610
6590 1 110 5574 5610
6591 1 5558 5575 5576
6592 1 5575 5576 5577
6593 1 5576 5577 5578
6594 1 5577 5578 5579
6595 1 5560 5580 5581
6596 1 5580 5581 5582
6597 1 5581 5582 5583
6598 1 5582 5583 5584
6599 1 5561 5585 5586
6600 1 5585 5586 5587
6601 1 5586 5587 5588
6602 1 5587 5588 5589
6603 1 5564 5590 5591
6604 1 5590 5591 5592
6605 1 5591 5592 5593
6606 1 5592 5593 5594
6607 1 5566 5595 5596
6608 1 5595 5596 5597
6609 1 5596 5597 5598
6610 1 5597 5598 5599
6611 1 5567 5600 5601
6612 1 5600 5601 5602
6613 1 5601 5602 5603
6614 1 5602 5603 5604
6615 1 5572 5605 5606
6616 1 5605 5606 5607
6617 1 5606 5607 5608
6618 1 5607 5608 5609
6619 1 5574 5610 5611
6620 1 5610 5611 5612
6621 1 5611 5612 5613
6622 1 5612 5613 5614
6623 1 5616 5615 83
6624 1 5616 5615 5635
6625 1 83 5615 5635
6626 1 5615 5616 5617
6627 1 5616 5617 5618
6628 1 5617 5618 5619
6629 1 5618 5619 5620
6630 1 5618 5619 5640
6631 1 5620 5619 5640
6632 1 5619 5620 5621
6633 1 5620 5621 5622
6634 1 5620 5621 5645
6635 1 5622 5621 5645
6636 1 5621 5622 5623
6637 1 5622 5623 5624
6638 1 5623 5624 5625
6639 1 5624 5625 5626
6640 1 5625 5626 5627
6641 1 5626 5627 5628
6642 1 5627 5628 5629
6643 1 5628 5629 5630
6644 1 5629 5630 5631
6645 1 5630 5631 5632
6646 1 5631 5632 5633
6647 1 5632 5633 5634
6648 1 5633 5634 111
6649 1 5615 5635 5636
6650 1 5635 5636 5637
6651 1 5636 5637 5638
6652 1 5637 5638 5639
6653 1 5619 5640 5641
6654 1 5640 5641 5642
6655 1 5641 5642 5643
6656 1 5642 5643 5644
6657 1 5621 5645 5646
6658 1 5645 5646 5647
6659 1 5646 5647 5648
6660 1 5647 5648 5649
6661 1 5651 5650 84
6662 1 5651 5650 5670
6663 1 84 5650 5670
6664 1 5650 5651 5652
6665 1 5651 5652 5653
6666 1 5652 5653 5654
6667 1 5653 5654 5655
6668 1 5654 5655 5656
6669 1 5655 5656 5657
6670 1 5655 5656 5675
6671 1 5657 5656 5675
6672 1 5656 5657 5658
6673 1 5657 5658 5659
6674 1 5658 5659 5660
6675 1 5659 5660 5661
6676 1 5660 5661 5662
6677 1 5660 5661 5680
6678 1 5662 5661 5680
6679 1 5661 5662 5663
6680 1 5661 5662 5685
6681 1 5663 5662 5685
6682 1 5662 5663 5664
6683 1 5662 5663 5690
6684 1 5664 5663 5690
6685 1 5663 5664 5665
6686 1 5664 5665 5666
6687 1 5664 5665 5695
6688 1 5666 5665 5695
6689 1 5665 5666 5667
6690 1 5665 5666 5700
6691 1 5667 5666 5700
6692 1 5666 5667 5668
6693 1 5667 5668 5669
6694 1 5667 5668 5705
6695 1 5669 5668 5705
6696 1 5668 5669 88
6697 1 5650 5670 5671
6698 1 5670 5671 5672
6699 1 5671 5672 5673
6700 1 5672 5673 5674
6701 1 5656 5675 5676
6702 1 5675 5676 5677
6703 1 5676 5677 5678
6704 1 5677 5678 5679
6705 1 5661 5680 5681
6706 1 5680 5681 5682
6707 1 5681 5682 5683
6708 1 5682 5683 5684
6709 1 5662 5685 5686
6710 1 5685 5686 5687
6711 1 5686 5687 5688
6712 1 5687 5688 5689
6713 1 5663 5690 5691
6714 1 5690 5691 5692
6715 1 5691 5692 5693
6716 1 5692 5693 5694
6717 1 5665 5695 5696
6718 1 5695 5696 5697
6719 1 5696 5697 5698
6720 1 5697 5698 5699
6721 1 5666 5700 5701
6722 1 5700 5701 5702
6723 1 5701 5702 5703
6724 1 5702 5703 5704
6725 1 5668 5705 5706
6726 1 5705 5706 5707
6727 1 5706 5707 5708
6728 1 5707 5708 5709
6729 1 5711 5710 88
6730 1 5710 5711 5712
6731 1 5711 5712 5713
6732 1 5712 5713 5714
6733 1 5713 5714 5715
6734 1 5714 5715 5716
6735 1 5714 5715 5730
6736 1 5716 5715 5730
6737 1 5715 5716 5717
6738 1 5716 5717 5718
6739 1 5716 5717 5735
6740 1 5718 5717 5735
6741 1 5717 5718 5719
6742 1 5718 5719 5720
6743 1 5719 5720 5721
6744 1 5719 5720 5740
6745 1 5721 5720 5740
6746 1 5720 5721 5722
6747 1 5721 5722 5723
6748 1 5722 5723 5724
6749 1 5723 5724 5725
6750 1 5723 5724 5745
6751 1 5725 5724 5745
6752 1 5724 5725 5726
6753 1 5725 5726 5727
6754 1 5726 5727 5728
6755 1 5727 5728 5729
6756 1 5728 5729 113
6757 1 5715 5730 5731
6758 1 5730 5731 5732
6759 1 5731 5732 5733
6760 1 5732 5733 5734
6761 1 5717 5735 5736
6762 1 5735 5736 5737
6763 1 5736 5737 5738
6764 1 5737 5738 5739
6765 1 5720 5740 5741
6766 1 5740 5741 5742
6767 1 5741 5742 5743
6768 1 5742 5743 5744
6769 1 5724 5745 5746
6770 1 5745 5746 5747
6771 1 5746 5747 5748
6772 1 5747 5748 5749
6773 1 5751 5750 88
6774 1 5750 5751 5752
6775 1 5751 5752 5753
6776 1 5752 5753 5754
6777 1 5753 5754 5755
6778 1 5754 5755 5756
6779 1 5755 5756 5757
6780 1 5756 5757 5758
6781 1 5757 5758 5759
6782 1 5757 5758 5770
6783 1 5759 5758 5770
6784 1 5758 5759 5760
6785 1 5759 5760 5761
6786 1 5759 5760 5775
6787 1 5761 5760 5775
6788 1 5760 5761 5762
6789 1 5760 5761 5780
6790 1 5762 5761 5780
6791 1 5761 5762 5763
6792 1 5762 5763 5764
6793 1 5762 5763 5785
6794 1 5764 5763 5785
6795 1 5763 5764 5765
6796 1 5764 5765 5766
6797 1 5765 5766 5767
6798 1 5766 5767 5768
6799 1 5767 5768 5769
6800 1 5768 5769 108
6801 1 5758 5770 5771
6802 1 5770 5771 5772
6803 1 5771 5772 5773
6804 1 5772 5773 5774
6805 1 5760 5775 5776
6806 1 5775 5776 5777
6807 1 5776 5777 5778
6808 1 5777 5778 5779
6809 1 5761 5780 5781
6810 1 5780 5781 5782
6811 1 5781 5782 5783
6812 1 5782 5783 5784
6813 1 5763 5785 5786
6814 1 5785 5786 5787
6815 1 5786 5787 5788
6816 1 5787 5788 5789
6817 1 5791 5790 89
6818 1 5791 5790 5810
6819 1 89 5790 5810
6820 1 5790 5791 5792
6821 1 5791 5792 5793
6822 1 5792 5793 5794
6823 1 5793 5794 5795
6824 1 5794 5795 5796
6825 1 5794 5795 5815
6826 1 5796 5795 5815
6827 1 5795 5796 5797
6828 1 5796 5797 5798
6829 1 5797 5798 5799
6830 1 5798 5799 5800
6831 1 5798 5799 5820
6832 1 5800 5799 5820
6833 1 5799 5800 5801
6834 1 5800 5801 5802
6835 1 5801 5802 5803
6836 1 5802 5803 5804
6837 1 5803 5804 5805
6838 1 5804 5805 5806
6839 1 5805 5806 5807
6840 1 5806 5807 5808
6841 1 5807 5808 5809
6842 1 5808 5809 90
6843 1 5790 5810 5811
6844 1 5810 5811 5812
6845 1 5811 5812 5813
6846 1 5812 5813 5814
6847 1 5795 5815 5816
6848 1 5815 5816 5817
6849 1 5816 5817 5818
6850 1 5817 5818 5819
6851 1 5799 5820 5821
6852 1 5820 5821 5822
6853 1 5821 5822 5823
6854 1 5822 5823 5824
6855 1 5826 5825 89
6856 1 5825 5826 5827
6857 1 5825 5826 5845
6858 1 5827 5826 5845
6859 1 5826 5827 5828
6860 1 5827 5828 5829
6861 1 5828 5829 5830
6862 1 5829 5830 5831
6863 1 5830 5831 5832
6864 1 5831 5832 5833
6865 1 5832 5833 5834
6866 1 5833 5834 5835
6867 1 5834 5835 5836
6868 1 5835 5836 5837
6869 1 5836 5837 5838
6870 1 5837 5838 5839
6871 1 5838 5839 5840
6872 1 5839 5840 5841
6873 1 5840 5841 5842
6874 1 5841 5842 5843
6875 1 5842 5843 5844
6876 1 5843 5844 114
6877 1 5826 5845 5846
6878 1 5845 5846 5847
6879 1 5846 5847 5848
6880 1 5847 5848 5849
6881 1 5851 5850 89
6882 1 5850 5851 5852
6883 1 5850 5851 5870
6884 1 5852 5851 5870
6885 1 5851 5852 5853
6886 1 5852 5853 5854
6887 1 5853 5854 5855
6888 1 5853 5854 5875
6889 1 5855 5854 5875
6890 1 5854 5855 5856
6891 1 5855 5856 5857
6892 1 5856 5857 5858
6893 1 5857 5858 5859
6894 1 5858 5859 5860
6895 1 5858 5859 5880
6896 1 5860 5859 5880
6897 1 5859 5860 5861
6898 1 5860 5861 5862
6899 1 5861 5862 5863
6900 1 5862 5863 5864
6901 1 5863 5864 5865
6902 1 5864 5865 5866
6903 1 5865 5866 5867
6904 1 5866 5867 5868
6905 1 5867 5868 5869
6906 1 5868 5869 109
6907 1 5851 5870 5871
6908 1 5870 5871 5872
6909 1 5871 5872 5873
6910 1 5872 5873 5874
6911 1 5854 5875 5876
6912 1 5875 5876 5877
6913 1 5876 5877 5878
6914 1 5877 5878 5879
6915 1 5859 5880 5881
6916 1 5880 5881 5882
6917 1 5881 5882 5883
6918 1 5882 5883 5884
6919 1 5886 5885 90
6920 1 5885 5886 5887
6921 1 5886 5887 5888
6922 1 5887 5888 5889
6923 1 5888 5889 5890
6924 1 5889 5890 5891
6925 1 5890 5891 5892
6926 1 5891 5892 5893
6927 1 5892 5893 5894
6928 1 5892 5893 5905
6929 1 5894 5893 5905
6930 1 5893 5894 5895
6931 1 5894 5895 5896
6932 1 5895 5896 5897
6933 1 5896 5897 5898
6934 1 5897 5898 5899
6935 1 5898 5899 5900
6936 1 5899 5900 5901
6937 1 5900 5901 5902
6938 1 5901 5902 5903
6939 1 5902 5903 5904
6940 1 5903 5904 95
6941 1 5893 5905 5906
6942 1 5905 5906 5907
6943 1 5906 5907 5908
6944 1 5907 5908 5909
6945 1 5911 5910 90
6946 1 5910 5911 5912
6947 1 5911 5912 5913
6948 1 5911 5912 5930
6949 1 5913 5912 5930
6950 1 5912 5913 5914
6951 1 5913 5914 5915
6952 1 5914 5915 5916
6953 1 5915 5916 5917
6954 1 5916 5917 5918
6955 1 5917 5918 5919
6956 1 5918 5919 5920
6957 1 5919 5920 5921
6958 1 5920 5921 5922
6959 1 5921 5922 5923
6960 1 5922 5923 5924
6961 1 5922 5923 5935
6962 1 5924 5923 5935
6963 1 5923 5924 5925
6964 1 5923 5924 5940
6965 1 5925 5924 5940
6966 1 5924 5925 5926
6967 1 5924 5925 5945
6968 1 5926 5925 5945
6969 1 5925 5926 5927
6970 1 5926 5927 5928
6971 1 5927 5928 5929
6972 1 5928 5929 115
6973 1 5912 5930 5931
6974 1 5930 5931 5932
6975 1 5931 5932 5933
6976 1 5932 5933 5934
6977 1 5923 5935 5936
6978 1 5935 5936 5937
6979 1 5936 5937 5938
6980 1 5937 5938 5939
6981 1 5924 5940 5941
6982 1 5940 5941 5942
6983 1 5941 5942 5943
6984 1 5942 5943 5944
6985 1 5925 5945 5946
6986 1 5945 5946 5947
6987 1 5946 5947 5948
6988 1 5947 5948 5949
6989 1 5951 5950 91
6990 1 5950 5951 5952
6991 1 5951 5952 5953
6992 1 5952 5953 5954
6993 1 5953 5954 5955
6994 1 5953 5954 5970
6995 1 5955 5954 5970
6996 1 5954 5955 5956
6997 1 5955 5956 5957
6998 1 5956 5957 5958
6999 1 5957 5958 5959
7000 1 5958 5959 5960
7001 1 5959 5960 5961
7002 1 5960 5961 5962
7003 1 5961 5962 5963
7004 1 5961 5962 5975
7005 1 5963 5962 5975
7006 1 5962 5963 5964
7007 1 5963 5964 5965
7008 1 5964 5965 5966
7009 1 5965 5966 5967
7010 1 5966 5967 5968
7011 1 5967 5968 5969
7012 1 5967 5968 5980
7013 1 5969 5968 5980
7014 1 5968 5969 116
7015 1 5954 5970 5971
7016 1 5970 5971 5972
7017 1 5971 5972 5973
7018 1 5972 5973 5974
7019 1 5962 5975 5976
7020 1 5975 5976 5977
7021 1 5976 5977 5978
7022 1 5977 5978 5979
7023 1 5968 5980 5981
7024 1 5980 5981 5982
7025 1 5981 5982 5983
7026 1 5982 5983 5984
7027 1 5986 5985 91
7028 1 5986 5985 6005
7029 1 91 5985 6005
7030 1 5985 5986 5987
7031 1 5986 5987 5988
7032 1 5987 5988 5989
7033 1 5987 5988 6010
7034 1 5989 5988 6010
7035 1 5988 5989 5990
7036 1 5989 5990 5991
7037 1 5990 5991 5992
7038 1 5990 5991 6015
7039 1 5992 5991 6015
7040 1 5991 5992 5993
7041 1 5992 5993 5994
7042 1 5993 5994 5995
7043 1 5993 5994 6020
7044 1 5995 5994 6020
7045 1 5994 5995 5996
7046 1 5994 5995 6025
7047 1 5996 5995 6025
7048 1 5995 5996 5997
7049 1 5996 5997 5998
7050 1 5996 5997 6030
7051 1 5998 5997 6030
7052 1 5997 5998 5999
7053 1 5998 5999 6000
7054 1 5998 5999 6035
7055 1 6000 5999 6035
7056 1 5999 6000 6001
7057 1 6000 6001 6002
7058 1 6001 6002 6003
7059 1 6001 6002 6040
7060 1 6003 6002 6040
7061 1 6002 6003 6004
7062 1 6003 6004 111
7063 1 5985 6005 6006
7064 1 6005 6006 6007
7065 1 6006 6007 6008
7066 1 6007 6008 6009
7067 1 5988 6010 6011
7068 1 6010 6011 6012
7069 1 6011 6012 6013
7070 1 6012 6013 6014
7071 1 5991 6015 6016
7072 1 6015 6016 6017
7073 1 6016 6017 6018
7074 1 6017 6018 6019
7075 1 5994 6020 6021
7076 1 6020 6021 6022
7077 1 6021 6022 6023
7078 1 6022 6023 6024
7079 1 5995 6025 6026
7080 1 6025 6026 6027
7081 1 6026 6027 6028
7082 1 6027 6028 6029
7083 1 5997 6030 6031
7084 1 6030 6031 6032
7085 1 6031 6032 6033
7086 1 6032 6033 6034
7087 1 5999 6035 6036
7088 1 6035 6036 6037
7089 1 6036 6037 6038
7090 1 6037 6038 6039
7091 1 6002 6040 6041
7092 1 6040 6041 6042
7093 1 6041 6042 6043
7094 1 6042 6043 6044
7095 1 6046 6045 92
7096 1 6046 6045 6065
7097 1 92 6045 6065
7098 1 6045 6046 6047
7099 1 6046 6047 6048
7100 1 6047 6048 6049
7101 1 6047 6048 6070
7102 1 6049 6048 6070
7103 1 6048 6049 6050
7104 1 6049 6050 6051
7105 1 6049 6050 6075
7106 1 6051 6050 6075
7107 1 6050 6051 6052
7108 1 6051 6052 6053
7109 1 6052 6053 6054
7110 1 6053 6054 6055
7111 1 6054 6055 6056
7112 1 6055 6056 6057
7113 1 6056 6057 6058
7114 1 6057 6058 6059
7115 1 6058 6059 6060
7116 1 6059 6060 6061
7117 1 6060 6061 6062
7118 1 6061 6062 6063
7119 1 6062 6063 6064
7120 1 6063 6064 93
7121 1 6045 6065 6066
7122 1 6065 6066 6067
7123 1 6066 6067 6068
7124 1 6067 6068 6069
7125 1 6048 6070 6071
7126 1 6070 6071 6072
7127 1 6071 6072 6073
7128 1 6072 6073 6074
7129 1 6050 6075 6076
7130 1 6075 6076 6077
7131 1 6076 6077 6078
7132 1 6077 6078 6079
7133 1 6081 6080 92
7134 1 6080 6081 6082
7135 1 6080 6081 6100
7136 1 6082 6081 6100
7137 1 6081 6082 6083
7138 1 6081 6082 6105
7139 1 6083 6082 6105
7140 1 6082 6083 6084
7141 1 6083 6084 6085
7142 1 6084 6085 6086
7143 1 6085 6086 6087
7144 1 6086 6087 6088
7145 1 6087 6088 6089
7146 1 6088 6089 6090
7147 1 6088 6089 6110
7148 1 6090 6089 6110
7149 1 6089 6090 6091
7150 1 6090 6091 6092
7151 1 6091 6092 6093
7152 1 6092 6093 6094
7153 1 6093 6094 6095
7154 1 6093 6094 6115
7155 1 6095 6094 6115
7156 1 6094 6095 6096
7157 1 6095 6096 6097
7158 1 6096 6097 6098
7159 1 6097 6098 6099
7160 1 6098 6099 117
7161 1 6081 6100 6101
7162 1 6100 6101 6102
7163 1 6101 6102 6103
7164 1 6102 6103 6104
7165 1 6082 6105 6106
7166 1 6105 6106 6107
7167 1 6106 6107 6108
7168 1 6107 6108 6109
7169 1 6089 6110 6111
7170 1 6110 6111 6112
7171 1 6111 6112 6113
7172 1 6112 6113 6114
7173 1 6094 6115 6116
7174 1 6115 6116 6117
7175 1 6116 6117 6118
7176 1 6117 6118 6119
7177 1 6121 6120 93
7178 1 6120 6121 6122
7179 1 6121 6122 6123
7180 1 6122 6123 6124
7181 1 6122 6123 6140
7182 1 6124 6123 6140
7183 1 6123 6124 6125
7184 1 6124 6125 6126
7185 1 6125 6126 6127
7186 1 6126 6127 6128
7187 1 6127 6128 6129
7188 1 6128 6129 6130
7189 1 6129 6130 6131
7190 1 6130 6131 6132
7191 1 6131 6132 6133
7192 1 6132 6133 6134
7193 1 6132 6133 6145
7194 1 6134 6133 6145
7195 1 6133 6134 6135
7196 1 6134 6135 6136
7197 1 6134 6135 6150
7198 1 6136 6135 6150
7199 1 6135 6136 6137
7200 1 6136 6137 6138
7201 1 6137 6138 6139
7202 1 6138 6139 94
7203 1 6123 6140 6141
7204 1 6140 6141 6142
7205 1 6141 6142 6143
7206 1 6142 6143 6144
7207 1 6133 6145 6146
7208 1 6145 6146 6147
7209 1 6146 6147 6148
7210 1 6147 6148 6149
7211 1 6135 6150 6151
7212 1 6150 6151 6152
7213 1 6151 6152 6153
7214 1 6152 6153 6154
7215 1 6156 6155 93
7216 1 6155 6156 6157
7217 1 6156 6157 6158
7218 1 6157 6158 6159
7219 1 6158 6159 6160
7220 1 6159 6160 6161
7221 1 6159 6160 6175
7222 1 6161 6160 6175
7223 1 6160 6161 6162
7224 1 6161 6162 6163
7225 1 6161 6162 6180
7226 1 6163 6162 6180
7227 1 6162 6163 6164
7228 1 6163 6164 6165
7229 1 6164 6165 6166
7230 1 6165 6166 6167
7231 1 6166 6167 6168
7232 1 6167 6168 6169
7233 1 6167 6168 6185
7234 1 6169 6168 6185
7235 1 6168 6169 6170
7236 1 6168 6169 6190
7237 1 6170 6169 6190
7238 1 6169 6170 6171
7239 1 6170 6171 6172
7240 1 6171 6172 6173
7241 1 6172 6173 6174
7242 1 6172 6173 6195
7243 1 6174 6173 6195
7244 1 6173 6174 118
7245 1 6173 6174 6200
7246 1 118 6174 6200
7247 1 6160 6175 6176
7248 1 6175 6176 6177
7249 1 6176 6177 6178
7250 1 6177 6178 6179
7251 1 6162 6180 6181
7252 1 6180 6181 6182
7253 1 6181 6182 6183
7254 1 6182 6183 6184
7255 1 6168 6185 6186
7256 1 6185 6186 6187
7257 1 6186 6187 6188
7258 1 6187 6188 6189
7259 1 6169 6190 6191
7260 1 6190 6191 6192
7261 1 6191 6192 6193
7262 1 6192 6193 6194
7263 1 6173 6195 6196
7264 1 6195 6196 6197
7265 1 6196 6197 6198
7266 1 6197 6198 6199
7267 1 6174 6200 6201
7268 1 6200 6201 6202
7269 1 6201 6202 6203
7270 1 6202 6203 6204
7271 1 6206 6205 94
7272 1 6205 6206 6207
7273 1 6206 6207 6208
7274 1 6207 6208 6209
7275 1 6208 6209 6210
7276 1 6209 6210 6211
7277 1 6210 6211 6212
7278 1 6211 6212 6213
7279 1 6212 6213 6214
7280 1 6213 6214 6215
7281 1 6214 6215 6216
7282 1 6215 6216 6217
7283 1 6216 6217 6218
7284 1 6217 6218 6219
7285 1 6218 6219 6220
7286 1 6219 6220 6221
7287 1 6220 6221 6222
7288 1 6221 6222 6223
7289 1 6222 6223 6224
7290 1 6223 6224 95
7291 1 6226 6225 94
7292 1 6225 6226 6227
7293 1 6226 6227 6228
7294 1 6227 6228 6229
7295 1 6227 6228 6245
7296 1 6229 6228 6245
7297 1 6228 6229 6230
7298 1 6229 6230 6231
7299 1 6230 6231 6232
7300 1 6231 6232 6233
7301 1 6232 6233 6234
7302 1 6233 6234 6235
7303 1 6233 6234 6250
7304 1 6235 6234 6250
7305 1 6234 6235 6236
7306 1 6234 6235 6255
7307 1 6236 6235 6255
7308 1 6235 6236 6237
7309 1 6236 6237 6238
7310 1 6237 6238 6239
7311 1 6238 6239 6240
7312 1 6239 6240 6241
7313 1 6239 6240 6260
7314 1 6241 6240 6260
7315 1 6240 6241 6242
7316 1 6240 6241 6265
7317 1 6242 6241 6265
7318 1 6241 6242 6243
7319 1 6242 6243 6244
7320 1 6243 6244 99
7321 1 6228 6245 6246
7322 1 6245 6246 6247
7323 1 6246 6247 6248
7324 1 6247 6248 6249
7325 1 6234 6250 6251
7326 1 6250 6251 6252
7327 1 6251 6252 6253
7328 1 6252 6253 6254
7329 1 6235 6255 6256
7330 1 6255 6256 6257
7331 1 6256 6257 6258
7332 1 6257 6258 6259
7333 1 6240 6260 6261
7334 1 6260 6261 6262
7335 1 6261 6262 6263
7336 1 6262 6263 6264
7337 1 6241 6265 6266
7338 1 6265 6266 6267
7339 1 6266 6267 6268
7340 1 6267 6268 6269
7341 1 6271 6270 94
7342 1 6270 6271 6272
7343 1 6271 6272 6273
7344 1 6272 6273 6274
7345 1 6273 6274 6275
7346 1 6274 6275 6276
7347 1 6275 6276 6277
7348 1 6276 6277 6278
7349 1 6277 6278 6279
7350 1 6278 6279 6280
7351 1 6279 6280 6281
7352 1 6280 6281 6282
7353 1 6281 6282 6283
7354 1 6282 6283 6284
7355 1 6283 6284 6285
7356 1 6284 6285 6286
7357 1 6285 6286 6287
7358 1 6285 6286 6290
7359 1 6287 6286 6290
7360 1 6286 6287 6288
7361 1 6287 6288 6289
7362 1 6288 6289 119
7363 1 6286 6290 6291
7364 1 6290 6291 6292
7365 1 6291 6292 6293
7366 1 6292 6293 6294
7367 1 6296 6295 95
7368 1 6296 6295 6315
7369 1 95 6295 6315
7370 1 6295 6296 6297
7371 1 6296 6297 6298
7372 1 6297 6298 6299
7373 1 6298 6299 6300
7374 1 6299 6300 6301
7375 1 6300 6301 6302
7376 1 6301 6302 6303
7377 1 6302 6303 6304
7378 1 6303 6304 6305
7379 1 6303 6304 6320
7380 1 6305 6304 6320
7381 1 6304 6305 6306
7382 1 6305 6306 6307
7383 1 6306 6307 6308
7384 1 6306 6307 6325
7385 1 6308 6307 6325
7386 1 6307 6308 6309
7387 1 6308 6309 6310
7388 1 6308 6309 6330
7389 1 6310 6309 6330
7390 1 6309 6310 6311
7391 1 6310 6311 6312
7392 1 6311 6312 6313
7393 1 6312 6313 6314
7394 1 6313 6314 100
7395 1 6295 6315 6316
7396 1 6315 6316 6317
7397 1 6316 6317 6318
7398 1 6317 6318 6319
7399 1 6304 6320 6321
7400 1 6320 6321 6322
7401 1 6321 6322 6323
7402 1 6322 6323 6324
7403 1 6307 6325 6326
7404 1 6325 6326 6327
7405 1 6326 6327 6328
7406 1 6327 6328 6329
7407 1 6309 6330 6331
7408 1 6330 6331 6332
7409 1 6331 6332 6333
7410 1 6332 6333 6334
7411 1 6336 6335 96
7412 1 6335 6336 6337
7413 1 6336 6337 6338
7414 1 6337 6338 6339
7415 1 6338 6339 6340
7416 1 6338 6339 6355
7417 1 6340 6339 6355
7418 1 6339 6340 6341
7419 1 6340 6341 6342
7420 1 6341 6342 6343
7421 1 6342 6343 6344
7422 1 6342 6343 6360
7423 1 6344 6343 6360
7424 1 6343 6344 6345
7425 1 6344 6345 6346
7426 1 6345 6346 6347
7427 1 6346 6347 6348
7428 1 6347 6348 6349
7429 1 6348 6349 6350
7430 1 6349 6350 6351
7431 1 6350 6351 6352
7432 1 6350 6351 6365
7433 1 6352 6351 6365
7434 1 6351 6352 6353
7435 1 6352 6353 6354
7436 1 6352 6353 6370
7437 1 6354 6353 6370
7438 1 6353 6354 101
7439 1 6353 6354 6375
7440 1 101 6354 6375
7441 1 6339 6355 6356
7442 1 6355 6356 6357
7443 1 6356 6357 6358
7444 1 6357 6358 6359
7445 1 6343 6360 6361
7446 1 6360 6361 6362
7447 1 6361 6362 6363
7448 1 6362 6363 6364
7449 1 6351 6365 6366
7450 1 6365 6366 6367
7451 1 6366 6367 6368
7452 1 6367 6368 6369
7453 1 6353 6370 6371
7454 1 6370 6371 6372
7455 1 6371 6372 6373
7456 1 6372 6373 6374
7457 1 6354 6375 6376
7458 1 6375 6376 6377
7459 1 6376 6377 6378
7460 1 6377 6378 6379
7461 1 6381 6380 96
7462 1 6381 6380 6400
7463 1 96 6380 6400
7464 1 6380 6381 6382
7465 1 6381 6382 6383
7466 1 6381 6382 6405
7467 1 6383 6382 6405
7468 1 6382 6383 6384
7469 1 6383 6384 6385
7470 1 6383 6384 6410
7471 1 6385 6384 6410
7472 1 6384 6385 6386
7473 1 6385 6386 6387
7474 1 6386 6387 6388
7475 1 6387 6388 6389
7476 1 6388 6389 6390
7477 1 6389 6390 6391
7478 1 6389 6390 6415
7479 1 6391 6390 6415
7480 1 6390 6391 6392
7481 1 6390 6391 6420
7482 1 6392 6391 6420
7483 1 6391 6392 6393
7484 1 6392 6393 6394
7485 1 6392 6393 6425
7486 1 6394 6393 6425
7487 1 6393 6394 6395
7488 1 6394 6395 6396
7489 1 6395 6396 6397
7490 1 6396 6397 6398
7491 1 6396 6397 6430
7492 1 6398 6397 6430
7493 1 6397 6398 6399
7494 1 6398 6399 121
7495 1 6380 6400 6401
7496 1 6400 6401 6402
7497 1 6401 6402 6403
7498 1 6402 6403 6404
7499 1 6382 6405 6406
7500 1 6405 6406 6407
7501 1 6406 6407 6408
7502 1 6407 6408 6409
7503 1 6384 6410 6411
7504 1 6410 6411 6412
7505 1 6411 6412 6413
7506 1 6412 6413 6414
7507 1 6390 6415 6416
7508 1 6415 6416 6417
7509 1 6416 6417 6418
7510 1 6417 6418 6419
7511 1 6391 6420 6421
7512 1 6420 6421 6422
7513 1 6421 6422 6423
7514 1 6422 6423 6424
7515 1 6393 6425 6426
7516 1 6425 6426 6427
7517 1 6426 6427 6428
7518 1 6427 6428 6429
7519 1 6397 6430 6431
7520 1 6430 6431 6432
7521 1 6431 6432 6433
7522 1 6432 6433 6434
7523 1 6436 6435 97
7524 1 6435 6436 6437
7525 1 6436 6437 6438
7526 1 6436 6437 6455
7527 1 6438 6437 6455
7528 1 6437 6438 6439
7529 1 6438 6439 6440
7530 1 6438 6439 6460
7531 1 6440 6439 6460
7532 1 6439 6440 6441
7533 1 6440 6441 6442
7534 1 6440 6441 6465
7535 1 6442 6441 6465
7536 1 6441 6442 6443
7537 1 6442 6443 6444
7538 1 6442 6443 6470
7539 1 6444 6443 6470
7540 1 6443 6444 6445
7541 1 6444 6445 6446
7542 1 6444 6445 6475
7543 1 6446 6445 6475
7544 1 6445 6446 6447
7545 1 6446 6447 6448
7546 1 6447 6448 6449
7547 1 6448 6449 6450
7548 1 6449 6450 6451
7549 1 6450 6451 6452
7550 1 6451 6452 6453
7551 1 6452 6453 6454
7552 1 6452 6453 6480
7553 1 6454 6453 6480
7554 1 6453 6454 102
7555 1 6437 6455 6456
7556 1 6455 6456 6457
7557 1 6456 6457 6458
7558 1 6457 6458 6459
7559 1 6439 6460 6461
7560 1 6460 6461 6462
7561 1 6461 6462 6463
7562 1 6462 6463 6464
7563 1 6441 6465 6466
7564 1 6465 6466 6467
7565 1 6466 6467 6468
7566 1 6467 6468 6469
7567 1 6443 6470 6471
7568 1 6470 6471 6472
7569 1 6471 6472 6473
7570 1 6472 6473 6474
7571 1 6445 6475 6476
7572 1 6475 6476 6477
7573 1 6476 6477 6478
7574 1 6477 6478 6479
7575 1 6453 6480 6481
7576 1 6480 6481 6482
7577 1 6481 6482 6483
7578 1 6482 6483 6484
7579 1 6486 6485 97
7580 1 6485 6486 6487
7581 1 6485 6486 6505
7582 1 6487 6486 6505
7583 1 6486 6487 6488
7584 1 6486 6487 6510
7585 1 6488 6487 6510
7586 1 6487 6488 6489
7587 1 6488 6489 6490
7588 1 6489 6490 6491
7589 1 6490 6491 6492
7590 1 6491 6492 6493
7591 1 6492 6493 6494
7592 1 6492 6493 6515
7593 1 6494 6493 6515
7594 1 6493 6494 6495
7595 1 6494 6495 6496
7596 1 6495 6496 6497
7597 1 6496 6497 6498
7598 1 6497 6498 6499
7599 1 6498 6499 6500
7600 1 6499 6500 6501
7601 1 6500 6501 6502
7602 1 6501 6502 6503
7603 1 6502 6503 6504
7604 1 6503 6504 122
7605 1 6486 6505 6506
7606 1 6505 6506 6507
7607 1 6506 6507 6508
7608 1 6507 6508 6509
7609 1 6487 6510 6511
7610 1 6510 6511 6512
7611 1 6511 6512 6513
7612 1 6512 6513 6514
7613 1 6493 6515 6516
7614 1 6515 6516 6517
7615 1 6516 6517 6518
7616 1 6517 6518 6519
7617 1 6521 6520 97
7618 1 6521 6520 6540
7619 1 97 6520 6540
7620 1 6520 6521 6522
7621 1 6521 6522 6523
7622 1 6521 6522 6545
7623 1 6523 6522 6545
7624 1 6522 6523 6524
7625 1 6523 6524 6525
7626 1 6524 6525 6526
7627 1 6525 6526 6527
7628 1 6526 6527 6528
7629 1 6527 6528 6529
7630 1 6527 6528 6550
7631 1 6529 6528 6550
7632 1 6528 6529 6530
7633 1 6529 6530 6531
7634 1 6530 6531 6532
7635 1 6531 6532 6533
7636 1 6531 6532 6555
7637 1 6533 6532 6555
7638 1 6532 6533 6534
7639 1 6532 6533 6560
7640 1 6534 6533 6560
7641 1 6533 6534 6535
7642 1 6534 6535 6536
7643 1 6535 6536 6537
7644 1 6536 6537 6538
7645 1 6537 6538 6539
7646 1 6538 6539 101
7647 1 6538 6539 6565
7648 1 101 6539 6565
7649 1 6520 6540 6541
7650 1 6540 6541 6542
7651 1 6541 6542 6543
7652 1 6542 6543 6544
7653 1 6522 6545 6546
7654 1 6545 6546 6547
7655 1 6546 6547 6548
7656 1 6547 6548 6549
7657 1 6528 6550 6551
7658 1 6550 6551 6552
7659 1 6551 6552 6553
7660 1 6552 6553 6554
7661 1 6532 6555 6556
7662 1 6555 6556 6557
7663 1 6556 6557 6558
7664 1 6557 6558 6559
7665 1 6533 6560 6561
7666 1 6560 6561 6562
7667 1 6561 6562 6563
7668 1 6562 6563 6564
7669 1 6539 6565 6566
7670 1 6565 6566 6567
7671 1 6566 6567 6568
7672 1 6567 6568 6569
7673 1 6571 6570 98
7674 1 6570 6571 6572
7675 1 6571 6572 6573
7676 1 6572 6573 6574
7677 1 6573 6574 6575
7678 1 6574 6575 6576
7679 1 6574 6575 6590
7680 1 6576 6575 6590
7681 1 6575 6576 6577
7682 1 6576 6577 6578
7683 1 6577 6578 6579
7684 1 6578 6579 6580
7685 1 6579 6580 6581
7686 1 6580 6581 6582
7687 1 6580 6581 6595
7688 1 6582 6581 6595
7689 1 6581 6582 6583
7690 1 6582 6583 6584
7691 1 6583 6584 6585
7692 1 6584 6585 6586
7693 1 6585 6586 6587
7694 1 6586 6587 6588
7695 1 6587 6588 6589
7696 1 6587 6588 6600
7697 1 6589 6588 6600
7698 1 6588 6589 99
7699 1 6575 6590 6591
7700 1 6590 6591 6592
7701 1 6591 6592 6593
7702 1 6592 6593 6594
7703 1 6581 6595 6596
7704 1 6595 6596 6597
7705 1 6596 6597 6598
7706 1 6597 6598 6599
7707 1 6588 6600 6601
7708 1 6600 6601 6602
7709 1 6601 6602 6603
7710 1 6602 6603 6604
7711 1 6606 6605 98
7712 1 6606 6605 6625
7713 1 98 6605 6625
7714 1 6605 6606 6607
7715 1 6606 6607 6608
7716 1 6606 6607 6630
7717 1 6608 6607 6630
7718 1 6607 6608 6609
7719 1 6608 6609 6610
7720 1 6609 6610 6611
7721 1 6610 6611 6612
7722 1 6611 6612 6613
7723 1 6612 6613 6614
7724 1 6613 6614 6615
7725 1 6614 6615 6616
7726 1 6614 6615 6635
7727 1 6616 6615 6635
7728 1 6615 6616 6617
7729 1 6616 6617 6618
7730 1 6617 6618 6619
7731 1 6618 6619 6620
7732 1 6619 6620 6621
7733 1 6620 6621 6622
7734 1 6620 6621 6640
7735 1 6622 6621 6640
7736 1 6621 6622 6623
7737 1 6622 6623 6624
7738 1 6623 6624 123
7739 1 6605 6625 6626
7740 1 6625 6626 6627
7741 1 6626 6627 6628
7742 1 6627 6628 6629
7743 1 6607 6630 6631
7744 1 6630 6631 6632
7745 1 6631 6632 6633
7746 1 6632 6633 6634
7747 1 6615 6635 6636
7748 1 6635 6636 6637
7749 1 6636 6637 6638
7750 1 6637 6638 6639
7751 1 6621 6640 6641
7752 1 6640 6641 6642
7753 1 6641 6642 6643
7754 1 6642 6643 6644
7755 1 6646 6645 99
7756 1 6645 6646 6647
7757 1 6646 6647 6648
7758 1 6646 6647 6665
7759 1 6648 6647 6665
7760 1 6647 6648 6649
7761 1 6648 6649 6650
7762 1 6649 6650 6651
7763 1 6649 6650 6670
7764 1 6651 6650 6670
7765 1 6650 6651 6652
7766 1 6651 6652 6653
7767 1 6652 6653 6654
7768 1 6653 6654 6655
7769 1 6654 6655 6656
7770 1 6654 6655 6675
7771 1 6656 6655 6675
7772 1 6655 6656 6657
7773 1 6656 6657 6658
7774 1 6657 6658 6659
7775 1 6658 6659 6660
7776 1 6658 6659 6680
7777 1 6660 6659 6680
7778 1 6659 6660 6661
7779 1 6660 6661 6662
7780 1 6661 6662 6663
7781 1 6662 6663 6664
7782 1 6663 6664 104
7783 1 6647 6665 6666
7784 1 6665 6666 6667
7785 1 6666 6667 6668
7786 1 6667 6668 6669
7787 1 6650 6670 6671
7788 1 6670 6671 6672
7789 1 6671 6672 6673
7790 1 6672 6673 6674
7791 1 6655 6675 6676
7792 1 6675 6676 6677
7793 1 6676 6677 6678
7794 1 6677 6678 6679
7795 1 6659 6680 6681
7796 1 6680 6681 6682
7797 1 6681 6682 6683
7798 1 6682 6683 6684
7799 1 6686 6685 100
7800 1 6685 6686 6687
7801 1 6685 6686 6705
7802 1 6687 6686 6705
7803 1 6686 6687 6688
7804 1 6687 6688 6689
7805 1 6688 6689 6690
7806 1 6689 6690 6691
7807 1 6690 6691 6692
7808 1 6691 6692 6693
7809 1 6692 6693 6694
7810 1 6692 6693 6710
7811 1 6694 6693 6710
7812 1 6693 6694 6695
7813 1 6694 6695 6696
7814 1 6695 6696 6697
7815 1 6696 6697 6698
7816 1 6697 6698 6699
7817 1 6698 6699 6700
7818 1 6699 6700 6701
7819 1 6700 6701 6702
7820 1 6700 6701 6715
7821 1 6702 6701 6715
7822 1 6701 6702 6703
7823 1 6701 6702 6720
7824 1 6703 6702 6720
7825 1 6702 6703 6704
7826 1 6703 6704 101
7827 1 6686 6705 6706
7828 1 6705 6706 6707
7829 1 6706 6707 6708
7830 1 6707 6708 6709
7831 1 6693 6710 6711
7832 1 6710 6711 6712
7833 1 6711 6712 6713
7834 1 6712 6713 6714
7835 1 6701 6715 6716
7836 1 6715 6716 6717
7837 1 6716 6717 6718
7838 1 6717 6718 6719
7839 1 6702 6720 6721
7840 1 6720 6721 6722
7841 1 6721 6722 6723
7842 1 6722 6723 6724
7843 1 6726 6725 100
7844 1 6726 6725 6745
7845 1 100 6725 6745
7846 1 6725 6726 6727
7847 1 6726 6727 6728
7848 1 6727 6728 6729
7849 1 6728 6729 6730
7850 1 6729 6730 6731
7851 1 6730 6731 6732
7852 1 6731 6732 6733
7853 1 6732 6733 6734
7854 1 6733 6734 6735
7855 1 6734 6735 6736
7856 1 6735 6736 6737
7857 1 6736 6737 6738
7858 1 6737 6738 6739
7859 1 6738 6739 6740
7860 1 6739 6740 6741
7861 1 6739 6740 6750
7862 1 6741 6740 6750
7863 1 6740 6741 6742
7864 1 6741 6742 6743
7865 1 6742 6743 6744
7866 1 6742 6743 6755
7867 1 6744 6743 6755
7868 1 6743 6744 105
7869 1 6725 6745 6746
7870 1 6745 6746 6747
7871 1 6746 6747 6748
7872 1 6747 6748 6749
7873 1 6740 6750 6751
7874 1 6750 6751 6752
7875 1 6751 6752 6753
7876 1 6752 6753 6754
7877 1 6743 6755 6756
7878 1 6755 6756 6757
7879 1 6756 6757 6758
7880 1 6757 6758 6759
7881 1 6761 6760 101
7882 1 6760 6761 6762
7883 1 6761 6762 6763
7884 1 6762 6763 6764
7885 1 6762 6763 6780
7886 1 6764 6763 6780
7887 1 6763 6764 6765
7888 1 6764 6765 6766
7889 1 6765 6766 6767
7890 1 6766 6767 6768
7891 1 6767 6768 6769
7892 1 6768 6769 6770
7893 1 6769 6770 6771
7894 1 6770 6771 6772
7895 1 6770 6771 6785
7896 1 6772 6771 6785
7897 1 6771 6772 6773
7898 1 6772 6773 6774
7899 1 6773 6774 6775
7900 1 6774 6775 6776
7901 1 6775 6776 6777
7902 1 6776 6777 6778
7903 1 6777 6778 6779
7904 1 6778 6779 126
7905 1 6763 6780 6781
7906 1 6780 6781 6782
7907 1 6781 6782 6783
7908 1 6782 6783 6784
7909 1 6771 6785 6786
7910 1 6785 6786 6787
7911 1 6786 6787 6788
7912 1 6787 6788 6789
7913 1 6791 6790 102
7914 1 6790 6791 6792
7915 1 6791 6792 6793
7916 1 6792 6793 6794
7917 1 6793 6794 6795
7918 1 6793 6794 6810
7919 1 6795 6794 6810
7920 1 6794 6795 6796
7921 1 6794 6795 6815
7922 1 6796 6795 6815
7923 1 6795 6796 6797
7924 1 6796 6797 6798
7925 1 6797 6798 6799
7926 1 6797 6798 6820
7927 1 6799 6798 6820
7928 1 6798 6799 6800
7929 1 6798 6799 6825
7930 1 6800 6799 6825
7931 1 6799 6800 6801
7932 1 6800 6801 6802
7933 1 6801 6802 6803
7934 1 6802 6803 6804
7935 1 6802 6803 6830
7936 1 6804 6803 6830
7937 1 6803 6804 6805
7938 1 6804 6805 6806
7939 1 6805 6806 6807
7940 1 6806 6807 6808
7941 1 6807 6808 6809
7942 1 6808 6809 103
7943 1 6794 6810 6811
7944 1 6810 6811 6812
7945 1 6811 6812 6813
7946 1 6812 6813 6814
7947 1 6795 6815 6816
7948 1 6815 6816 6817
7949 1 6816 6817 6818
7950 1 6817 6818 6819
7951 1 6798 6820 6821
7952 1 6820 6821 6822
7953 1 6821 6822 6823
7954 1 6822 6823 6824
7955 1 6799 6825 6826
7956 1 6825 6826 6827
7957 1 6826 6827 6828
7958 1 6827 6828 6829
7959 1 6803 6830 6831
7960 1 6830 6831 6832
7961 1 6831 6832 6833
7962 1 6832 6833 6834
7963 1 6836 6835 102
7964 1 6836 6835 6855
7965 1 102 6835 6855
7966 1 6835 6836 6837
7967 1 6836 6837 6838
7968 1 6837 6838 6839
7969 1 6838 6839 6840
7970 1 6839 6840 6841
7971 1 6840 6841 6842
7972 1 6841 6842 6843
7973 1 6841 6842 6860
7974 1 6843 6842 6860
7975 1 6842 6843 6844
7976 1 6843 6844 6845
7977 1 6844 6845 6846
7978 1 6845 6846 6847
7979 1 6846 6847 6848
7980 1 6847 6848 6849
7981 1 6847 6848 6865
7982 1 6849 6848 6865
7983 1 6848 6849 6850
7984 1 6848 6849 6870
7985 1 6850 6849 6870
7986 1 6849 6850 6851
7987 1 6850 6851 6852
7988 1 6851 6852 6853
7989 1 6851 6852 6875
7990 1 6853 6852 6875
7991 1 6852 6853 6854
7992 1 6853 6854 106
7993 1 6835 6855 6856
7994 1 6855 6856 6857
7995 1 6856 6857 6858
7996 1 6857 6858 6859
7997 1 6842 6860 6861
7998 1 6860 6861 6862
7999 1 6861 6862 6863
8000 1 6862 6863 6864
8001 1 6848 6865 6866
8002 1 6865 6866 6867
8003 1 6866 6867 6868
8004 1 6867 6868 6869
8005 1 6849 6870 6871
8006 1 6870 6871 6872
8007 1 6871 6872 6873
8008 1 6872 6873 6874
8009 1 6852 6875 6876
8010 1 6875 6876 6877
8011 1 6876 6877 6878
8012 1 6877 6878 6879
8013 1 6881 6880 103
8014 1 6880 6881 6882
8015 1 6881 6882 6883
8016 1 6882 6883 6884
8017 1 6883 6884 6885
8018 1 6884 6885 6886
8019 1 6884 6885 6900
8020 1 6886 6885 6900
8021 1 6885 6886 6887
8022 1 6886 6887 6888
8023 1 6887 6888 6889
8024 1 6888 6889 6890
8025 1 6889 6890 6891
8026 1 6890 6891 6892
8027 1 6891 6892 6893
8028 1 6892 6893 6894
8029 1 6892 6893 6905
8030 1 6894 6893 6905
8031 1 6893 6894 6895
8032 1 6894 6895 6896
8033 1 6895 6896 6897
8034 1 6896 6897 6898
8035 1 6897 6898 6899
8036 1 6897 6898 6910
8037 1 6899 6898 6910
8038 1 6898 6899 108
8039 1 6885 6900 6901
8040 1 6900 6901 6902
8041 1 6901 6902 6903
8042 1 6902 6903 6904
8043 1 6893 6905 6906
8044 1 6905 6906 6907
8045 1 6906 6907 6908
8046 1 6907 6908 6909
8047 1 6898 6910 6911
8048 1 6910 6911 6912
8049 1 6911 6912 6913
8050 1 6912 6913 6914
8051 1 6916 6915 103
8052 1 6915 6916 6917
8053 1 6915 6916 6935
8054 1 6917 6916 6935
8055 1 6916 6917 6918
8056 1 6917 6918 6919
8057 1 6918 6919 6920
8058 1 6918 6919 6940
8059 1 6920 6919 6940
8060 1 6919 6920 6921
8061 1 6919 6920 6945
8062 1 6921 6920 6945
8063 1 6920 6921 6922
8064 1 6921 6922 6923
8065 1 6922 6923 6924
8066 1 6923 6924 6925
8067 1 6924 6925 6926
8068 1 6925 6926 6927
8069 1 6926 6927 6928
8070 1 6927 6928 6929
8071 1 6928 6929 6930
8072 1 6929 6930 6931
8073 1 6930 6931 6932
8074 1 6931 6932 6933
8075 1 6932 6933 6934
8076 1 6932 6933 6950
8077 1 6934 6933 6950
8078 1 6933 6934 131
8079 1 6916 6935 6936
8080 1 6935 6936 6937
8081 1 6936 6937 6938
8082 1 6937 6938 6939
8083 1 6919 6940 6941
8084 1 6940 6941 6942
8085 1 6941 6942 6943
8086 1 6942 6943 6944
8087 1 6920 6945 6946
8088 1 6945 6946 6947
8089 1 6946 6947 6948
8090 1 6947 6948 6949
8091 1 6933 6950 6951
8092 1 6950 6951 6952
8093 1 6951 6952 6953
8094 1 6952 6953 6954
8095 1 6956 6955 104
8096 1 6955 6956 6957
8097 1 6955 6956 6975
8098 1 6957 6956 6975
8099 1 6956 6957 6958
8100 1 6957 6958 6959
8101 1 6958 6959 6960
8102 1 6958 6959 6980
8103 1 6960 6959 6980
8104 1 6959 6960 6961
8105 1 6959 6960 6985
8106 1 6961 6960 6985
8107 1 6960 6961 6962
8108 1 6961 6962 6963
8109 1 6961 6962 6990
8110 1 6963 6962 6990
8111 1 6962 6963 6964
8112 1 6963 6964 6965
8113 1 6964 6965 6966
8114 1 6965 6966 6967
8115 1 6966 6967 6968
8116 1 6966 6967 6995
8117 1 6968 6967 6995
8118 1 6967 6968 6969
8119 1 6967 6968 7000
8120 1 6969 6968 7000
8121 1 6968 6969 6970
8122 1 6969 6970 6971
8123 1 6970 6971 6972
8124 1 6971 6972 6973
8125 1 6971 6972 7005
8126 1 6973 6972 7005
8127 1 6972 6973 6974
8128 1 6973 6974 132
8129 1 6973 6974 7010
8130 1 132 6974 7010
8131 1 6956 6975 6976
8132 1 6975 6976 6977
8133 1 6976 6977 6978
8134 1 6977 6978 6979
8135 1 6959 6980 6981
8136 1 6980 6981 6982
8137 1 6981 6982 6983
8138 1 6982 6983 6984
8139 1 6960 6985 6986
8140 1 6985 6986 6987
8141 1 6986 6987 6988
8142 1 6987 6988 6989
8143 1 6962 6990 6991
8144 1 6990 6991 6992
8145 1 6991 6992 6993
8146 1 6992 6993 6994
8147 1 6967 6995 6996
8148 1 6995 6996 6997
8149 1 6996 6997 6998
8150 1 6997 6998 6999
8151 1 6968 7000 7001
8152 1 7000 7001 7002
8153 1 7001 7002 7003
8154 1 7002 7003 7004
8155 1 6972 7005 7006
8156 1 7005 7006 7007
8157 1 7006 7007 7008
8158 1 7007 7008 7009
8159 1 6974 7010 7011
8160 1 7010 7011 7012
8161 1 7011 7012 7013
8162 1 7012 7013 7014
8163 1 7016 7015 105
8164 1 7015 7016 7017
8165 1 7016 7017 7018
8166 1 7017 7018 7019
8167 1 7018 7019 7020
8168 1 7019 7020 7021
8169 1 7020 7021 7022
8170 1 7021 7022 7023
8171 1 7022 7023 7024
8172 1 7023 7024 7025
8173 1 7024 7025 7026
8174 1 7025 7026 7027
8175 1 7025 7026 7035
8176 1 7027 7026 7035
8177 1 7026 7027 7028
8178 1 7026 7027 7040
8179 1 7028 7027 7040
8180 1 7027 7028 7029
8181 1 7027 7028 7045
8182 1 7029 7028 7045
8183 1 7028 7029 7030
8184 1 7029 7030 7031
8185 1 7030 7031 7032
8186 1 7030 7031 7050
8187 1 7032 7031 7050
8188 1 7031 7032 7033
8189 1 7032 7033 7034
8190 1 7032 7033 7055
8191 1 7034 7033 7055
8192 1 7033 7034 106
8193 1 7026 7035 7036
8194 1 7035 7036 7037
8195 1 7036 7037 7038
8196 1 7037 7038 7039
8197 1 7027 7040 7041
8198 1 7040 7041 7042
8199 1 7041 7042 7043
8200 1 7042 7043 7044
8201 1 7028 7045 7046
8202 1 7045 7046 7047
8203 1 7046 7047 7048
8204 1 7047 7048 7049
8205 1 7031 7050 7051
8206 1 7050 7051 7052
8207 1 7051 7052 7053
8208 1 7052 7053 7054
8209 1 7033 7055 7056
8210 1 7055 7056 7057
8211 1 7056 7057 7058
8212 1 7057 7058 7059
8213 1 7061 7060 105
8214 1 7060 7061 7062
8215 1 7061 7062 7063
8216 1 7061 7062 7080
8217 1 7063 7062 7080
8218 1 7062 7063 7064
8219 1 7062 7063 7085
8220 1 7064 7063 7085
8221 1 7063 7064 7065
8222 1 7064 7065 7066
8223 1 7064 7065 7090
8224 1 7066 7065 7090
8225 1 7065 7066 7067
8226 1 7065 7066 7095
8227 1 7067 7066 7095
8228 1 7066 7067 7068
8229 1 7067 7068 7069
8230 1 7068 7069 7070
8231 1 7069 7070 7071
8232 1 7070 7071 7072
8233 1 7071 7072 7073
8234 1 7072 7073 7074
8235 1 7073 7074 7075
8236 1 7074 7075 7076
8237 1 7074 7075 7100
8238 1 7076 7075 7100
8239 1 7075 7076 7077
8240 1 7076 7077 7078
8241 1 7077 7078 7079
8242 1 7078 7079 110
8243 1 7062 7080 7081
8244 1 7080 7081 7082
8245 1 7081 7082 7083
8246 1 7082 7083 7084
8247 1 7063 7085 7086
8248 1 7085 7086 7087
8249 1 7086 7087 7088
8250 1 7087 7088 7089
8251 1 7065 7090 7091
8252 1 7090 7091 7092
8253 1 7091 7092 7093
8254 1 7092 7093 7094
8255 1 7066 7095 7096
8256 1 7095 7096 7097
8257 1 7096 7097 7098
8258 1 7097 7098 7099
8259 1 7075 7100 7101
8260 1 7100 7101 7102
8261 1 7101 7102 7103
8262 1 7102 7103 7104
8263 1 7106 7105 105
8264 1 7105 7106 7107
8265 1 7106 7107 7108
8266 1 7107 7108 7109
8267 1 7108 7109 7110
8268 1 7109 7110 7111
8269 1 7110 7111 7112
8270 1 7111 7112 7113
8271 1 7112 7113 7114
8272 1 7113 7114 7115
8273 1 7114 7115 7116
8274 1 7115 7116 7117
8275 1 7116 7117 7118
8276 1 7117 7118 7119
8277 1 7118 7119 7120
8278 1 7119 7120 7121
8279 1 7120 7121 7122
8280 1 7121 7122 7123
8281 1 7121 7122 7125
8282 1 7123 7122 7125
8283 1 7122 7123 7124
8284 1 7122 7123 7130
8285 1 7124 7123 7130
8286 1 7123 7124 133
8287 1 7122 7125 7126
8288 1 7125 7126 7127
8289 1 7126 7127 7128
8290 1 7127 7128 7129
8291 1 7123 7130 7131
8292 1 7130 7131 7132
8293 1 7131 7132 7133
8294 1 7132 7133 7134
8295 1 7136 7135 106
8296 1 7136 7135 7155
8297 1 106 7135 7155
8298 1 7135 7136 7137
8299 1 7136 7137 7138
8300 1 7136 7137 7160
8301 1 7138 7137 7160
8302 1 7137 7138 7139
8303 1 7138 7139 7140
8304 1 7138 7139 7165
8305 1 7140 7139 7165
8306 1 7139 7140 7141
8307 1 7140 7141 7142
8308 1 7141 7142 7143
8309 1 7142 7143 7144
8310 1 7142 7143 7170
8311 1 7144 7143 7170
8312 1 7143 7144 7145
8313 1 7143 7144 7175
8314 1 7145 7144 7175
8315 1 7144 7145 7146
8316 1 7145 7146 7147
8317 1 7146 7147 7148
8318 1 7146 7147 7180
8319 1 7148 7147 7180
8320 1 7147 7148 7149
8321 1 7148 7149 7150
8322 1 7149 7150 7151
8323 1 7150 7151 7152
8324 1 7151 7152 7153
8325 1 7151 7152 7185
8326 1 7153 7152 7185
8327 1 7152 7153 7154
8328 1 7153 7154 134
8329 1 7153 7154 7190
8330 1 134 7154 7190
8331 1 7135 7155 7156
8332 1 7155 7156 7157
8333 1 7156 7157 7158
8334 1 7157 7158 7159
8335 1 7137 7160 7161
8336 1 7160 7161 7162
8337 1 7161 7162 7163
8338 1 7162 7163 7164
8339 1 7139 7165 7166
8340 1 7165 7166 7167
8341 1 7166 7167 7168
8342 1 7167 7168 7169
8343 1 7143 7170 7171
8344 1 7170 7171 7172
8345 1 7171 7172 7173
8346 1 7172 7173 7174
8347 1 7144 7175 7176
8348 1 7175 7176 7177
8349 1 7176 7177 7178
8350 1 7177 7178 7179
8351 1 7147 7180 7181
8352 1 7180 7181 7182
8353 1 7181 7182 7183
8354 1 7182 7183 7184
8355 1 7152 7185 7186
8356 1 7185 7186 7187
8357 1 7186 7187 7188
8358 1 7187 7188 7189
8359 1 7154 7190 7191
8360 1 7190 7191 7192
8361 1 7191 7192 7193
8362 1 7192 7193 7194
8363 1 7196 7195 107
8364 1 7195 7196 7197
8365 1 7196 7197 7198
8366 1 7196 7197 7215
8367 1 7198 7197 7215
8368 1 7197 7198 7199
8369 1 7198 7199 7200
8370 1 7199 7200 7201
8371 1 7199 7200 7220
8372 1 7201 7200 7220
8373 1 7200 7201 7202
8374 1 7200 7201 7225
8375 1 7202 7201 7225
8376 1 7201 7202 7203
8377 1 7202 7203 7204
8378 1 7203 7204 7205
8379 1 7203 7204 7230
8380 1 7205 7204 7230
8381 1 7204 7205 7206
8382 1 7204 7205 7235
8383 1 7206 7205 7235
8384 1 7205 7206 7207
8385 1 7206 7207 7208
8386 1 7207 7208 7209
8387 1 7208 7209 7210
8388 1 7209 7210 7211
8389 1 7209 7210 7240
8390 1 7211 7210 7240
8391 1 7210 7211 7212
8392 1 7211 7212 7213
8393 1 7212 7213 7214
8394 1 7212 7213 7245
8395 1 7214 7213 7245
8396 1 7213 7214 108
8397 1 7197 7215 7216
8398 1 7215 7216 7217
8399 1 7216 7217 7218
8400 1 7217 7218 7219
8401 1 7200 7220 7221
8402 1 7220 7221 7222
8403 1 7221 7222 7223
8404 1 7222 7223 7224
8405 1 7201 7225 7226
8406 1 7225 7226 7227
8407 1 7226 7227 7228
8408 1 7227 7228 7229
8409 1 7204 7230 7231
8410 1 7230 7231 7232
8411 1 7231 7232 7233
8412 1 7232 7233 7234
8413 1 7205 7235 7236
8414 1 7235 7236 7237
8415 1 7236 7237 7238
8416 1 7237 7238 7239
8417 1 7210 7240 7241
8418 1 7240 7241 7242
8419 1 7241 7242 7243
8420 1 7242 7243 7244
8421 1 7213 7245 7246
8422 1 7245 7246 7247
8423 1 7246 7247 7248
8424 1 7247 7248 7249
8425 1 7251 7250 107
8426 1 7250 7251 7252
8427 1 7251 7252 7253
8428 1 7252 7253 7254
8429 1 7253 7254 7255
8430 1 7253 7254 7270
8431 1 7255 7254 7270
8432 1 7254 7255 7256
8433 1 7255 7256 7257
8434 1 7256 7257 7258
8435 1 7257 7258 7259
8436 1 7258 7259 7260
8437 1 7259 7260 7261
8438 1 7260 7261 7262
8439 1 7261 7262 7263
8440 1 7262 7263 7264
8441 1 7263 7264 7265
8442 1 7264 7265 7266
8443 1 7265 7266 7267
8444 1 7266 7267 7268
8445 1 7267 7268 7269
8446 1 7268 7269 135
8447 1 7254 7270 7271
8448 1 7270 7271 7272
8449 1 7271 7272 7273
8450 1 7272 7273 7274
8451 1 7276 7275 107
8452 1 7275 7276 7277
8453 1 7275 7276 7295
8454 1 7277 7276 7295
8455 1 7276 7277 7278
8456 1 7277 7278 7279
8457 1 7278 7279 7280
8458 1 7279 7280 7281
8459 1 7280 7281 7282
8460 1 7281 7282 7283
8461 1 7281 7282 7300
8462 1 7283 7282 7300
8463 1 7282 7283 7284
8464 1 7283 7284 7285
8465 1 7284 7285 7286
8466 1 7285 7286 7287
8467 1 7286 7287 7288
8468 1 7287 7288 7289
8469 1 7288 7289 7290
8470 1 7289 7290 7291
8471 1 7290 7291 7292
8472 1 7291 7292 7293
8473 1 7291 7292 7305
8474 1 7293 7292 7305
8475 1 7292 7293 7294
8476 1 7293 7294 111
8477 1 7293 7294 7310
8478 1 111 7294 7310
8479 1 7276 7295 7296
8480 1 7295 7296 7297
8481 1 7296 7297 7298
8482 1 7297 7298 7299
8483 1 7282 7300 7301
8484 1 7300 7301 7302
8485 1 7301 7302 7303
8486 1 7302 7303 7304
8487 1 7292 7305 7306
8488 1 7305 7306 7307
8489 1 7306 7307 7308
8490 1 7307 7308 7309
8491 1 7294 7310 7311
8492 1 7310 7311 7312
8493 1 7311 7312 7313
8494 1 7312 7313 7314
8495 1 7316 7315 108
8496 1 7316 7315 7335
8497 1 108 7315 7335
8498 1 7315 7316 7317
8499 1 7315 7316 7340
8500 1 7317 7316 7340
8501 1 7316 7317 7318
8502 1 7317 7318 7319
8503 1 7318 7319 7320
8504 1 7319 7320 7321
8505 1 7319 7320 7345
8506 1 7321 7320 7345
8507 1 7320 7321 7322
8508 1 7321 7322 7323
8509 1 7322 7323 7324
8510 1 7323 7324 7325
8511 1 7324 7325 7326
8512 1 7325 7326 7327
8513 1 7326 7327 7328
8514 1 7327 7328 7329
8515 1 7328 7329 7330
8516 1 7329 7330 7331
8517 1 7330 7331 7332
8518 1 7331 7332 7333
8519 1 7332 7333 7334
8520 1 7333 7334 136
8521 1 7315 7335 7336
8522 1 7335 7336 7337
8523 1 7336 7337 7338
8524 1 7337 7338 7339
8525 1 7316 7340 7341
8526 1 7340 7341 7342
8527 1 7341 7342 7343
8528 1 7342 7343 7344
8529 1 7320 7345 7346
8530 1 7345 7346 7347
8531 1 7346 7347 7348
8532 1 7347 7348 7349
8533 1 7351 7350 109
8534 1 7350 7351 7352
8535 1 7350 7351 7370
8536 1 7352 7351 7370
8537 1 7351 7352 7353
8538 1 7352 7353 7354
8539 1 7353 7354 7355
8540 1 7354 7355 7356
8541 1 7355 7356 7357
8542 1 7355 7356 7375
8543 1 7357 7356 7375
8544 1 7356 7357 7358
8545 1 7357 7358 7359
8546 1 7358 7359 7360
8547 1 7359 7360 7361
8548 1 7359 7360 7380
8549 1 7361 7360 7380
8550 1 7360 7361 7362
8551 1 7360 7361 7385
8552 1 7362 7361 7385
8553 1 7361 7362 7363
8554 1 7362 7363 7364
8555 1 7363 7364 7365
8556 1 7364 7365 7366
8557 1 7364 7365 7390
8558 1 7366 7365 7390
8559 1 7365 7366 7367
8560 1 7366 7367 7368
8561 1 7366 7367 7395
8562 1 7368 7367 7395
8563 1 7367 7368 7369
8564 1 7368 7369 110
8565 1 7351 7370 7371
8566 1 7370 7371 7372
8567 1 7371 7372 7373
8568 1 7372 7373 7374
8569 1 7356 7375 7376
8570 1 7375 7376 7377
8571 1 7376 7377 7378
8572 1 7377 7378 7379
8573 1 7360 7380 7381
8574 1 7380 7381 7382
8575 1 7381 7382 7383
8576 1 7382 7383 7384
8577 1 7361 7385 7386
8578 1 7385 7386 7387
8579 1 7386 7387 7388
8580 1 7387 7388 7389
8581 1 7365 7390 7391
8582 1 7390 7391 7392
8583 1 7391 7392 7393
8584 1 7392 7393 7394
8585 1 7367 7395 7396
8586 1 7395 7396 7397
8587 1 7396 7397 7398
8588 1 7397 7398 7399
8589 1 7401 7400 109
8590 1 7400 7401 7402
8591 1 7401 7402 7403
8592 1 7402 7403 7404
8593 1 7403 7404 7405
8594 1 7404 7405 7406
8595 1 7405 7406 7407
8596 1 7406 7407 7408
8597 1 7407 7408 7409
8598 1 7408 7409 7410
8599 1 7408 7409 7420
8600 1 7410 7409 7420
8601 1 7409 7410 7411
8602 1 7410 7411 7412
8603 1 7411 7412 7413
8604 1 7412 7413 7414
8605 1 7413 7414 7415
8606 1 7413 7414 7425
8607 1 7415 7414 7425
8608 1 7414 7415 7416
8609 1 7415 7416 7417
8610 1 7416 7417 7418
8611 1 7417 7418 7419
8612 1 7418 7419 137
8613 1 7409 7420 7421
8614 1 7420 7421 7422
8615 1 7421 7422 7423
8616 1 7422 7423 7424
8617 1 7414 7425 7426
8618 1 7425 7426 7427
8619 1 7426 7427 7428
8620 1 7427 7428 7429
8621 1 7431 7430 110
8622 1 7430 7431 7432
8623 1 7431 7432 7433
8624 1 7432 7433 7434
8625 1 7433 7434 7435
8626 1 7434 7435 7436
8627 1 7435 7436 7437
8628 1 7436 7437 7438
8629 1 7437 7438 7439
8630 1 7438 7439 7440
8631 1 7439 7440 7441
8632 1 7440 7441 7442
8633 1 7441 7442 7443
8634 1 7442 7443 7444
8635 1 7442 7443 7450
8636 1 7444 7443 7450
8637 1 7443 7444 7445
8638 1 7444 7445 7446
8639 1 7445 7446 7447
8640 1 7446 7447 7448
8641 1 7447 7448 7449
8642 1 7448 7449 138
8643 1 7448 7449 7455
8644 1 138 7449 7455
8645 1 7443 7450 7451
8646 1 7450 7451 7452
8647 1 7451 7452 7453
8648 1 7452 7453 7454
8649 1 7449 7455 7456
8650 1 7455 7456 7457
8651 1 7456 7457 7458
8652 1 7457 7458 7459
8653 1 7461 7460 112
8654 1 7461 7460 7480
8655 1 112 7460 7480
8656 1 7460 7461 7462
8657 1 7461 7462 7463
8658 1 7462 7463 7464
8659 1 7463 7464 7465
8660 1 7464 7465 7466
8661 1 7464 7465 7485
8662 1 7466 7465 7485
8663 1 7465 7466 7467
8664 1 7466 7467 7468
8665 1 7467 7468 7469
8666 1 7468 7469 7470
8667 1 7469 7470 7471
8668 1 7470 7471 7472
8669 1 7470 7471 7490
8670 1 7472 7471 7490
8671 1 7471 7472 7473
8672 1 7472 7473 7474
8673 1 7473 7474 7475
8674 1 7474 7475 7476
8675 1 7475 7476 7477
8676 1 7476 7477 7478
8677 1 7476 7477 7495
8678 1 7478 7477 7495
8679 1 7477 7478 7479
8680 1 7478 7479 113
8681 1 7460 7480 7481
8682 1 7480 7481 7482
8683 1 7481 7482 7483
8684 1 7482 7483 7484
8685 1 7465 7485 7486
8686 1 7485 7486 7487
8687 1 7486 7487 7488
8688 1 7487 7488 7489
8689 1 7471 7490 7491
8690 1 7490 7491 7492
8691 1 7491 7492 7493
8692 1 7492 7493 7494
8693 1 7477 7495 7496
8694 1 7495 7496 7497
8695 1 7496 7497 7498
8696 1 7497 7498 7499
8697 1 7501 7500 112
8698 1 7500 7501 7502
8699 1 7501 7502 7503
8700 1 7502 7503 7504
8701 1 7503 7504 7505
8702 1 7503 7504 7520
8703 1 7505 7504 7520
8704 1 7504 7505 7506
8705 1 7505 7506 7507
8706 1 7506 7507 7508
8707 1 7507 7508 7509
8708 1 7508 7509 7510
8709 1 7509 7510 7511
8710 1 7510 7511 7512
8711 1 7511 7512 7513
8712 1 7512 7513 7514
8713 1 7513 7514 7515
8714 1 7513 7514 7525
8715 1 7515 7514 7525
8716 1 7514 7515 7516
8717 1 7515 7516 7517
8718 1 7515 7516 7530
8719 1 7517 7516 7530
8720 1 7516 7517 7518
8721 1 7517 7518 7519
8722 1 7518 7519 116
8723 1 7504 7520 7521
8724 1 7520 7521 7522
8725 1 7521 7522 7523
8726 1 7522 7523 7524
8727 1 7514 7525 7526
8728 1 7525 7526 7527
8729 1 7526 7527 7528
8730 1 7527 7528 7529
8731 1 7516 7530 7531
8732 1 7530 7531 7532
8733 1 7531 7532 7533
8734 1 7532 7533 7534
8735 1 7536 7535 112
8736 1 7535 7536 7537
8737 1 7536 7537 7538
8738 1 7537 7538 7539
8739 1 7537 7538 7555
8740 1 7539 7538 7555
8741 1 7538 7539 7540
8742 1 7539 7540 7541
8743 1 7539 7540 7560
8744 1 7541 7540 7560
8745 1 7540 7541 7542
8746 1 7541 7542 7543
8747 1 7542 7543 7544
8748 1 7543 7544 7545
8749 1 7544 7545 7546
8750 1 7545 7546 7547
8751 1 7545 7546 7565
8752 1 7547 7546 7565
8753 1 7546 7547 7548
8754 1 7547 7548 7549
8755 1 7548 7549 7550
8756 1 7549 7550 7551
8757 1 7550 7551 7552
8758 1 7550 7551 7570
8759 1 7552 7551 7570
8760 1 7551 7552 7553
8761 1 7552 7553 7554
8762 1 7552 7553 7575
8763 1 7554 7553 7575
8764 1 7553 7554 135
8765 1 7553 7554 7580
8766 1 135 7554 7580
8767 1 7538 7555 7556
8768 1 7555 7556 7557
8769 1 7556 7557 7558
8770 1 7557 7558 7559
8771 1 7540 7560 7561
8772 1 7560 7561 7562
8773 1 7561 7562 7563
8774 1 7562 7563 7564
8775 1 7546 7565 7566
8776 1 7565 7566 7567
8777 1 7566 7567 7568
8778 1 7567 7568 7569
8779 1 7551 7570 7571
8780 1 7570 7571 7572
8781 1 7571 7572 7573
8782 1 7572 7573 7574
8783 1 7553 7575 7576
8784 1 7575 7576 7577
8785 1 7576 7577 7578
8786 1 7577 7578 7579
8787 1 7554 7580 7581
8788 1 7580 7581 7582
8789 1 7581 7582 7583
8790 1 7582 7583 7584
8791 1 7586 7585 113
8792 1 7585 7586 7587
8793 1 7586 7587 7588
8794 1 7587 7588 7589
8795 1 7588 7589 7590
8796 1 7589 7590 7591
8797 1 7589 7590 7605
8798 1 7591 7590 7605
8799 1 7590 7591 7592
8800 1 7590 7591 7610
8801 1 7592 7591 7610
8802 1 7591 7592 7593
8803 1 7592 7593 7594
8804 1 7593 7594 7595
8805 1 7593 7594 7615
8806 1 7595 7594 7615
8807 1 7594 7595 7596
8808 1 7595 7596 7597
8809 1 7596 7597 7598
8810 1 7596 7597 7620
8811 1 7598 7597 7620
8812 1 7597 7598 7599
8813 1 7597 7598 7625
8814 1 7599 7598 7625
8815 1 7598 7599 7600
8816 1 7599 7600 7601
8817 1 7600 7601 7602
8818 1 7601 7602 7603
8819 1 7602 7603 7604
8820 1 7603 7604 118
8821 1 7590 7605 7606
8822 1 7605 7606 7607
8823 1 7606 7607 7608
8824 1 7607 7608 7609
8825 1 7591 7610 7611
8826 1 7610 7611 7612
8827 1 7611 7612 7613
8828 1 7612 7613 7614
8829 1 7594 7615 7616
8830 1 7615 7616 7617
8831 1 7616 7617 7618
8832 1 7617 7618 7619
8833 1 7597 7620 7621
8834 1 7620 7621 7622
8835 1 7621 7622 7623
8836 1 7622 7623 7624
8837 1 7598 7625 7626
8838 1 7625 7626 7627
8839 1 7626 7627 7628
8840 1 7627 7628 7629
8841 1 7631 7630 113
8842 1 7630 7631 7632
8843 1 7631 7632 7633
8844 1 7631 7632 7650
8845 1 7633 7632 7650
8846 1 7632 7633 7634
8847 1 7633 7634 7635
8848 1 7634 7635 7636
8849 1 7635 7636 7637
8850 1 7636 7637 7638
8851 1 7636 7637 7655
8852 1 7638 7637 7655
8853 1 7637 7638 7639
8854 1 7638 7639 7640
8855 1 7639 7640 7641
8856 1 7639 7640 7660
8857 1 7641 7640 7660
8858 1 7640 7641 7642
8859 1 7641 7642 7643
8860 1 7641 7642 7665
8861 1 7643 7642 7665
8862 1 7642 7643 7644
8863 1 7643 7644 7645
8864 1 7644 7645 7646
8865 1 7645 7646 7647
8866 1 7646 7647 7648
8867 1 7646 7647 7670
8868 1 7648 7647 7670
8869 1 7647 7648 7649
8870 1 7648 7649 136
8871 1 7632 7650 7651
8872 1 7650 7651 7652
8873 1 7651 7652 7653
8874 1 7652 7653 7654
8875 1 7637 7655 7656
8876 1 7655 7656 7657
8877 1 7656 7657 7658
8878 1 7657 7658 7659
8879 1 7640 7660 7661
8880 1 7660 7661 7662
8881 1 7661 7662 7663
8882 1 7662 7663 7664
8883 1 7642 7665 7666
8884 1 7665 7666 7667
8885 1 7666 7667 7668
8886 1 7667 7668 7669
8887 1 7647 7670 7671
8888 1 7670 7671 7672
8889 1 7671 7672 7673
8890 1 7672 7673 7674
8891 1 7676 7675 114
8892 1 7675 7676 7677
8893 1 7676 7677 7678
8894 1 7677 7678 7679
8895 1 7677 7678 7695
8896 1 7679 7678 7695
8897 1 7678 7679 7680
8898 1 7679 7680 7681
8899 1 7679 7680 7700
8900 1 7681 7680 7700
8901 1 7680 7681 7682
8902 1 7681 7682 7683
8903 1 7682 7683 7684
8904 1 7682 7683 7705
8905 1 7684 7683 7705
8906 1 7683 7684 7685
8907 1 7684 7685 7686
8908 1 7685 7686 7687
8909 1 7686 7687 7688
8910 1 7686 7687 7710
8911 1 7688 7687 7710
8912 1 7687 7688 7689
8913 1 7688 7689 7690
8914 1 7688 7689 7715
8915 1 7690 7689 7715
8916 1 7689 7690 7691
8917 1 7690 7691 7692
8918 1 7691 7692 7693
8919 1 7692 7693 7694
8920 1 7692 7693 7720
8921 1 7694 7693 7720
8922 1 7693 7694 115
8923 1 7678 7695 7696
8924 1 7695 7696 7697
8925 1 7696 7697 7698
8926 1 7697 7698 7699
8927 1 7680 7700 7701
8928 1 7700 7701 7702
8929 1 7701 7702 7703
8930 1 7702 7703 7704
8931 1 7683 7705 7706
8932 1 7705 7706 7707
8933 1 7706 7707 7708
8934 1 7707 7708 7709
8935 1 7687 7710 7711
8936 1 7710 7711 7712
8937 1 7711 7712 7713
8938 1 7712 7713 7714
8939 1 7689 7715 7716
8940 1 7715 7716 7717
8941 1 7716 7717 7718
8942 1 7717 7718 7719
8943 1 7693 7720 7721
8944 1 7720 7721 7722
8945 1 7721 7722 7723
8946 1 7722 7723 7724
8947 1 7726 7725 114
8948 1 7725 7726 7727
8949 1 7725 7726 7745
8950 1 7727 7726 7745
8951 1 7726 7727 7728
8952 1 7727 7728 7729
8953 1 7728 7729 7730
8954 1 7728 7729 7750
8955 1 7730 7729 7750
8956 1 7729 7730 7731
8957 1 7730 7731 7732
8958 1 7730 7731 7755
8959 1 7732 7731 7755
8960 1 7731 7732 7733
8961 1 7732 7733 7734
8962 1 7733 7734 7735
8963 1 7733 7734 7760
8964 1 7735 7734 7760
8965 1 7734 7735 7736
8966 1 7735 7736 7737
8967 1 7736 7737 7738
8968 1 7737 7738 7739
8969 1 7738 7739 7740
8970 1 7739 7740 7741
8971 1 7740 7741 7742
8972 1 7741 7742 7743
8973 1 7742 7743 7744
8974 1 7743 7744 119
8975 1 7726 7745 7746
8976 1 7745 7746 7747
8977 1 7746 7747 7748
8978 1 7747 7748 7749
8979 1 7729 7750 7751
8980 1 7750 7751 7752
8981 1 7751 7752 7753
8982 1 7752 7753 7754
8983 1 7731 7755 7756
8984 1 7755 7756 7757
8985 1 7756 7757 7758
8986 1 7757 7758 7759
8987 1 7734 7760 7761
8988 1 7760 7761 7762
8989 1 7761 7762 7763
8990 1 7762 7763 7764
8991 1 7766 7765 115
8992 1 7765 7766 7767
8993 1 7766 7767 7768
8994 1 7766 7767 7785
8995 1 7768 7767 7785
8996 1 7767 7768 7769
8997 1 7768 7769 7770
8998 1 7769 7770 7771
8999 1 7770 7771 7772
9000 1 7771 7772 7773
9001 1 7772 7773 7774
9002 1 7772 7773 7790
9003 1 7774 7773 7790
9004 1 7773 7774 7775
9005 1 7774 7775 7776
9006 1 7775 7776 7777
9007 1 7776 7777 7778
9008 1 7776 7777 7795
9009 1 7778 7777 7795
9010 1 7777 7778 7779
9011 1 7778 7779 7780
9012 1 7779 7780 7781
9013 1 7780 7781 7782
9014 1 7781 7782 7783
9015 1 7781 7782 7800
9016 1 7783 7782 7800
9017 1 7782 7783 7784
9018 1 7783 7784 116
9019 1 7767 7785 7786
9020 1 7785 7786 7787
9021 1 7786 7787 7788
9022 1 7787 7788 7789
9023 1 7773 7790 7791
9024 1 7790 7791 7792
9025 1 7791 7792 7793
9026 1 7792 7793 7794
9027 1 7777 7795 7796
9028 1 7795 7796 7797
9029 1 7796 7797 7798
9030 1 7797 7798 7799
9031 1 7782 7800 7801
9032 1 7800 7801 7802
9033 1 7801 7802 7803
9034 1 7802 7803 7804
9035 1 7806 7805 115
9036 1 7805 7806 7807
9037 1 7806 7807 7808
9038 1 7807 7808 7809
9039 1 7808 7809 7810
9040 1 7809 7810 7811
9041 1 7810 7811 7812
9042 1 7811 7812 7813
9043 1 7812 7813 7814
9044 1 7813 7814 7815
9045 1 7813 7814 7825
9046 1 7815 7814 7825
9047 1 7814 7815 7816
9048 1 7815 7816 7817
9049 1 7816 7817 7818
9050 1 7816 7817 7830
9051 1 7818 7817 7830
9052 1 7817 7818 7819
9053 1 7818 7819 7820
9054 1 7819 7820 7821
9055 1 7819 7820 7835
9056 1 7821 7820 7835
9057 1 7820 7821 7822
9058 1 7821 7822 7823
9059 1 7821 7822 7840
9060 1 7823 7822 7840
9061 1 7822 7823 7824
9062 1 7823 7824 120
9063 1 7814 7825 7826
9064 1 7825 7826 7827
9065 1 7826 7827 7828
9066 1 7827 7828 7829
9067 1 7817 7830 7831
9068 1 7830 7831 7832
9069 1 7831 7832 7833
9070 1 7832 7833 7834
9071 1 7820 7835 7836
9072 1 7835 7836 7837
9073 1 7836 7837 7838
9074 1 7837 7838 7839
9075 1 7822 7840 7841
9076 1 7840 7841 7842
9077 1 7841 7842 7843
9078 1 7842 7843 7844
9079 1 7846 7845 116
9080 1 7845 7846 7847
9081 1 7846 7847 7848
9082 1 7847 7848 7849
9083 1 7848 7849 7850
9084 1 7848 7849 7865
9085 1 7850 7849 7865
9086 1 7849 7850 7851
9087 1 7849 7850 7870
9088 1 7851 7850 7870
9089 1 7850 7851 7852
9090 1 7851 7852 7853
9091 1 7852 7853 7854
9092 1 7853 7854 7855
9093 1 7854 7855 7856
9094 1 7855 7856 7857
9095 1 7855 7856 7875
9096 1 7857 7856 7875
9097 1 7856 7857 7858
9098 1 7857 7858 7859
9099 1 7858 7859 7860
9100 1 7858 7859 7880
9101 1 7860 7859 7880
9102 1 7859 7860 7861
9103 1 7860 7861 7862
9104 1 7861 7862 7863
9105 1 7862 7863 7864
9106 1 7863 7864 139
9107 1 7849 7865 7866
9108 1 7865 7866 7867
9109 1 7866 7867 7868
9110 1 7867 7868 7869
9111 1 7850 7870 7871
9112 1 7870 7871 7872
9113 1 7871 7872 7873
9114 1 7872 7873 7874
9115 1 7856 7875 7876
9116 1 7875 7876 7877
9117 1 7876 7877 7878
9118 1 7877 7878 7879
9119 1 7859 7880 7881
9120 1 7880 7881 7882
9121 1 7881 7882 7883
9122 1 7882 7883 7884
9123 1 7886 7885 117
9124 1 7885 7886 7887
9125 1 7886 7887 7888
9126 1 7887 7888 7889
9127 1 7888 7889 7890
9128 1 7889 7890 7891
9129 1 7890 7891 7892
9130 1 7891 7892 7893
9131 1 7892 7893 7894
9132 1 7892 7893 7905
9133 1 7894 7893 7905
9134 1 7893 7894 7895
9135 1 7894 7895 7896
9136 1 7894 7895 7910
9137 1 7896 7895 7910
9138 1 7895 7896 7897
9139 1 7896 7897 7898
9140 1 7896 7897 7915
9141 1 7898 7897 7915
9142 1 7897 7898 7899
9143 1 7898 7899 7900
9144 1 7899 7900 7901
9145 1 7900 7901 7902
9146 1 7901 7902 7903
9147 1 7902 7903 7904
9148 1 7903 7904 122
9149 1 7893 7905 7906
9150 1 7905 7906 7907
9151 1 7906 7907 7908
9152 1 7907 7908 7909
9153 1 7895 7910 7911
9154 1 7910 7911 7912
9155 1 7911 7912 7913
9156 1 7912 7913 7914
9157 1 7897 7915 7916
9158 1 7915 7916 7917
9159 1 7916 7917 7918
9160 1 7917 7918 7919
9161 1 7921 7920 117
9162 1 7920 7921 7922
9163 1 7920 7921 7940
9164 1 7922 7921 7940
9165 1 7921 7922 7923
9166 1 7922 7923 7924
9167 1 7923 7924 7925
9168 1 7924 7925 7926
9169 1 7924 7925 7945
9170 1 7926 7925 7945
9171 1 7925 7926 7927
9172 1 7926 7927 7928
9173 1 7927 7928 7929
9174 1 7928 7929 7930
9175 1 7929 7930 7931
9176 1 7930 7931 7932
9177 1 7931 7932 7933
9178 1 7931 7932 7950
9179 1 7933 7932 7950
9180 1 7932 7933 7934
9181 1 7933 7934 7935
9182 1 7934 7935 7936
9183 1 7935 7936 7937
9184 1 7936 7937 7938
9185 1 7937 7938 7939
9186 1 7938 7939 121
9187 1 7921 7940 7941
9188 1 7940 7941 7942
9189 1 7941 7942 7943
9190 1 7942 7943 7944
9191 1 7925 7945 7946
9192 1 7945 7946 7947
9193 1 7946 7947 7948
9194 1 7947 7948 7949
9195 1 7932 7950 7951
9196 1 7950 7951 7952
9197 1 7951 7952 7953
9198 1 7952 7953 7954
9199 1 7956 7955 118
9200 1 7955 7956 7957
9201 1 7956 7957 7958
9202 1 7956 7957 7975
9203 1 7958 7957 7975
9204 1 7957 7958 7959
9205 1 7958 7959 7960
9206 1 7959 7960 7961
9207 1 7960 7961 7962
9208 1 7961 7962 7963
9209 1 7962 7963 7964
9210 1 7963 7964 7965
9211 1 7964 7965 7966
9212 1 7965 7966 7967
9213 1 7965 7966 7980
9214 1 7967 7966 7980
9215 1 7966 7967 7968
9216 1 7967 7968 7969
9217 1 7968 7969 7970
9218 1 7969 7970 7971
9219 1 7969 7970 7985
9220 1 7971 7970 7985
9221 1 7970 7971 7972
9222 1 7971 7972 7973
9223 1 7971 7972 7990
9224 1 7973 7972 7990
9225 1 7972 7973 7974
9226 1 7973 7974 123
9227 1 7973 7974 7995
9228 1 123 7974 7995
9229 1 7957 7975 7976
9230 1 7975 7976 7977
9231 1 7976 7977 7978
9232 1 7977 7978 7979
9233 1 7966 7980 7981
9234 1 7980 7981 7982
9235 1 7981 7982 7983
9236 1 7982 7983 7984
9237 1 7970 7985 7986
9238 1 7985 7986 7987
9239 1 7986 7987 7988
9240 1 7987 7988 7989
9241 1 7972 7990 7991
9242 1 7990 7991 7992
9243 1 7991 7992 7993
9244 1 7992 7993 7994
9245 1 7974 7995 7996
9246 1 7995 7996 7997
9247 1 7996 7997 7998
9248 1 7997 7998 7999
9249 1 8001 8000 119
9250 1 8001 8000 8020
9251 1 119 8000 8020
9252 1 8000 8001 8002
9253 1 8001 8002 8003
9254 1 8002 8003 8004
9255 1 8003 8004 8005
9256 1 8004 8005 8006
9257 1 8004 8005 8025
9258 1 8006 8005 8025
9259 1 8005 8006 8007
9260 1 8006 8007 8008
9261 1 8007 8008 8009
9262 1 8007 8008 8030
9263 1 8009 8008 8030
9264 1 8008 8009 8010
9265 1 8009 8010 8011
9266 1 8009 8010 8035
9267 1 8011 8010 8035
9268 1 8010 8011 8012
9269 1 8010 8011 8040
9270 1 8012 8011 8040
9271 1 8011 8012 8013
9272 1 8012 8013 8014
9273 1 8013 8014 8015
9274 1 8014 8015 8016
9275 1 8015 8016 8017
9276 1 8016 8017 8018
9277 1 8016 8017 8045
9278 1 8018 8017 8045
9279 1 8017 8018 8019
9280 1 8018 8019 124
9281 1 8000 8020 8021
9282 1 8020 8021 8022
9283 1 8021 8022 8023
9284 1 8022 8023 8024
9285 1 8005 8025 8026
9286 1 8025 8026 8027
9287 1 8026 8027 8028
9288 1 8027 8028 8029
9289 1 8008 8030 8031
9290 1 8030 8031 8032
9291 1 8031 8032 8033
9292 1 8032 8033 8034
9293 1 8010 8035 8036
9294 1 8035 8036 8037
9295 1 8036 8037 8038
9296 1 8037 8038 8039
9297 1 8011 8040 8041
9298 1 8040 8041 8042
9299 1 8041 8042 8043
9300 1 8042 8043 8044
9301 1 8017 8045 8046
9302 1 8045 8046 8047
9303 1 8046 8047 8048
9304 1 8047 8048 8049
9305 1 8051 8050 120
9306 1 8050 8051 8052
9307 1 8051 8052 8053
9308 1 8052 8053 8054
9309 1 8052 8053 8070
9310 1 8054 8053 8070
9311 1 8053 8054 8055
9312 1 8054 8055 8056
9313 1 8055 8056 8057
9314 1 8056 8057 8058
9315 1 8057 8058 8059
9316 1 8058 8059 8060
9317 1 8059 8060 8061
9318 1 8060 8061 8062
9319 1 8061 8062 8063
9320 1 8062 8063 8064
9321 1 8063 8064 8065
9322 1 8064 8065 8066
9323 1 8065 8066 8067
9324 1 8066 8067 8068
9325 1 8067 8068 8069
9326 1 8068 8069 125
9327 1 8053 8070 8071
9328 1 8070 8071 8072
9329 1 8071 8072 8073
9330 1 8072 8073 8074
9331 1 8076 8075 121
9332 1 8076 8075 8095
9333 1 121 8075 8095
9334 1 8075 8076 8077
9335 1 8076 8077 8078
9336 1 8077 8078 8079
9337 1 8078 8079 8080
9338 1 8079 8080 8081
9339 1 8080 8081 8082
9340 1 8081 8082 8083
9341 1 8081 8082 8100
9342 1 8083 8082 8100
9343 1 8082 8083 8084
9344 1 8083 8084 8085
9345 1 8083 8084 8105
9346 1 8085 8084 8105
9347 1 8084 8085 8086
9348 1 8084 8085 8110
9349 1 8086 8085 8110
9350 1 8085 8086 8087
9351 1 8086 8087 8088
9352 1 8087 8088 8089
9353 1 8088 8089 8090
9354 1 8089 8090 8091
9355 1 8090 8091 8092
9356 1 8091 8092 8093
9357 1 8092 8093 8094
9358 1 8093 8094 126
9359 1 8093 8094 8115
9360 1 126 8094 8115
9361 1 8075 8095 8096
9362 1 8095 8096 8097
9363 1 8096 8097 8098
9364 1 8097 8098 8099
9365 1 8082 8100 8101
9366 1 8100 8101 8102
9367 1 8101 8102 8103
9368 1 8102 8103 8104
9369 1 8084 8105 8106
9370 1 8105 8106 8107
9371 1 8106 8107 8108
9372 1 8107 8108 8109
9373 1 8085 8110 8111
9374 1 8110 8111 8112
9375 1 8111 8112 8113
9376 1 8112 8113 8114
9377 1 8094 8115 8116
9378 1 8115 8116 8117
9379 1 8116 8117 8118
9380 1 8117 8118 8119
9381 1 8121 8120 122
9382 1 8120 8121 8122
9383 1 8121 8122 8123
9384 1 8122 8123 8124
9385 1 8122 8123 8140
9386 1 8124 8123 8140
9387 1 8123 8124 8125
9388 1 8124 8125 8126
9389 1 8124 8125 8145
9390 1 8126 8125 8145
9391 1 8125 8126 8127
9392 1 8126 8127 8128
9393 1 8127 8128 8129
9394 1 8128 8129 8130
9395 1 8129 8130 8131
9396 1 8130 8131 8132
9397 1 8131 8132 8133
9398 1 8132 8133 8134
9399 1 8133 8134 8135
9400 1 8134 8135 8136
9401 1 8134 8135 8150
9402 1 8136 8135 8150
9403 1 8135 8136 8137
9404 1 8135 8136 8155
9405 1 8137 8136 8155
9406 1 8136 8137 8138
9407 1 8137 8138 8139
9408 1 8138 8139 123
9409 1 8123 8140 8141
9410 1 8140 8141 8142
9411 1 8141 8142 8143
9412 1 8142 8143 8144
9413 1 8125 8145 8146
9414 1 8145 8146 8147
9415 1 8146 8147 8148
9416 1 8147 8148 8149
9417 1 8135 8150 8151
9418 1 8150 8151 8152
9419 1 8151 8152 8153
9420 1 8152 8153 8154
9421 1 8136 8155 8156
9422 1 8155 8156 8157
9423 1 8156 8157 8158
9424 1 8157 8158 8159
9425 1 8161 8160 122
9426 1 8160 8161 8162
9427 1 8161 8162 8163
9428 1 8162 8163 8164
9429 1 8163 8164 8165
9430 1 8164 8165 8166
9431 1 8165 8166 8167
9432 1 8166 8167 8168
9433 1 8166 8167 8180
9434 1 8168 8167 8180
9435 1 8167 8168 8169
9436 1 8168 8169 8170
9437 1 8168 8169 8185
9438 1 8170 8169 8185
9439 1 8169 8170 8171
9440 1 8170 8171 8172
9441 1 8171 8172 8173
9442 1 8171 8172 8190
9443 1 8173 8172 8190
9444 1 8172 8173 8174
9445 1 8172 8173 8195
9446 1 8174 8173 8195
9447 1 8173 8174 8175
9448 1 8174 8175 8176
9449 1 8175 8176 8177
9450 1 8176 8177 8178
9451 1 8177 8178 8179
9452 1 8178 8179 127
9453 1 8167 8180 8181
9454 1 8180 8181 8182
9455 1 8181 8182 8183
9456 1 8182 8183 8184
9457 1 8169 8185 8186
9458 1 8185 8186 8187
9459 1 8186 8187 8188
9460 1 8187 8188 8189
9461 1 8172 8190 8191
9462 1 8190 8191 8192
9463 1 8191 8192 8193
9464 1 8192 8193 8194
9465 1 8173 8195 8196
9466 1 8195 8196 8197
9467 1 8196 8197 8198
9468 1 8197 8198 8199
9469 1 8201 8200 123
9470 1 8200 8201 8202
9471 1 8201 8202 8203
9472 1 8202 8203 8204
9473 1 8203 8204 8205
9474 1 8203 8204 8220
9475 1 8205 8204 8220
9476 1 8204 8205 8206
9477 1 8205 8206 8207
9478 1 8206 8207 8208
9479 1 8207 8208 8209
9480 1 8208 8209 8210
9481 1 8209 8210 8211
9482 1 8210 8211 8212
9483 1 8211 8212 8213
9484 1 8212 8213 8214
9485 1 8213 8214 8215
9486 1 8214 8215 8216
9487 1 8214 8215 8225
9488 1 8216 8215 8225
9489 1 8215 8216 8217
9490 1 8215 8216 8230
9491 1 8217 8216 8230
9492 1 8216 8217 8218
9493 1 8217 8218 8219
9494 1 8217 8218 8235
9495 1 8219 8218 8235
9496 1 8218 8219 124
9497 1 8204 8220 8221
9498 1 8220 8221 8222
9499 1 8221 8222 8223
9500 1 8222 8223 8224
9501 1 8215 8225 8226
9502 1 8225 8226 8227
9503 1 8226 8227 8228
9504 1 8227 8228 8229
9505 1 8216 8230 8231
9506 1 8230 8231 8232
9507 1 8231 8232 8233
9508 1 8232 8233 8234
9509 1 8218 8235 8236
9510 1 8235 8236 8237
9511 1 8236 8237 8238
9512 1 8237 8238 8239
9513 1 8241 8240 124
9514 1 8240 8241 8242
9515 1 8241 8242 8243
9516 1 8242 8243 8244
9517 1 8242 8243 8260
9518 1 8244 8243 8260
9519 1 8243 8244 8245
9520 1 8244 8245 8246
9521 1 8245 8246 8247
9522 1 8246 8247 8248
9523 1 8247 8248 8249
9524 1 8248 8249 8250
9525 1 8249 8250 8251
9526 1 8250 8251 8252
9527 1 8251 8252 8253
9528 1 8252 8253 8254
9529 1 8253 8254 8255
9530 1 8254 8255 8256
9531 1 8255 8256 8257
9532 1 8256 8257 8258
9533 1 8257 8258 8259
9534 1 8257 8258 8265
9535 1 8259 8258 8265
9536 1 8258 8259 132
9537 1 8243 8260 8261
9538 1 8260 8261 8262
9539 1 8261 8262 8263
9540 1 8262 8263 8264
9541 1 8258 8265 8266
9542 1 8265 8266 8267
9543 1 8266 8267 8268
9544 1 8267 8268 8269
9545 1 8271 8270 125
9546 1 8270 8271 8272
9547 1 8271 8272 8273
9548 1 8272 8273 8274
9549 1 8273 8274 8275
9550 1 8274 8275 8276
9551 1 8275 8276 8277
9552 1 8275 8276 8290
9553 1 8277 8276 8290
9554 1 8276 8277 8278
9555 1 8277 8278 8279
9556 1 8277 8278 8295
9557 1 8279 8278 8295
9558 1 8278 8279 8280
9559 1 8278 8279 8300
9560 1 8280 8279 8300
9561 1 8279 8280 8281
9562 1 8280 8281 8282
9563 1 8280 8281 8305
9564 1 8282 8281 8305
9565 1 8281 8282 8283
9566 1 8282 8283 8284
9567 1 8283 8284 8285
9568 1 8284 8285 8286
9569 1 8285 8286 8287
9570 1 8285 8286 8310
9571 1 8287 8286 8310
9572 1 8286 8287 8288
9573 1 8286 8287 8315
9574 1 8288 8287 8315
9575 1 8287 8288 8289
9576 1 8288 8289 126
9577 1 8276 8290 8291
9578 1 8290 8291 8292
9579 1 8291 8292 8293
9580 1 8292 8293 8294
9581 1 8278 8295 8296
9582 1 8295 8296 8297
9583 1 8296 8297 8298
9584 1 8297 8298 8299
9585 1 8279 8300 8301
9586 1 8300 8301 8302
9587 1 8301 8302 8303
9588 1 8302 8303 8304
9589 1 8281 8305 8306
9590 1 8305 8306 8307
9591 1 8306 8307 8308
9592 1 8307 8308 8309
9593 1 8286 8310 8311
9594 1 8310 8311 8312
9595 1 8311 8312 8313
9596 1 8312 8313 8314
9597 1 8287 8315 8316
9598 1 8315 8316 8317
9599 1 8316 8317 8318
9600 1 8317 8318 8319
9601 1 8321 8320 125
9602 1 8320 8321 8322
9603 1 8321 8322 8323
9604 1 8322 8323 8324
9605 1 8322 8323 8340
9606 1 8324 8323 8340
9607 1 8323 8324 8325
9608 1 8324 8325 8326
9609 1 8325 8326 8327
9610 1 8326 8327 8328
9611 1 8326 8327 8345
9612 1 8328 8327 8345
9613 1 8327 8328 8329
9614 1 8328 8329 8330
9615 1 8329 8330 8331
9616 1 8330 8331 8332
9617 1 8331 8332 8333
9618 1 8332 8333 8334
9619 1 8333 8334 8335
9620 1 8333 8334 8350
9621 1 8335 8334 8350
9622 1 8334 8335 8336
9623 1 8334 8335 8355
9624 1 8336 8335 8355
9625 1 8335 8336 8337
9626 1 8336 8337 8338
9627 1 8337 8338 8339
9628 1 8338 8339 133
9629 1 8323 8340 8341
9630 1 8340 8341 8342
9631 1 8341 8342 8343
9632 1 8342 8343 8344
9633 1 8327 8345 8346
9634 1 8345 8346 8347
9635 1 8346 8347 8348
9636 1 8347 8348 8349
9637 1 8334 8350 8351
9638 1 8350 8351 8352
9639 1 8351 8352 8353
9640 1 8352 8353 8354
9641 1 8335 8355 8356
9642 1 8355 8356 8357
9643 1 8356 8357 8358
9644 1 8357 8358 8359
9645 1 8361 8360 126
9646 1 8360 8361 8362
9647 1 8360 8361 8380
9648 1 8362 8361 8380
9649 1 8361 8362 8363
9650 1 8362 8363 8364
9651 1 8363 8364 8365
9652 1 8364 8365 8366
9653 1 8365 8366 8367
9654 1 8366 8367 8368
9655 1 8367 8368 8369
9656 1 8367 8368 8385
9657 1 8369 8368 8385
9658 1 8368 8369 8370
9659 1 8369 8370 8371
9660 1 8370 8371 8372
9661 1 8371 8372 8373
9662 1 8371 8372 8390
9663 1 8373 8372 8390
9664 1 8372 8373 8374
9665 1 8373 8374 8375
9666 1 8374 8375 8376
9667 1 8375 8376 8377
9668 1 8376 8377 8378
9669 1 8376 8377 8395
9670 1 8378 8377 8395
9671 1 8377 8378 8379
9672 1 8378 8379 134
9673 1 8378 8379 8400
9674 1 134 8379 8400
9675 1 8361 8380 8381
9676 1 8380 8381 8382
9677 1 8381 8382 8383
9678 1 8382 8383 8384
9679 1 8368 8385 8386
9680 1 8385 8386 8387
9681 1 8386 8387 8388
9682 1 8387 8388 8389
9683 1 8372 8390 8391
9684 1 8390 8391 8392
9685 1 8391 8392 8393
9686 1 8392 8393 8394
9687 1 8377 8395 8396
9688 1 8395 8396 8397
9689 1 8396 8397 8398
9690 1 8397 8398 8399
9691 1 8379 8400 8401
9692 1 8400 8401 8402
9693 1 8401 8402 8403
9694 1 8402 8403 8404
9695 1 8406 8405 131
9696 1 8405 8406 8407
9697 1 8406 8407 8408
9698 1 8407 8408 8409
9699 1 8408 8409 8410
9700 1 8409 8410 8411
9701 1 8410 8411 8412
9702 1 8411 8412 8413
9703 1 8412 8413 8414
9704 1 8413 8414 8415
9705 1 8413 8414 8425
9706 1 8415 8414 8425
9707 1 8414 8415 8416
9708 1 8415 8416 8417
9709 1 8416 8417 8418
9710 1 8417 8418 8419
9711 1 8418 8419 8420
9712 1 8419 8420 8421
9713 1 8420 8421 8422
9714 1 8420 8421 8430
9715 1 8422 8421 8430
9716 1 8421 8422 8423
9717 1 8421 8422 8435
9718 1 8423 8422 8435
9719 1 8422 8423 8424
9720 1 8423 8424 132
9721 1 8414 8425 8426
9722 1 8425 8426 8427
9723 1 8426 8427 8428
9724 1 8427 8428 8429
9725 1 8421 8430 8431
9726 1 8430 8431 8432
9727 1 8431 8432 8433
9728 1 8432 8433 8434
9729 1 8422 8435 8436
9730 1 8435 8436 8437
9731 1 8436 8437 8438
9732 1 8437 8438 8439
9733 1 8441 8440 131
9734 1 8441 8440 8460
9735 1 131 8440 8460
9736 1 8440 8441 8442
9737 1 8440 8441 8465
9738 1 8442 8441 8465
9739 1 8441 8442 8443
9740 1 8441 8442 8470
9741 1 8443 8442 8470
9742 1 8442 8443 8444
9743 1 8442 8443 8475
9744 1 8444 8443 8475
9745 1 8443 8444 8445
9746 1 8444 8445 8446
9747 1 8444 8445 8480
9748 1 8446 8445 8480
9749 1 8445 8446 8447
9750 1 8446 8447 8448
9751 1 8447 8448 8449
9752 1 8448 8449 8450
9753 1 8449 8450 8451
9754 1 8450 8451 8452
9755 1 8451 8452 8453
9756 1 8451 8452 8485
9757 1 8453 8452 8485
9758 1 8452 8453 8454
9759 1 8453 8454 8455
9760 1 8454 8455 8456
9761 1 8455 8456 8457
9762 1 8455 8456 8490
9763 1 8457 8456 8490
9764 1 8456 8457 8458
9765 1 8457 8458 8459
9766 1 8458 8459 136
9767 1 8440 8460 8461
9768 1 8460 8461 8462
9769 1 8461 8462 8463
9770 1 8462 8463 8464
9771 1 8441 8465 8466
9772 1 8465 8466 8467
9773 1 8466 8467 8468
9774 1 8467 8468 8469
9775 1 8442 8470 8471
9776 1 8470 8471 8472
9777 1 8471 8472 8473
9778 1 8472 8473 8474
9779 1 8443 8475 8476
9780 1 8475 8476 8477
9781 1 8476 8477 8478
9782 1 8477 8478 8479
9783 1 8445 8480 8481
9784 1 8480 8481 8482
9785 1 8481 8482 8483
9786 1 8482 8483 8484
9787 1 8452 8485 8486
9788 1 8485 8486 8487
9789 1 8486 8487 8488
9790 1 8487 8488 8489
9791 1 8456 8490 8491
9792 1 8490 8491 8492
9793 1 8491 8492 8493
9794 1 8492 8493 8494
9795 1 8496 8495 132
9796 1 8495 8496 8497
9797 1 8496 8497 8498
9798 1 8497 8498 8499
9799 1 8498 8499 8500
9800 1 8499 8500 8501
9801 1 8500 8501 8502
9802 1 8501 8502 8503
9803 1 8501 8502 8515
9804 1 8503 8502 8515
9805 1 8502 8503 8504
9806 1 8502 8503 8520
9807 1 8504 8503 8520
9808 1 8503 8504 8505
9809 1 8503 8504 8525
9810 1 8505 8504 8525
9811 1 8504 8505 8506
9812 1 8504 8505 8530
9813 1 8506 8505 8530
9814 1 8505 8506 8507
9815 1 8505 8506 8535
9816 1 8507 8506 8535
9817 1 8506 8507 8508
9818 1 8507 8508 8509
9819 1 8508 8509 8510
9820 1 8509 8510 8511
9821 1 8510 8511 8512
9822 1 8511 8512 8513
9823 1 8512 8513 8514
9824 1 8512 8513 8540
9825 1 8514 8513 8540
9826 1 8513 8514 137
9827 1 8502 8515 8516
9828 1 8515 8516 8517
9829 1 8516 8517 8518
9830 1 8517 8518 8519
9831 1 8503 8520 8521
9832 1 8520 8521 8522
9833 1 8521 8522 8523
9834 1 8522 8523 8524
9835 1 8504 8525 8526
9836 1 8525 8526 8527
9837 1 8526 8527 8528
9838 1 8527 8528 8529
9839 1 8505 8530 8531
9840 1 8530 8531 8532
9841 1 8531 8532 8533
9842 1 8532 8533 8534
9843 1 8506 8535 8536
9844 1 8535 8536 8537
9845 1 8536 8537 8538
9846 1 8537 8538 8539
9847 1 8513 8540 8541
9848 1 8540 8541 8542
9849 1 8541 8542 8543
9850 1 8542 8543 8544
9851 1 8546 8545 133
9852 1 8545 8546 8547
9853 1 8546 8547 8548
9854 1 8546 8547 8565
9855 1 8548 8547 8565
9856 1 8547 8548 8549
9857 1 8547 8548 8570
9858 1 8549 8548 8570
9859 1 8548 8549 8550
9860 1 8549 8550 8551
9861 1 8550 8551 8552
9862 1 8551 8552 8553
9863 1 8552 8553 8554
9864 1 8553 8554 8555
9865 1 8554 8555 8556
9866 1 8554 8555 8575
9867 1 8556 8555 8575
9868 1 8555 8556 8557
9869 1 8556 8557 8558
9870 1 8557 8558 8559
9871 1 8558 8559 8560
9872 1 8559 8560 8561
9873 1 8560 8561 8562
9874 1 8561 8562 8563
9875 1 8562 8563 8564
9876 1 8562 8563 8580
9877 1 8564 8563 8580
9878 1 8563 8564 138
9879 1 8547 8565 8566
9880 1 8565 8566 8567
9881 1 8566 8567 8568
9882 1 8567 8568 8569
9883 1 8548 8570 8571
9884 1 8570 8571 8572
9885 1 8571 8572 8573
9886 1 8572 8573 8574
9887 1 8555 8575 8576
9888 1 8575 8576 8577
9889 1 8576 8577 8578
9890 1 8577 8578 8579
9891 1 8563 8580 8581
9892 1 8580 8581 8582
9893 1 8581 8582 8583
9894 1 8582 8583 8584
9895 1 8586 8585 135
9896 1 8585 8586 8587
9897 1 8586 8587 8588
9898 1 8587 8588 8589
9899 1 8588 8589 8590
9900 1 8589 8590 8591
9901 1 8589 8590 8605
9902 1 8591 8590 8605
9903 1 8590 8591 8592
9904 1 8591 8592 8593
9905 1 8592 8593 8594
9906 1 8593 8594 8595
9907 1 8594 8595 8596
9908 1 8594 8595 8610
9909 1 8596 8595 8610
9910 1 8595 8596 8597
9911 1 8596 8597 8598
9912 1 8597 8598 8599
9913 1 8598 8599 8600
9914 1 8599 8600 8601
9915 1 8600 8601 8602
9916 1 8601 8602 8603
9917 1 8602 8603 8604
9918 1 8603 8604 136
9919 1 8590 8605 8606
9920 1 8605 8606 8607
9921 1 8606 8607 8608
9922 1 8607 8608 8609
9923 1 8595 8610 8611
9924 1 8610 8611 8612
9925 1 8611 8612 8613
9926 1 8612 8613 8614
9927 1 8616 8615 137
9928 1 8615 8616 8617
9929 1 8616 8617 8618
9930 1 8617 8618 8619
9931 1 8618 8619 8620
9932 1 8619 8620 8621
9933 1 8620 8621 8622
9934 1 8621 8622 8623
9935 1 8622 8623 8624
9936 1 8623 8624 8625
9937 1 8623 8624 8635
9938 1 8625 8624 8635
9939 1 8624 8625 8626
9940 1 8625 8626 8627
9941 1 8626 8627 8628
9942 1 8626 8627 8640
9943 1 8628 8627 8640
9944 1 8627 8628 8629
9945 1 8628 8629 8630
9946 1 8629 8630 8631
9947 1 8630 8631 8632
9948 1 8631 8632 8633
9949 1 8632 8633 8634
9950 1 8633 8634 138
9951 1 8624 8635 8636
9952 1 8635 8636 8637
9953 1 8636 8637 8638
9954 1 8637 8638 8639
9955 1 8627 8640 8641
9956 1 8640 8641 8642
9957 1 8641 8642 8643
9958 1 8642 8643 8644
9959 1 8646 8645 138
9960 1 8645 8646 8647
9961 1 8645 8646 8665
9962 1 8647 8646 8665
9963 1 8646 8647 8648
9964 1 8647 8648 8649
9965 1 8648 8649 8650
9966 1 8649 8650 8651
9967 1 8650 8651 8652
9968 1 8651 8652 8653
9969 1 8652 8653 8654
9970 1 8653 8654 8655
9971 1 8654 8655 8656
9972 1 8655 8656 8657
9973 1 8655 8656 8670
9974 1 8657 8656 8670
9975 1 8656 8657 8658
9976 1 8657 8658 8659
9977 1 8658 8659 8660
9978 1 8658 8659 8675
9979 1 8660 8659 8675
9980 1 8659 8660 8661
9981 1 8659 8660 8680
9982 1 8661 8660 8680
9983 1 8660 8661 8662
9984 1 8661 8662 8663
9985 1 8662 8663 8664
9986 1 8663 8664 139
9987 1 8646 8665 8666
9988 1 8665 8666 8667
9989 1 8666 8667 8668
9990 1 8667 8668 8669
9991 1 8656 8670 8671
9992 1 8670 8671 8672
9993 1 8671 8672 8673
9994 1 8672 8673 8674
9995 1 8659 8675 8676
9996 1 8675 8676 8677
9997 1 8676 8677 8678
9998 1 8677 8678 8679
9999 1 8660 8680 8681
10000 1 8680 8681 8682
10001 1 8681 8682 8683
10002 1 8682 8683 8684
