LAMMPS data file (Dreiding)

4549 atoms
4638 bonds
8148 angles
7422 dihedrals
0 impropers

5 atom types
5 bond types
12 angle types
13 dihedral types
0 improper types

-1000.0 1000.0 xlo xhi
-1000.0 1000.0 ylo yhi
-1000.0 1000.0 zlo zhi

Masses

1 1.0000 # Si_
2 28.0855 # Si3
3 12.0110 # C_3
4 15.9994 # O_3
5 1.0000 # O_

Atoms # full

1 1 1 0.000000000000 0.0 0.0 0.0 # Si_
2 1 1 0.000000000000 0.0 0.0 0.0 # Si_
3 1 1 0.000000000000 0.0 0.0 0.0 # Si_
4 1 1 0.000000000000 0.0 0.0 0.0 # Si_
5 1 1 0.000000000000 0.0 0.0 0.0 # Si_
6 1 1 0.000000000000 0.0 0.0 0.0 # Si_
7 1 1 0.000000000000 0.0 0.0 0.0 # Si_
8 1 1 0.000000000000 0.0 0.0 0.0 # Si_
9 1 1 0.000000000000 0.0 0.0 0.0 # Si_
10 1 1 0.000000000000 0.0 0.0 0.0 # Si_
11 1 1 0.000000000000 0.0 0.0 0.0 # Si_
12 1 1 0.000000000000 0.0 0.0 0.0 # Si_
13 1 1 0.000000000000 0.0 0.0 0.0 # Si_
14 1 1 0.000000000000 0.0 0.0 0.0 # Si_
15 1 1 0.000000000000 0.0 0.0 0.0 # Si_
16 1 1 0.000000000000 0.0 0.0 0.0 # Si_
17 1 2 0.000000000000 0.0 0.0 0.0 # Si3
18 1 3 0.000000000000 0.0 0.0 0.0 # C_3
19 1 3 0.000000000000 0.0 0.0 0.0 # C_3
20 1 3 0.000000000000 0.0 0.0 0.0 # C_3
21 1 1 0.000000000000 0.0 0.0 0.0 # Si_
22 1 1 0.000000000000 0.0 0.0 0.0 # Si_
23 1 1 0.000000000000 0.0 0.0 0.0 # Si_
24 1 1 0.000000000000 0.0 0.0 0.0 # Si_
25 1 1 0.000000000000 0.0 0.0 0.0 # Si_
26 1 1 0.000000000000 0.0 0.0 0.0 # Si_
27 1 1 0.000000000000 0.0 0.0 0.0 # Si_
28 1 1 0.000000000000 0.0 0.0 0.0 # Si_
29 1 1 0.000000000000 0.0 0.0 0.0 # Si_
30 1 1 0.000000000000 0.0 0.0 0.0 # Si_
31 1 1 0.000000000000 0.0 0.0 0.0 # Si_
32 1 1 0.000000000000 0.0 0.0 0.0 # Si_
33 1 1 0.000000000000 0.0 0.0 0.0 # Si_
34 1 1 0.000000000000 0.0 0.0 0.0 # Si_
35 1 1 0.000000000000 0.0 0.0 0.0 # Si_
36 1 1 0.000000000000 0.0 0.0 0.0 # Si_
37 1 1 0.000000000000 0.0 0.0 0.0 # Si_
38 1 1 0.000000000000 0.0 0.0 0.0 # Si_
39 1 1 0.000000000000 0.0 0.0 0.0 # Si_
40 1 1 0.000000000000 0.0 0.0 0.0 # Si_
41 1 1 0.000000000000 0.0 0.0 0.0 # Si_
42 1 1 0.000000000000 0.0 0.0 0.0 # Si_
43 1 1 0.000000000000 0.0 0.0 0.0 # Si_
44 1 1 0.000000000000 0.0 0.0 0.0 # Si_
45 1 1 0.000000000000 0.0 0.0 0.0 # Si_
46 1 1 0.000000000000 0.0 0.0 0.0 # Si_
47 1 1 0.000000000000 0.0 0.0 0.0 # Si_
48 1 1 0.000000000000 0.0 0.0 0.0 # Si_
49 1 2 0.000000000000 0.0 0.0 0.0 # Si3
50 1 3 0.000000000000 0.0 0.0 0.0 # C_3
51 1 3 0.000000000000 0.0 0.0 0.0 # C_3
52 1 3 0.000000000000 0.0 0.0 0.0 # C_3
53 1 1 0.000000000000 0.0 0.0 0.0 # Si_
54 1 1 0.000000000000 0.0 0.0 0.0 # Si_
55 1 2 0.000000000000 0.0 0.0 0.0 # Si3
56 1 3 0.000000000000 0.0 0.0 0.0 # C_3
57 1 3 0.000000000000 0.0 0.0 0.0 # C_3
58 1 3 0.000000000000 0.0 0.0 0.0 # C_3
59 1 1 0.000000000000 0.0 0.0 0.0 # Si_
60 1 1 0.000000000000 0.0 0.0 0.0 # Si_
61 1 1 0.000000000000 0.0 0.0 0.0 # Si_
62 1 1 0.000000000000 0.0 0.0 0.0 # Si_
63 1 1 0.000000000000 0.0 0.0 0.0 # Si_
64 1 1 0.000000000000 0.0 0.0 0.0 # Si_
65 1 1 0.000000000000 0.0 0.0 0.0 # Si_
66 1 1 0.000000000000 0.0 0.0 0.0 # Si_
67 1 1 0.000000000000 0.0 0.0 0.0 # Si_
68 1 1 0.000000000000 0.0 0.0 0.0 # Si_
69 1 1 0.000000000000 0.0 0.0 0.0 # Si_
70 1 1 0.000000000000 0.0 0.0 0.0 # Si_
71 1 1 0.000000000000 0.0 0.0 0.0 # Si_
72 1 1 0.000000000000 0.0 0.0 0.0 # Si_
73 1 1 0.000000000000 0.0 0.0 0.0 # Si_
74 1 1 0.000000000000 0.0 0.0 0.0 # Si_
75 1 1 0.000000000000 0.0 0.0 0.0 # Si_
76 1 1 0.000000000000 0.0 0.0 0.0 # Si_
77 1 1 0.000000000000 0.0 0.0 0.0 # Si_
78 1 2 0.000000000000 0.0 0.0 0.0 # Si3
79 1 3 0.000000000000 0.0 0.0 0.0 # C_3
80 1 3 0.000000000000 0.0 0.0 0.0 # C_3
81 1 3 0.000000000000 0.0 0.0 0.0 # C_3
82 1 1 0.000000000000 0.0 0.0 0.0 # Si_
83 1 1 0.000000000000 0.0 0.0 0.0 # Si_
84 1 2 0.000000000000 0.0 0.0 0.0 # Si3
85 1 3 0.000000000000 0.0 0.0 0.0 # C_3
86 1 3 0.000000000000 0.0 0.0 0.0 # C_3
87 1 3 0.000000000000 0.0 0.0 0.0 # C_3
88 1 1 0.000000000000 0.0 0.0 0.0 # Si_
89 1 1 0.000000000000 0.0 0.0 0.0 # Si_
90 1 1 0.000000000000 0.0 0.0 0.0 # Si_
91 1 1 0.000000000000 0.0 0.0 0.0 # Si_
92 1 1 0.000000000000 0.0 0.0 0.0 # Si_
93 1 1 0.000000000000 0.0 0.0 0.0 # Si_
94 1 1 0.000000000000 0.0 0.0 0.0 # Si_
95 1 1 0.000000000000 0.0 0.0 0.0 # Si_
96 1 1 0.000000000000 0.0 0.0 0.0 # Si_
97 1 1 0.000000000000 0.0 0.0 0.0 # Si_
98 1 1 0.000000000000 0.0 0.0 0.0 # Si_
99 1 1 0.000000000000 0.0 0.0 0.0 # Si_
100 1 1 0.000000000000 0.0 0.0 0.0 # Si_
101 1 1 0.000000000000 0.0 0.0 0.0 # Si_
102 1 1 0.000000000000 0.0 0.0 0.0 # Si_
103 1 1 0.000000000000 0.0 0.0 0.0 # Si_
104 1 1 0.000000000000 0.0 0.0 0.0 # Si_
105 1 1 0.000000000000 0.0 0.0 0.0 # Si_
106 1 1 0.000000000000 0.0 0.0 0.0 # Si_
107 1 1 0.000000000000 0.0 0.0 0.0 # Si_
108 1 1 0.000000000000 0.0 0.0 0.0 # Si_
109 1 1 0.000000000000 0.0 0.0 0.0 # Si_
110 1 1 0.000000000000 0.0 0.0 0.0 # Si_
111 1 1 0.000000000000 0.0 0.0 0.0 # Si_
112 1 1 0.000000000000 0.0 0.0 0.0 # Si_
113 1 1 0.000000000000 0.0 0.0 0.0 # Si_
114 1 1 0.000000000000 0.0 0.0 0.0 # Si_
115 1 1 0.000000000000 0.0 0.0 0.0 # Si_
116 1 1 0.000000000000 0.0 0.0 0.0 # Si_
117 1 1 0.000000000000 0.0 0.0 0.0 # Si_
118 1 1 0.000000000000 0.0 0.0 0.0 # Si_
119 1 1 0.000000000000 0.0 0.0 0.0 # Si_
120 1 1 0.000000000000 0.0 0.0 0.0 # Si_
121 1 1 0.000000000000 0.0 0.0 0.0 # Si_
122 1 1 0.000000000000 0.0 0.0 0.0 # Si_
123 1 1 0.000000000000 0.0 0.0 0.0 # Si_
124 1 1 0.000000000000 0.0 0.0 0.0 # Si_
125 1 1 0.000000000000 0.0 0.0 0.0 # Si_
126 1 1 0.000000000000 0.0 0.0 0.0 # Si_
127 1 2 0.000000000000 0.0 0.0 0.0 # Si3
128 1 3 0.000000000000 0.0 0.0 0.0 # C_3
129 1 3 0.000000000000 0.0 0.0 0.0 # C_3
130 1 3 0.000000000000 0.0 0.0 0.0 # C_3
131 1 1 0.000000000000 0.0 0.0 0.0 # Si_
132 1 1 0.000000000000 0.0 0.0 0.0 # Si_
133 1 1 0.000000000000 0.0 0.0 0.0 # Si_
134 1 1 0.000000000000 0.0 0.0 0.0 # Si_
135 1 1 0.000000000000 0.0 0.0 0.0 # Si_
136 1 1 0.000000000000 0.0 0.0 0.0 # Si_
137 1 1 0.000000000000 0.0 0.0 0.0 # Si_
138 1 1 0.000000000000 0.0 0.0 0.0 # Si_
139 1 1 0.000000000000 0.0 0.0 0.0 # Si_
140 1 2 0.000000000000 0.0 0.0 0.0 # Si3
141 1 3 0.000000000000 0.0 0.0 0.0 # C_3
142 1 3 0.000000000000 0.0 0.0 0.0 # C_3
143 1 4 0.000000000000 0.0 0.0 0.0 # O_3
144 1 2 0.000000000000 0.0 0.0 0.0 # Si3
145 1 3 0.000000000000 0.0 0.0 0.0 # C_3
146 1 3 0.000000000000 0.0 0.0 0.0 # C_3
147 1 4 0.000000000000 0.0 0.0 0.0 # O_3
148 1 2 0.000000000000 0.0 0.0 0.0 # Si3
149 1 3 0.000000000000 0.0 0.0 0.0 # C_3
150 1 3 0.000000000000 0.0 0.0 0.0 # C_3
151 1 4 0.000000000000 0.0 0.0 0.0 # O_3
152 1 2 0.000000000000 0.0 0.0 0.0 # Si3
153 1 3 0.000000000000 0.0 0.0 0.0 # C_3
154 1 3 0.000000000000 0.0 0.0 0.0 # C_3
155 1 4 0.000000000000 0.0 0.0 0.0 # O_3
156 1 2 0.000000000000 0.0 0.0 0.0 # Si3
157 1 3 0.000000000000 0.0 0.0 0.0 # C_3
158 1 3 0.000000000000 0.0 0.0 0.0 # C_3
159 1 4 0.000000000000 0.0 0.0 0.0 # O_3
160 1 5 0.000000000000 0.0 0.0 0.0 # O_
161 1 2 0.000000000000 0.0 0.0 0.0 # Si3
162 1 3 0.000000000000 0.0 0.0 0.0 # C_3
163 1 3 0.000000000000 0.0 0.0 0.0 # C_3
164 1 4 0.000000000000 0.0 0.0 0.0 # O_3
165 1 2 0.000000000000 0.0 0.0 0.0 # Si3
166 1 3 0.000000000000 0.0 0.0 0.0 # C_3
167 1 3 0.000000000000 0.0 0.0 0.0 # C_3
168 1 4 0.000000000000 0.0 0.0 0.0 # O_3
169 1 2 0.000000000000 0.0 0.0 0.0 # Si3
170 1 3 0.000000000000 0.0 0.0 0.0 # C_3
171 1 3 0.000000000000 0.0 0.0 0.0 # C_3
172 1 4 0.000000000000 0.0 0.0 0.0 # O_3
173 1 2 0.000000000000 0.0 0.0 0.0 # Si3
174 1 3 0.000000000000 0.0 0.0 0.0 # C_3
175 1 3 0.000000000000 0.0 0.0 0.0 # C_3
176 1 4 0.000000000000 0.0 0.0 0.0 # O_3
177 1 2 0.000000000000 0.0 0.0 0.0 # Si3
178 1 3 0.000000000000 0.0 0.0 0.0 # C_3
179 1 3 0.000000000000 0.0 0.0 0.0 # C_3
180 1 4 0.000000000000 0.0 0.0 0.0 # O_3
181 1 5 0.000000000000 0.0 0.0 0.0 # O_
182 1 2 0.000000000000 0.0 0.0 0.0 # Si3
183 1 3 0.000000000000 0.0 0.0 0.0 # C_3
184 1 3 0.000000000000 0.0 0.0 0.0 # C_3
185 1 4 0.000000000000 0.0 0.0 0.0 # O_3
186 1 2 0.000000000000 0.0 0.0 0.0 # Si3
187 1 3 0.000000000000 0.0 0.0 0.0 # C_3
188 1 3 0.000000000000 0.0 0.0 0.0 # C_3
189 1 4 0.000000000000 0.0 0.0 0.0 # O_3
190 1 2 0.000000000000 0.0 0.0 0.0 # Si3
191 1 3 0.000000000000 0.0 0.0 0.0 # C_3
192 1 3 0.000000000000 0.0 0.0 0.0 # C_3
193 1 4 0.000000000000 0.0 0.0 0.0 # O_3
194 1 2 0.000000000000 0.0 0.0 0.0 # Si3
195 1 3 0.000000000000 0.0 0.0 0.0 # C_3
196 1 3 0.000000000000 0.0 0.0 0.0 # C_3
197 1 4 0.000000000000 0.0 0.0 0.0 # O_3
198 1 2 0.000000000000 0.0 0.0 0.0 # Si3
199 1 3 0.000000000000 0.0 0.0 0.0 # C_3
200 1 3 0.000000000000 0.0 0.0 0.0 # C_3
201 1 4 0.000000000000 0.0 0.0 0.0 # O_3
202 1 5 0.000000000000 0.0 0.0 0.0 # O_
203 1 2 0.000000000000 0.0 0.0 0.0 # Si3
204 1 3 0.000000000000 0.0 0.0 0.0 # C_3
205 1 3 0.000000000000 0.0 0.0 0.0 # C_3
206 1 4 0.000000000000 0.0 0.0 0.0 # O_3
207 1 2 0.000000000000 0.0 0.0 0.0 # Si3
208 1 3 0.000000000000 0.0 0.0 0.0 # C_3
209 1 3 0.000000000000 0.0 0.0 0.0 # C_3
210 1 4 0.000000000000 0.0 0.0 0.0 # O_3
211 1 2 0.000000000000 0.0 0.0 0.0 # Si3
212 1 3 0.000000000000 0.0 0.0 0.0 # C_3
213 1 3 0.000000000000 0.0 0.0 0.0 # C_3
214 1 4 0.000000000000 0.0 0.0 0.0 # O_3
215 1 2 0.000000000000 0.0 0.0 0.0 # Si3
216 1 3 0.000000000000 0.0 0.0 0.0 # C_3
217 1 3 0.000000000000 0.0 0.0 0.0 # C_3
218 1 4 0.000000000000 0.0 0.0 0.0 # O_3
219 1 2 0.000000000000 0.0 0.0 0.0 # Si3
220 1 3 0.000000000000 0.0 0.0 0.0 # C_3
221 1 3 0.000000000000 0.0 0.0 0.0 # C_3
222 1 4 0.000000000000 0.0 0.0 0.0 # O_3
223 1 5 0.000000000000 0.0 0.0 0.0 # O_
224 1 2 0.000000000000 0.0 0.0 0.0 # Si3
225 1 3 0.000000000000 0.0 0.0 0.0 # C_3
226 1 3 0.000000000000 0.0 0.0 0.0 # C_3
227 1 4 0.000000000000 0.0 0.0 0.0 # O_3
228 1 2 0.000000000000 0.0 0.0 0.0 # Si3
229 1 3 0.000000000000 0.0 0.0 0.0 # C_3
230 1 3 0.000000000000 0.0 0.0 0.0 # C_3
231 1 4 0.000000000000 0.0 0.0 0.0 # O_3
232 1 2 0.000000000000 0.0 0.0 0.0 # Si3
233 1 3 0.000000000000 0.0 0.0 0.0 # C_3
234 1 3 0.000000000000 0.0 0.0 0.0 # C_3
235 1 4 0.000000000000 0.0 0.0 0.0 # O_3
236 1 2 0.000000000000 0.0 0.0 0.0 # Si3
237 1 3 0.000000000000 0.0 0.0 0.0 # C_3
238 1 3 0.000000000000 0.0 0.0 0.0 # C_3
239 1 4 0.000000000000 0.0 0.0 0.0 # O_3
240 1 2 0.000000000000 0.0 0.0 0.0 # Si3
241 1 3 0.000000000000 0.0 0.0 0.0 # C_3
242 1 3 0.000000000000 0.0 0.0 0.0 # C_3
243 1 4 0.000000000000 0.0 0.0 0.0 # O_3
244 1 5 0.000000000000 0.0 0.0 0.0 # O_
245 1 2 0.000000000000 0.0 0.0 0.0 # Si3
246 1 3 0.000000000000 0.0 0.0 0.0 # C_3
247 1 3 0.000000000000 0.0 0.0 0.0 # C_3
248 1 4 0.000000000000 0.0 0.0 0.0 # O_3
249 1 2 0.000000000000 0.0 0.0 0.0 # Si3
250 1 3 0.000000000000 0.0 0.0 0.0 # C_3
251 1 3 0.000000000000 0.0 0.0 0.0 # C_3
252 1 4 0.000000000000 0.0 0.0 0.0 # O_3
253 1 2 0.000000000000 0.0 0.0 0.0 # Si3
254 1 3 0.000000000000 0.0 0.0 0.0 # C_3
255 1 3 0.000000000000 0.0 0.0 0.0 # C_3
256 1 4 0.000000000000 0.0 0.0 0.0 # O_3
257 1 2 0.000000000000 0.0 0.0 0.0 # Si3
258 1 3 0.000000000000 0.0 0.0 0.0 # C_3
259 1 3 0.000000000000 0.0 0.0 0.0 # C_3
260 1 4 0.000000000000 0.0 0.0 0.0 # O_3
261 1 2 0.000000000000 0.0 0.0 0.0 # Si3
262 1 3 0.000000000000 0.0 0.0 0.0 # C_3
263 1 3 0.000000000000 0.0 0.0 0.0 # C_3
264 1 4 0.000000000000 0.0 0.0 0.0 # O_3
265 1 5 0.000000000000 0.0 0.0 0.0 # O_
266 1 2 0.000000000000 0.0 0.0 0.0 # Si3
267 1 3 0.000000000000 0.0 0.0 0.0 # C_3
268 1 3 0.000000000000 0.0 0.0 0.0 # C_3
269 1 4 0.000000000000 0.0 0.0 0.0 # O_3
270 1 2 0.000000000000 0.0 0.0 0.0 # Si3
271 1 3 0.000000000000 0.0 0.0 0.0 # C_3
272 1 3 0.000000000000 0.0 0.0 0.0 # C_3
273 1 4 0.000000000000 0.0 0.0 0.0 # O_3
274 1 2 0.000000000000 0.0 0.0 0.0 # Si3
275 1 3 0.000000000000 0.0 0.0 0.0 # C_3
276 1 3 0.000000000000 0.0 0.0 0.0 # C_3
277 1 4 0.000000000000 0.0 0.0 0.0 # O_3
278 1 2 0.000000000000 0.0 0.0 0.0 # Si3
279 1 3 0.000000000000 0.0 0.0 0.0 # C_3
280 1 3 0.000000000000 0.0 0.0 0.0 # C_3
281 1 4 0.000000000000 0.0 0.0 0.0 # O_3
282 1 2 0.000000000000 0.0 0.0 0.0 # Si3
283 1 3 0.000000000000 0.0 0.0 0.0 # C_3
284 1 3 0.000000000000 0.0 0.0 0.0 # C_3
285 1 4 0.000000000000 0.0 0.0 0.0 # O_3
286 1 5 0.000000000000 0.0 0.0 0.0 # O_
287 1 2 0.000000000000 0.0 0.0 0.0 # Si3
288 1 3 0.000000000000 0.0 0.0 0.0 # C_3
289 1 3 0.000000000000 0.0 0.0 0.0 # C_3
290 1 4 0.000000000000 0.0 0.0 0.0 # O_3
291 1 2 0.000000000000 0.0 0.0 0.0 # Si3
292 1 3 0.000000000000 0.0 0.0 0.0 # C_3
293 1 3 0.000000000000 0.0 0.0 0.0 # C_3
294 1 4 0.000000000000 0.0 0.0 0.0 # O_3
295 1 2 0.000000000000 0.0 0.0 0.0 # Si3
296 1 3 0.000000000000 0.0 0.0 0.0 # C_3
297 1 3 0.000000000000 0.0 0.0 0.0 # C_3
298 1 4 0.000000000000 0.0 0.0 0.0 # O_3
299 1 2 0.000000000000 0.0 0.0 0.0 # Si3
300 1 3 0.000000000000 0.0 0.0 0.0 # C_3
301 1 3 0.000000000000 0.0 0.0 0.0 # C_3
302 1 4 0.000000000000 0.0 0.0 0.0 # O_3
303 1 2 0.000000000000 0.0 0.0 0.0 # Si3
304 1 3 0.000000000000 0.0 0.0 0.0 # C_3
305 1 3 0.000000000000 0.0 0.0 0.0 # C_3
306 1 4 0.000000000000 0.0 0.0 0.0 # O_3
307 1 5 0.000000000000 0.0 0.0 0.0 # O_
308 1 2 0.000000000000 0.0 0.0 0.0 # Si3
309 1 3 0.000000000000 0.0 0.0 0.0 # C_3
310 1 3 0.000000000000 0.0 0.0 0.0 # C_3
311 1 4 0.000000000000 0.0 0.0 0.0 # O_3
312 1 2 0.000000000000 0.0 0.0 0.0 # Si3
313 1 3 0.000000000000 0.0 0.0 0.0 # C_3
314 1 3 0.000000000000 0.0 0.0 0.0 # C_3
315 1 4 0.000000000000 0.0 0.0 0.0 # O_3
316 1 2 0.000000000000 0.0 0.0 0.0 # Si3
317 1 3 0.000000000000 0.0 0.0 0.0 # C_3
318 1 3 0.000000000000 0.0 0.0 0.0 # C_3
319 1 4 0.000000000000 0.0 0.0 0.0 # O_3
320 1 2 0.000000000000 0.0 0.0 0.0 # Si3
321 1 3 0.000000000000 0.0 0.0 0.0 # C_3
322 1 3 0.000000000000 0.0 0.0 0.0 # C_3
323 1 4 0.000000000000 0.0 0.0 0.0 # O_3
324 1 2 0.000000000000 0.0 0.0 0.0 # Si3
325 1 3 0.000000000000 0.0 0.0 0.0 # C_3
326 1 3 0.000000000000 0.0 0.0 0.0 # C_3
327 1 4 0.000000000000 0.0 0.0 0.0 # O_3
328 1 5 0.000000000000 0.0 0.0 0.0 # O_
329 1 2 0.000000000000 0.0 0.0 0.0 # Si3
330 1 3 0.000000000000 0.0 0.0 0.0 # C_3
331 1 3 0.000000000000 0.0 0.0 0.0 # C_3
332 1 4 0.000000000000 0.0 0.0 0.0 # O_3
333 1 2 0.000000000000 0.0 0.0 0.0 # Si3
334 1 3 0.000000000000 0.0 0.0 0.0 # C_3
335 1 3 0.000000000000 0.0 0.0 0.0 # C_3
336 1 4 0.000000000000 0.0 0.0 0.0 # O_3
337 1 2 0.000000000000 0.0 0.0 0.0 # Si3
338 1 3 0.000000000000 0.0 0.0 0.0 # C_3
339 1 3 0.000000000000 0.0 0.0 0.0 # C_3
340 1 4 0.000000000000 0.0 0.0 0.0 # O_3
341 1 2 0.000000000000 0.0 0.0 0.0 # Si3
342 1 3 0.000000000000 0.0 0.0 0.0 # C_3
343 1 3 0.000000000000 0.0 0.0 0.0 # C_3
344 1 4 0.000000000000 0.0 0.0 0.0 # O_3
345 1 2 0.000000000000 0.0 0.0 0.0 # Si3
346 1 3 0.000000000000 0.0 0.0 0.0 # C_3
347 1 3 0.000000000000 0.0 0.0 0.0 # C_3
348 1 4 0.000000000000 0.0 0.0 0.0 # O_3
349 1 5 0.000000000000 0.0 0.0 0.0 # O_
350 1 2 0.000000000000 0.0 0.0 0.0 # Si3
351 1 3 0.000000000000 0.0 0.0 0.0 # C_3
352 1 3 0.000000000000 0.0 0.0 0.0 # C_3
353 1 4 0.000000000000 0.0 0.0 0.0 # O_3
354 1 2 0.000000000000 0.0 0.0 0.0 # Si3
355 1 3 0.000000000000 0.0 0.0 0.0 # C_3
356 1 3 0.000000000000 0.0 0.0 0.0 # C_3
357 1 4 0.000000000000 0.0 0.0 0.0 # O_3
358 1 2 0.000000000000 0.0 0.0 0.0 # Si3
359 1 3 0.000000000000 0.0 0.0 0.0 # C_3
360 1 3 0.000000000000 0.0 0.0 0.0 # C_3
361 1 4 0.000000000000 0.0 0.0 0.0 # O_3
362 1 2 0.000000000000 0.0 0.0 0.0 # Si3
363 1 3 0.000000000000 0.0 0.0 0.0 # C_3
364 1 3 0.000000000000 0.0 0.0 0.0 # C_3
365 1 4 0.000000000000 0.0 0.0 0.0 # O_3
366 1 2 0.000000000000 0.0 0.0 0.0 # Si3
367 1 3 0.000000000000 0.0 0.0 0.0 # C_3
368 1 3 0.000000000000 0.0 0.0 0.0 # C_3
369 1 4 0.000000000000 0.0 0.0 0.0 # O_3
370 1 5 0.000000000000 0.0 0.0 0.0 # O_
371 1 2 0.000000000000 0.0 0.0 0.0 # Si3
372 1 3 0.000000000000 0.0 0.0 0.0 # C_3
373 1 3 0.000000000000 0.0 0.0 0.0 # C_3
374 1 4 0.000000000000 0.0 0.0 0.0 # O_3
375 1 2 0.000000000000 0.0 0.0 0.0 # Si3
376 1 3 0.000000000000 0.0 0.0 0.0 # C_3
377 1 3 0.000000000000 0.0 0.0 0.0 # C_3
378 1 4 0.000000000000 0.0 0.0 0.0 # O_3
379 1 2 0.000000000000 0.0 0.0 0.0 # Si3
380 1 3 0.000000000000 0.0 0.0 0.0 # C_3
381 1 3 0.000000000000 0.0 0.0 0.0 # C_3
382 1 4 0.000000000000 0.0 0.0 0.0 # O_3
383 1 2 0.000000000000 0.0 0.0 0.0 # Si3
384 1 3 0.000000000000 0.0 0.0 0.0 # C_3
385 1 3 0.000000000000 0.0 0.0 0.0 # C_3
386 1 4 0.000000000000 0.0 0.0 0.0 # O_3
387 1 2 0.000000000000 0.0 0.0 0.0 # Si3
388 1 3 0.000000000000 0.0 0.0 0.0 # C_3
389 1 3 0.000000000000 0.0 0.0 0.0 # C_3
390 1 4 0.000000000000 0.0 0.0 0.0 # O_3
391 1 5 0.000000000000 0.0 0.0 0.0 # O_
392 1 2 0.000000000000 0.0 0.0 0.0 # Si3
393 1 3 0.000000000000 0.0 0.0 0.0 # C_3
394 1 3 0.000000000000 0.0 0.0 0.0 # C_3
395 1 4 0.000000000000 0.0 0.0 0.0 # O_3
396 1 2 0.000000000000 0.0 0.0 0.0 # Si3
397 1 3 0.000000000000 0.0 0.0 0.0 # C_3
398 1 3 0.000000000000 0.0 0.0 0.0 # C_3
399 1 4 0.000000000000 0.0 0.0 0.0 # O_3
400 1 2 0.000000000000 0.0 0.0 0.0 # Si3
401 1 3 0.000000000000 0.0 0.0 0.0 # C_3
402 1 3 0.000000000000 0.0 0.0 0.0 # C_3
403 1 4 0.000000000000 0.0 0.0 0.0 # O_3
404 1 2 0.000000000000 0.0 0.0 0.0 # Si3
405 1 3 0.000000000000 0.0 0.0 0.0 # C_3
406 1 3 0.000000000000 0.0 0.0 0.0 # C_3
407 1 4 0.000000000000 0.0 0.0 0.0 # O_3
408 1 2 0.000000000000 0.0 0.0 0.0 # Si3
409 1 3 0.000000000000 0.0 0.0 0.0 # C_3
410 1 3 0.000000000000 0.0 0.0 0.0 # C_3
411 1 4 0.000000000000 0.0 0.0 0.0 # O_3
412 1 5 0.000000000000 0.0 0.0 0.0 # O_
413 1 2 0.000000000000 0.0 0.0 0.0 # Si3
414 1 3 0.000000000000 0.0 0.0 0.0 # C_3
415 1 3 0.000000000000 0.0 0.0 0.0 # C_3
416 1 4 0.000000000000 0.0 0.0 0.0 # O_3
417 1 2 0.000000000000 0.0 0.0 0.0 # Si3
418 1 3 0.000000000000 0.0 0.0 0.0 # C_3
419 1 3 0.000000000000 0.0 0.0 0.0 # C_3
420 1 4 0.000000000000 0.0 0.0 0.0 # O_3
421 1 2 0.000000000000 0.0 0.0 0.0 # Si3
422 1 3 0.000000000000 0.0 0.0 0.0 # C_3
423 1 3 0.000000000000 0.0 0.0 0.0 # C_3
424 1 4 0.000000000000 0.0 0.0 0.0 # O_3
425 1 2 0.000000000000 0.0 0.0 0.0 # Si3
426 1 3 0.000000000000 0.0 0.0 0.0 # C_3
427 1 3 0.000000000000 0.0 0.0 0.0 # C_3
428 1 4 0.000000000000 0.0 0.0 0.0 # O_3
429 1 2 0.000000000000 0.0 0.0 0.0 # Si3
430 1 3 0.000000000000 0.0 0.0 0.0 # C_3
431 1 3 0.000000000000 0.0 0.0 0.0 # C_3
432 1 4 0.000000000000 0.0 0.0 0.0 # O_3
433 1 5 0.000000000000 0.0 0.0 0.0 # O_
434 1 2 0.000000000000 0.0 0.0 0.0 # Si3
435 1 3 0.000000000000 0.0 0.0 0.0 # C_3
436 1 3 0.000000000000 0.0 0.0 0.0 # C_3
437 1 4 0.000000000000 0.0 0.0 0.0 # O_3
438 1 2 0.000000000000 0.0 0.0 0.0 # Si3
439 1 3 0.000000000000 0.0 0.0 0.0 # C_3
440 1 3 0.000000000000 0.0 0.0 0.0 # C_3
441 1 4 0.000000000000 0.0 0.0 0.0 # O_3
442 1 2 0.000000000000 0.0 0.0 0.0 # Si3
443 1 3 0.000000000000 0.0 0.0 0.0 # C_3
444 1 3 0.000000000000 0.0 0.0 0.0 # C_3
445 1 4 0.000000000000 0.0 0.0 0.0 # O_3
446 1 2 0.000000000000 0.0 0.0 0.0 # Si3
447 1 3 0.000000000000 0.0 0.0 0.0 # C_3
448 1 3 0.000000000000 0.0 0.0 0.0 # C_3
449 1 4 0.000000000000 0.0 0.0 0.0 # O_3
450 1 2 0.000000000000 0.0 0.0 0.0 # Si3
451 1 3 0.000000000000 0.0 0.0 0.0 # C_3
452 1 3 0.000000000000 0.0 0.0 0.0 # C_3
453 1 4 0.000000000000 0.0 0.0 0.0 # O_3
454 1 5 0.000000000000 0.0 0.0 0.0 # O_
455 1 2 0.000000000000 0.0 0.0 0.0 # Si3
456 1 3 0.000000000000 0.0 0.0 0.0 # C_3
457 1 3 0.000000000000 0.0 0.0 0.0 # C_3
458 1 4 0.000000000000 0.0 0.0 0.0 # O_3
459 1 2 0.000000000000 0.0 0.0 0.0 # Si3
460 1 3 0.000000000000 0.0 0.0 0.0 # C_3
461 1 3 0.000000000000 0.0 0.0 0.0 # C_3
462 1 4 0.000000000000 0.0 0.0 0.0 # O_3
463 1 2 0.000000000000 0.0 0.0 0.0 # Si3
464 1 3 0.000000000000 0.0 0.0 0.0 # C_3
465 1 3 0.000000000000 0.0 0.0 0.0 # C_3
466 1 4 0.000000000000 0.0 0.0 0.0 # O_3
467 1 2 0.000000000000 0.0 0.0 0.0 # Si3
468 1 3 0.000000000000 0.0 0.0 0.0 # C_3
469 1 3 0.000000000000 0.0 0.0 0.0 # C_3
470 1 4 0.000000000000 0.0 0.0 0.0 # O_3
471 1 2 0.000000000000 0.0 0.0 0.0 # Si3
472 1 3 0.000000000000 0.0 0.0 0.0 # C_3
473 1 3 0.000000000000 0.0 0.0 0.0 # C_3
474 1 4 0.000000000000 0.0 0.0 0.0 # O_3
475 1 5 0.000000000000 0.0 0.0 0.0 # O_
476 1 2 0.000000000000 0.0 0.0 0.0 # Si3
477 1 3 0.000000000000 0.0 0.0 0.0 # C_3
478 1 3 0.000000000000 0.0 0.0 0.0 # C_3
479 1 4 0.000000000000 0.0 0.0 0.0 # O_3
480 1 2 0.000000000000 0.0 0.0 0.0 # Si3
481 1 3 0.000000000000 0.0 0.0 0.0 # C_3
482 1 3 0.000000000000 0.0 0.0 0.0 # C_3
483 1 4 0.000000000000 0.0 0.0 0.0 # O_3
484 1 2 0.000000000000 0.0 0.0 0.0 # Si3
485 1 3 0.000000000000 0.0 0.0 0.0 # C_3
486 1 3 0.000000000000 0.0 0.0 0.0 # C_3
487 1 4 0.000000000000 0.0 0.0 0.0 # O_3
488 1 2 0.000000000000 0.0 0.0 0.0 # Si3
489 1 3 0.000000000000 0.0 0.0 0.0 # C_3
490 1 3 0.000000000000 0.0 0.0 0.0 # C_3
491 1 4 0.000000000000 0.0 0.0 0.0 # O_3
492 1 2 0.000000000000 0.0 0.0 0.0 # Si3
493 1 3 0.000000000000 0.0 0.0 0.0 # C_3
494 1 3 0.000000000000 0.0 0.0 0.0 # C_3
495 1 4 0.000000000000 0.0 0.0 0.0 # O_3
496 1 5 0.000000000000 0.0 0.0 0.0 # O_
497 1 2 0.000000000000 0.0 0.0 0.0 # Si3
498 1 3 0.000000000000 0.0 0.0 0.0 # C_3
499 1 3 0.000000000000 0.0 0.0 0.0 # C_3
500 1 4 0.000000000000 0.0 0.0 0.0 # O_3
501 1 2 0.000000000000 0.0 0.0 0.0 # Si3
502 1 3 0.000000000000 0.0 0.0 0.0 # C_3
503 1 3 0.000000000000 0.0 0.0 0.0 # C_3
504 1 4 0.000000000000 0.0 0.0 0.0 # O_3
505 1 2 0.000000000000 0.0 0.0 0.0 # Si3
506 1 3 0.000000000000 0.0 0.0 0.0 # C_3
507 1 3 0.000000000000 0.0 0.0 0.0 # C_3
508 1 4 0.000000000000 0.0 0.0 0.0 # O_3
509 1 2 0.000000000000 0.0 0.0 0.0 # Si3
510 1 3 0.000000000000 0.0 0.0 0.0 # C_3
511 1 3 0.000000000000 0.0 0.0 0.0 # C_3
512 1 4 0.000000000000 0.0 0.0 0.0 # O_3
513 1 2 0.000000000000 0.0 0.0 0.0 # Si3
514 1 3 0.000000000000 0.0 0.0 0.0 # C_3
515 1 3 0.000000000000 0.0 0.0 0.0 # C_3
516 1 4 0.000000000000 0.0 0.0 0.0 # O_3
517 1 5 0.000000000000 0.0 0.0 0.0 # O_
518 1 2 0.000000000000 0.0 0.0 0.0 # Si3
519 1 3 0.000000000000 0.0 0.0 0.0 # C_3
520 1 3 0.000000000000 0.0 0.0 0.0 # C_3
521 1 4 0.000000000000 0.0 0.0 0.0 # O_3
522 1 2 0.000000000000 0.0 0.0 0.0 # Si3
523 1 3 0.000000000000 0.0 0.0 0.0 # C_3
524 1 3 0.000000000000 0.0 0.0 0.0 # C_3
525 1 4 0.000000000000 0.0 0.0 0.0 # O_3
526 1 2 0.000000000000 0.0 0.0 0.0 # Si3
527 1 3 0.000000000000 0.0 0.0 0.0 # C_3
528 1 3 0.000000000000 0.0 0.0 0.0 # C_3
529 1 4 0.000000000000 0.0 0.0 0.0 # O_3
530 1 2 0.000000000000 0.0 0.0 0.0 # Si3
531 1 3 0.000000000000 0.0 0.0 0.0 # C_3
532 1 3 0.000000000000 0.0 0.0 0.0 # C_3
533 1 4 0.000000000000 0.0 0.0 0.0 # O_3
534 1 2 0.000000000000 0.0 0.0 0.0 # Si3
535 1 3 0.000000000000 0.0 0.0 0.0 # C_3
536 1 3 0.000000000000 0.0 0.0 0.0 # C_3
537 1 4 0.000000000000 0.0 0.0 0.0 # O_3
538 1 5 0.000000000000 0.0 0.0 0.0 # O_
539 1 2 0.000000000000 0.0 0.0 0.0 # Si3
540 1 3 0.000000000000 0.0 0.0 0.0 # C_3
541 1 3 0.000000000000 0.0 0.0 0.0 # C_3
542 1 4 0.000000000000 0.0 0.0 0.0 # O_3
543 1 2 0.000000000000 0.0 0.0 0.0 # Si3
544 1 3 0.000000000000 0.0 0.0 0.0 # C_3
545 1 3 0.000000000000 0.0 0.0 0.0 # C_3
546 1 4 0.000000000000 0.0 0.0 0.0 # O_3
547 1 2 0.000000000000 0.0 0.0 0.0 # Si3
548 1 3 0.000000000000 0.0 0.0 0.0 # C_3
549 1 3 0.000000000000 0.0 0.0 0.0 # C_3
550 1 4 0.000000000000 0.0 0.0 0.0 # O_3
551 1 2 0.000000000000 0.0 0.0 0.0 # Si3
552 1 3 0.000000000000 0.0 0.0 0.0 # C_3
553 1 3 0.000000000000 0.0 0.0 0.0 # C_3
554 1 4 0.000000000000 0.0 0.0 0.0 # O_3
555 1 2 0.000000000000 0.0 0.0 0.0 # Si3
556 1 3 0.000000000000 0.0 0.0 0.0 # C_3
557 1 3 0.000000000000 0.0 0.0 0.0 # C_3
558 1 4 0.000000000000 0.0 0.0 0.0 # O_3
559 1 5 0.000000000000 0.0 0.0 0.0 # O_
560 1 2 0.000000000000 0.0 0.0 0.0 # Si3
561 1 3 0.000000000000 0.0 0.0 0.0 # C_3
562 1 3 0.000000000000 0.0 0.0 0.0 # C_3
563 1 4 0.000000000000 0.0 0.0 0.0 # O_3
564 1 2 0.000000000000 0.0 0.0 0.0 # Si3
565 1 3 0.000000000000 0.0 0.0 0.0 # C_3
566 1 3 0.000000000000 0.0 0.0 0.0 # C_3
567 1 4 0.000000000000 0.0 0.0 0.0 # O_3
568 1 2 0.000000000000 0.0 0.0 0.0 # Si3
569 1 3 0.000000000000 0.0 0.0 0.0 # C_3
570 1 3 0.000000000000 0.0 0.0 0.0 # C_3
571 1 4 0.000000000000 0.0 0.0 0.0 # O_3
572 1 2 0.000000000000 0.0 0.0 0.0 # Si3
573 1 3 0.000000000000 0.0 0.0 0.0 # C_3
574 1 3 0.000000000000 0.0 0.0 0.0 # C_3
575 1 4 0.000000000000 0.0 0.0 0.0 # O_3
576 1 2 0.000000000000 0.0 0.0 0.0 # Si3
577 1 3 0.000000000000 0.0 0.0 0.0 # C_3
578 1 3 0.000000000000 0.0 0.0 0.0 # C_3
579 1 4 0.000000000000 0.0 0.0 0.0 # O_3
580 1 5 0.000000000000 0.0 0.0 0.0 # O_
581 1 2 0.000000000000 0.0 0.0 0.0 # Si3
582 1 3 0.000000000000 0.0 0.0 0.0 # C_3
583 1 3 0.000000000000 0.0 0.0 0.0 # C_3
584 1 4 0.000000000000 0.0 0.0 0.0 # O_3
585 1 2 0.000000000000 0.0 0.0 0.0 # Si3
586 1 3 0.000000000000 0.0 0.0 0.0 # C_3
587 1 3 0.000000000000 0.0 0.0 0.0 # C_3
588 1 4 0.000000000000 0.0 0.0 0.0 # O_3
589 1 2 0.000000000000 0.0 0.0 0.0 # Si3
590 1 3 0.000000000000 0.0 0.0 0.0 # C_3
591 1 3 0.000000000000 0.0 0.0 0.0 # C_3
592 1 4 0.000000000000 0.0 0.0 0.0 # O_3
593 1 2 0.000000000000 0.0 0.0 0.0 # Si3
594 1 3 0.000000000000 0.0 0.0 0.0 # C_3
595 1 3 0.000000000000 0.0 0.0 0.0 # C_3
596 1 4 0.000000000000 0.0 0.0 0.0 # O_3
597 1 2 0.000000000000 0.0 0.0 0.0 # Si3
598 1 3 0.000000000000 0.0 0.0 0.0 # C_3
599 1 3 0.000000000000 0.0 0.0 0.0 # C_3
600 1 4 0.000000000000 0.0 0.0 0.0 # O_3
601 1 5 0.000000000000 0.0 0.0 0.0 # O_
602 1 2 0.000000000000 0.0 0.0 0.0 # Si3
603 1 3 0.000000000000 0.0 0.0 0.0 # C_3
604 1 3 0.000000000000 0.0 0.0 0.0 # C_3
605 1 4 0.000000000000 0.0 0.0 0.0 # O_3
606 1 2 0.000000000000 0.0 0.0 0.0 # Si3
607 1 3 0.000000000000 0.0 0.0 0.0 # C_3
608 1 3 0.000000000000 0.0 0.0 0.0 # C_3
609 1 4 0.000000000000 0.0 0.0 0.0 # O_3
610 1 2 0.000000000000 0.0 0.0 0.0 # Si3
611 1 3 0.000000000000 0.0 0.0 0.0 # C_3
612 1 3 0.000000000000 0.0 0.0 0.0 # C_3
613 1 4 0.000000000000 0.0 0.0 0.0 # O_3
614 1 2 0.000000000000 0.0 0.0 0.0 # Si3
615 1 3 0.000000000000 0.0 0.0 0.0 # C_3
616 1 3 0.000000000000 0.0 0.0 0.0 # C_3
617 1 4 0.000000000000 0.0 0.0 0.0 # O_3
618 1 2 0.000000000000 0.0 0.0 0.0 # Si3
619 1 3 0.000000000000 0.0 0.0 0.0 # C_3
620 1 3 0.000000000000 0.0 0.0 0.0 # C_3
621 1 4 0.000000000000 0.0 0.0 0.0 # O_3
622 1 5 0.000000000000 0.0 0.0 0.0 # O_
623 1 2 0.000000000000 0.0 0.0 0.0 # Si3
624 1 3 0.000000000000 0.0 0.0 0.0 # C_3
625 1 3 0.000000000000 0.0 0.0 0.0 # C_3
626 1 4 0.000000000000 0.0 0.0 0.0 # O_3
627 1 2 0.000000000000 0.0 0.0 0.0 # Si3
628 1 3 0.000000000000 0.0 0.0 0.0 # C_3
629 1 3 0.000000000000 0.0 0.0 0.0 # C_3
630 1 4 0.000000000000 0.0 0.0 0.0 # O_3
631 1 2 0.000000000000 0.0 0.0 0.0 # Si3
632 1 3 0.000000000000 0.0 0.0 0.0 # C_3
633 1 3 0.000000000000 0.0 0.0 0.0 # C_3
634 1 4 0.000000000000 0.0 0.0 0.0 # O_3
635 1 2 0.000000000000 0.0 0.0 0.0 # Si3
636 1 3 0.000000000000 0.0 0.0 0.0 # C_3
637 1 3 0.000000000000 0.0 0.0 0.0 # C_3
638 1 4 0.000000000000 0.0 0.0 0.0 # O_3
639 1 2 0.000000000000 0.0 0.0 0.0 # Si3
640 1 3 0.000000000000 0.0 0.0 0.0 # C_3
641 1 3 0.000000000000 0.0 0.0 0.0 # C_3
642 1 4 0.000000000000 0.0 0.0 0.0 # O_3
643 1 5 0.000000000000 0.0 0.0 0.0 # O_
644 1 2 0.000000000000 0.0 0.0 0.0 # Si3
645 1 3 0.000000000000 0.0 0.0 0.0 # C_3
646 1 3 0.000000000000 0.0 0.0 0.0 # C_3
647 1 4 0.000000000000 0.0 0.0 0.0 # O_3
648 1 2 0.000000000000 0.0 0.0 0.0 # Si3
649 1 3 0.000000000000 0.0 0.0 0.0 # C_3
650 1 3 0.000000000000 0.0 0.0 0.0 # C_3
651 1 4 0.000000000000 0.0 0.0 0.0 # O_3
652 1 2 0.000000000000 0.0 0.0 0.0 # Si3
653 1 3 0.000000000000 0.0 0.0 0.0 # C_3
654 1 3 0.000000000000 0.0 0.0 0.0 # C_3
655 1 4 0.000000000000 0.0 0.0 0.0 # O_3
656 1 2 0.000000000000 0.0 0.0 0.0 # Si3
657 1 3 0.000000000000 0.0 0.0 0.0 # C_3
658 1 3 0.000000000000 0.0 0.0 0.0 # C_3
659 1 4 0.000000000000 0.0 0.0 0.0 # O_3
660 1 2 0.000000000000 0.0 0.0 0.0 # Si3
661 1 3 0.000000000000 0.0 0.0 0.0 # C_3
662 1 3 0.000000000000 0.0 0.0 0.0 # C_3
663 1 4 0.000000000000 0.0 0.0 0.0 # O_3
664 1 5 0.000000000000 0.0 0.0 0.0 # O_
665 1 2 0.000000000000 0.0 0.0 0.0 # Si3
666 1 3 0.000000000000 0.0 0.0 0.0 # C_3
667 1 3 0.000000000000 0.0 0.0 0.0 # C_3
668 1 4 0.000000000000 0.0 0.0 0.0 # O_3
669 1 2 0.000000000000 0.0 0.0 0.0 # Si3
670 1 3 0.000000000000 0.0 0.0 0.0 # C_3
671 1 3 0.000000000000 0.0 0.0 0.0 # C_3
672 1 4 0.000000000000 0.0 0.0 0.0 # O_3
673 1 2 0.000000000000 0.0 0.0 0.0 # Si3
674 1 3 0.000000000000 0.0 0.0 0.0 # C_3
675 1 3 0.000000000000 0.0 0.0 0.0 # C_3
676 1 4 0.000000000000 0.0 0.0 0.0 # O_3
677 1 2 0.000000000000 0.0 0.0 0.0 # Si3
678 1 3 0.000000000000 0.0 0.0 0.0 # C_3
679 1 3 0.000000000000 0.0 0.0 0.0 # C_3
680 1 4 0.000000000000 0.0 0.0 0.0 # O_3
681 1 2 0.000000000000 0.0 0.0 0.0 # Si3
682 1 3 0.000000000000 0.0 0.0 0.0 # C_3
683 1 3 0.000000000000 0.0 0.0 0.0 # C_3
684 1 4 0.000000000000 0.0 0.0 0.0 # O_3
685 1 5 0.000000000000 0.0 0.0 0.0 # O_
686 1 2 0.000000000000 0.0 0.0 0.0 # Si3
687 1 3 0.000000000000 0.0 0.0 0.0 # C_3
688 1 3 0.000000000000 0.0 0.0 0.0 # C_3
689 1 4 0.000000000000 0.0 0.0 0.0 # O_3
690 1 2 0.000000000000 0.0 0.0 0.0 # Si3
691 1 3 0.000000000000 0.0 0.0 0.0 # C_3
692 1 3 0.000000000000 0.0 0.0 0.0 # C_3
693 1 4 0.000000000000 0.0 0.0 0.0 # O_3
694 1 2 0.000000000000 0.0 0.0 0.0 # Si3
695 1 3 0.000000000000 0.0 0.0 0.0 # C_3
696 1 3 0.000000000000 0.0 0.0 0.0 # C_3
697 1 4 0.000000000000 0.0 0.0 0.0 # O_3
698 1 2 0.000000000000 0.0 0.0 0.0 # Si3
699 1 3 0.000000000000 0.0 0.0 0.0 # C_3
700 1 3 0.000000000000 0.0 0.0 0.0 # C_3
701 1 4 0.000000000000 0.0 0.0 0.0 # O_3
702 1 2 0.000000000000 0.0 0.0 0.0 # Si3
703 1 3 0.000000000000 0.0 0.0 0.0 # C_3
704 1 3 0.000000000000 0.0 0.0 0.0 # C_3
705 1 4 0.000000000000 0.0 0.0 0.0 # O_3
706 1 5 0.000000000000 0.0 0.0 0.0 # O_
707 1 2 0.000000000000 0.0 0.0 0.0 # Si3
708 1 3 0.000000000000 0.0 0.0 0.0 # C_3
709 1 3 0.000000000000 0.0 0.0 0.0 # C_3
710 1 4 0.000000000000 0.0 0.0 0.0 # O_3
711 1 2 0.000000000000 0.0 0.0 0.0 # Si3
712 1 3 0.000000000000 0.0 0.0 0.0 # C_3
713 1 3 0.000000000000 0.0 0.0 0.0 # C_3
714 1 4 0.000000000000 0.0 0.0 0.0 # O_3
715 1 2 0.000000000000 0.0 0.0 0.0 # Si3
716 1 3 0.000000000000 0.0 0.0 0.0 # C_3
717 1 3 0.000000000000 0.0 0.0 0.0 # C_3
718 1 4 0.000000000000 0.0 0.0 0.0 # O_3
719 1 2 0.000000000000 0.0 0.0 0.0 # Si3
720 1 3 0.000000000000 0.0 0.0 0.0 # C_3
721 1 3 0.000000000000 0.0 0.0 0.0 # C_3
722 1 4 0.000000000000 0.0 0.0 0.0 # O_3
723 1 2 0.000000000000 0.0 0.0 0.0 # Si3
724 1 3 0.000000000000 0.0 0.0 0.0 # C_3
725 1 3 0.000000000000 0.0 0.0 0.0 # C_3
726 1 4 0.000000000000 0.0 0.0 0.0 # O_3
727 1 5 0.000000000000 0.0 0.0 0.0 # O_
728 1 2 0.000000000000 0.0 0.0 0.0 # Si3
729 1 3 0.000000000000 0.0 0.0 0.0 # C_3
730 1 3 0.000000000000 0.0 0.0 0.0 # C_3
731 1 4 0.000000000000 0.0 0.0 0.0 # O_3
732 1 2 0.000000000000 0.0 0.0 0.0 # Si3
733 1 3 0.000000000000 0.0 0.0 0.0 # C_3
734 1 3 0.000000000000 0.0 0.0 0.0 # C_3
735 1 4 0.000000000000 0.0 0.0 0.0 # O_3
736 1 2 0.000000000000 0.0 0.0 0.0 # Si3
737 1 3 0.000000000000 0.0 0.0 0.0 # C_3
738 1 3 0.000000000000 0.0 0.0 0.0 # C_3
739 1 4 0.000000000000 0.0 0.0 0.0 # O_3
740 1 2 0.000000000000 0.0 0.0 0.0 # Si3
741 1 3 0.000000000000 0.0 0.0 0.0 # C_3
742 1 3 0.000000000000 0.0 0.0 0.0 # C_3
743 1 4 0.000000000000 0.0 0.0 0.0 # O_3
744 1 2 0.000000000000 0.0 0.0 0.0 # Si3
745 1 3 0.000000000000 0.0 0.0 0.0 # C_3
746 1 3 0.000000000000 0.0 0.0 0.0 # C_3
747 1 4 0.000000000000 0.0 0.0 0.0 # O_3
748 1 5 0.000000000000 0.0 0.0 0.0 # O_
749 1 2 0.000000000000 0.0 0.0 0.0 # Si3
750 1 3 0.000000000000 0.0 0.0 0.0 # C_3
751 1 3 0.000000000000 0.0 0.0 0.0 # C_3
752 1 4 0.000000000000 0.0 0.0 0.0 # O_3
753 1 2 0.000000000000 0.0 0.0 0.0 # Si3
754 1 3 0.000000000000 0.0 0.0 0.0 # C_3
755 1 3 0.000000000000 0.0 0.0 0.0 # C_3
756 1 4 0.000000000000 0.0 0.0 0.0 # O_3
757 1 2 0.000000000000 0.0 0.0 0.0 # Si3
758 1 3 0.000000000000 0.0 0.0 0.0 # C_3
759 1 3 0.000000000000 0.0 0.0 0.0 # C_3
760 1 4 0.000000000000 0.0 0.0 0.0 # O_3
761 1 2 0.000000000000 0.0 0.0 0.0 # Si3
762 1 3 0.000000000000 0.0 0.0 0.0 # C_3
763 1 3 0.000000000000 0.0 0.0 0.0 # C_3
764 1 4 0.000000000000 0.0 0.0 0.0 # O_3
765 1 2 0.000000000000 0.0 0.0 0.0 # Si3
766 1 3 0.000000000000 0.0 0.0 0.0 # C_3
767 1 3 0.000000000000 0.0 0.0 0.0 # C_3
768 1 4 0.000000000000 0.0 0.0 0.0 # O_3
769 1 5 0.000000000000 0.0 0.0 0.0 # O_
770 1 2 0.000000000000 0.0 0.0 0.0 # Si3
771 1 3 0.000000000000 0.0 0.0 0.0 # C_3
772 1 3 0.000000000000 0.0 0.0 0.0 # C_3
773 1 4 0.000000000000 0.0 0.0 0.0 # O_3
774 1 2 0.000000000000 0.0 0.0 0.0 # Si3
775 1 3 0.000000000000 0.0 0.0 0.0 # C_3
776 1 3 0.000000000000 0.0 0.0 0.0 # C_3
777 1 4 0.000000000000 0.0 0.0 0.0 # O_3
778 1 2 0.000000000000 0.0 0.0 0.0 # Si3
779 1 3 0.000000000000 0.0 0.0 0.0 # C_3
780 1 3 0.000000000000 0.0 0.0 0.0 # C_3
781 1 4 0.000000000000 0.0 0.0 0.0 # O_3
782 1 2 0.000000000000 0.0 0.0 0.0 # Si3
783 1 3 0.000000000000 0.0 0.0 0.0 # C_3
784 1 3 0.000000000000 0.0 0.0 0.0 # C_3
785 1 4 0.000000000000 0.0 0.0 0.0 # O_3
786 1 2 0.000000000000 0.0 0.0 0.0 # Si3
787 1 3 0.000000000000 0.0 0.0 0.0 # C_3
788 1 3 0.000000000000 0.0 0.0 0.0 # C_3
789 1 4 0.000000000000 0.0 0.0 0.0 # O_3
790 1 5 0.000000000000 0.0 0.0 0.0 # O_
791 1 2 0.000000000000 0.0 0.0 0.0 # Si3
792 1 3 0.000000000000 0.0 0.0 0.0 # C_3
793 1 3 0.000000000000 0.0 0.0 0.0 # C_3
794 1 4 0.000000000000 0.0 0.0 0.0 # O_3
795 1 2 0.000000000000 0.0 0.0 0.0 # Si3
796 1 3 0.000000000000 0.0 0.0 0.0 # C_3
797 1 3 0.000000000000 0.0 0.0 0.0 # C_3
798 1 4 0.000000000000 0.0 0.0 0.0 # O_3
799 1 2 0.000000000000 0.0 0.0 0.0 # Si3
800 1 3 0.000000000000 0.0 0.0 0.0 # C_3
801 1 3 0.000000000000 0.0 0.0 0.0 # C_3
802 1 4 0.000000000000 0.0 0.0 0.0 # O_3
803 1 2 0.000000000000 0.0 0.0 0.0 # Si3
804 1 3 0.000000000000 0.0 0.0 0.0 # C_3
805 1 3 0.000000000000 0.0 0.0 0.0 # C_3
806 1 4 0.000000000000 0.0 0.0 0.0 # O_3
807 1 2 0.000000000000 0.0 0.0 0.0 # Si3
808 1 3 0.000000000000 0.0 0.0 0.0 # C_3
809 1 3 0.000000000000 0.0 0.0 0.0 # C_3
810 1 4 0.000000000000 0.0 0.0 0.0 # O_3
811 1 5 0.000000000000 0.0 0.0 0.0 # O_
812 1 2 0.000000000000 0.0 0.0 0.0 # Si3
813 1 3 0.000000000000 0.0 0.0 0.0 # C_3
814 1 3 0.000000000000 0.0 0.0 0.0 # C_3
815 1 4 0.000000000000 0.0 0.0 0.0 # O_3
816 1 2 0.000000000000 0.0 0.0 0.0 # Si3
817 1 3 0.000000000000 0.0 0.0 0.0 # C_3
818 1 3 0.000000000000 0.0 0.0 0.0 # C_3
819 1 4 0.000000000000 0.0 0.0 0.0 # O_3
820 1 2 0.000000000000 0.0 0.0 0.0 # Si3
821 1 3 0.000000000000 0.0 0.0 0.0 # C_3
822 1 3 0.000000000000 0.0 0.0 0.0 # C_3
823 1 4 0.000000000000 0.0 0.0 0.0 # O_3
824 1 2 0.000000000000 0.0 0.0 0.0 # Si3
825 1 3 0.000000000000 0.0 0.0 0.0 # C_3
826 1 3 0.000000000000 0.0 0.0 0.0 # C_3
827 1 4 0.000000000000 0.0 0.0 0.0 # O_3
828 1 2 0.000000000000 0.0 0.0 0.0 # Si3
829 1 3 0.000000000000 0.0 0.0 0.0 # C_3
830 1 3 0.000000000000 0.0 0.0 0.0 # C_3
831 1 4 0.000000000000 0.0 0.0 0.0 # O_3
832 1 5 0.000000000000 0.0 0.0 0.0 # O_
833 1 2 0.000000000000 0.0 0.0 0.0 # Si3
834 1 3 0.000000000000 0.0 0.0 0.0 # C_3
835 1 3 0.000000000000 0.0 0.0 0.0 # C_3
836 1 4 0.000000000000 0.0 0.0 0.0 # O_3
837 1 2 0.000000000000 0.0 0.0 0.0 # Si3
838 1 3 0.000000000000 0.0 0.0 0.0 # C_3
839 1 3 0.000000000000 0.0 0.0 0.0 # C_3
840 1 4 0.000000000000 0.0 0.0 0.0 # O_3
841 1 2 0.000000000000 0.0 0.0 0.0 # Si3
842 1 3 0.000000000000 0.0 0.0 0.0 # C_3
843 1 3 0.000000000000 0.0 0.0 0.0 # C_3
844 1 4 0.000000000000 0.0 0.0 0.0 # O_3
845 1 2 0.000000000000 0.0 0.0 0.0 # Si3
846 1 3 0.000000000000 0.0 0.0 0.0 # C_3
847 1 3 0.000000000000 0.0 0.0 0.0 # C_3
848 1 4 0.000000000000 0.0 0.0 0.0 # O_3
849 1 2 0.000000000000 0.0 0.0 0.0 # Si3
850 1 3 0.000000000000 0.0 0.0 0.0 # C_3
851 1 3 0.000000000000 0.0 0.0 0.0 # C_3
852 1 4 0.000000000000 0.0 0.0 0.0 # O_3
853 1 5 0.000000000000 0.0 0.0 0.0 # O_
854 1 2 0.000000000000 0.0 0.0 0.0 # Si3
855 1 3 0.000000000000 0.0 0.0 0.0 # C_3
856 1 3 0.000000000000 0.0 0.0 0.0 # C_3
857 1 4 0.000000000000 0.0 0.0 0.0 # O_3
858 1 2 0.000000000000 0.0 0.0 0.0 # Si3
859 1 3 0.000000000000 0.0 0.0 0.0 # C_3
860 1 3 0.000000000000 0.0 0.0 0.0 # C_3
861 1 4 0.000000000000 0.0 0.0 0.0 # O_3
862 1 2 0.000000000000 0.0 0.0 0.0 # Si3
863 1 3 0.000000000000 0.0 0.0 0.0 # C_3
864 1 3 0.000000000000 0.0 0.0 0.0 # C_3
865 1 4 0.000000000000 0.0 0.0 0.0 # O_3
866 1 2 0.000000000000 0.0 0.0 0.0 # Si3
867 1 3 0.000000000000 0.0 0.0 0.0 # C_3
868 1 3 0.000000000000 0.0 0.0 0.0 # C_3
869 1 4 0.000000000000 0.0 0.0 0.0 # O_3
870 1 2 0.000000000000 0.0 0.0 0.0 # Si3
871 1 3 0.000000000000 0.0 0.0 0.0 # C_3
872 1 3 0.000000000000 0.0 0.0 0.0 # C_3
873 1 4 0.000000000000 0.0 0.0 0.0 # O_3
874 1 5 0.000000000000 0.0 0.0 0.0 # O_
875 1 2 0.000000000000 0.0 0.0 0.0 # Si3
876 1 3 0.000000000000 0.0 0.0 0.0 # C_3
877 1 3 0.000000000000 0.0 0.0 0.0 # C_3
878 1 4 0.000000000000 0.0 0.0 0.0 # O_3
879 1 2 0.000000000000 0.0 0.0 0.0 # Si3
880 1 3 0.000000000000 0.0 0.0 0.0 # C_3
881 1 3 0.000000000000 0.0 0.0 0.0 # C_3
882 1 4 0.000000000000 0.0 0.0 0.0 # O_3
883 1 2 0.000000000000 0.0 0.0 0.0 # Si3
884 1 3 0.000000000000 0.0 0.0 0.0 # C_3
885 1 3 0.000000000000 0.0 0.0 0.0 # C_3
886 1 4 0.000000000000 0.0 0.0 0.0 # O_3
887 1 2 0.000000000000 0.0 0.0 0.0 # Si3
888 1 3 0.000000000000 0.0 0.0 0.0 # C_3
889 1 3 0.000000000000 0.0 0.0 0.0 # C_3
890 1 4 0.000000000000 0.0 0.0 0.0 # O_3
891 1 2 0.000000000000 0.0 0.0 0.0 # Si3
892 1 3 0.000000000000 0.0 0.0 0.0 # C_3
893 1 3 0.000000000000 0.0 0.0 0.0 # C_3
894 1 4 0.000000000000 0.0 0.0 0.0 # O_3
895 1 5 0.000000000000 0.0 0.0 0.0 # O_
896 1 2 0.000000000000 0.0 0.0 0.0 # Si3
897 1 3 0.000000000000 0.0 0.0 0.0 # C_3
898 1 3 0.000000000000 0.0 0.0 0.0 # C_3
899 1 4 0.000000000000 0.0 0.0 0.0 # O_3
900 1 2 0.000000000000 0.0 0.0 0.0 # Si3
901 1 3 0.000000000000 0.0 0.0 0.0 # C_3
902 1 3 0.000000000000 0.0 0.0 0.0 # C_3
903 1 4 0.000000000000 0.0 0.0 0.0 # O_3
904 1 2 0.000000000000 0.0 0.0 0.0 # Si3
905 1 3 0.000000000000 0.0 0.0 0.0 # C_3
906 1 3 0.000000000000 0.0 0.0 0.0 # C_3
907 1 4 0.000000000000 0.0 0.0 0.0 # O_3
908 1 2 0.000000000000 0.0 0.0 0.0 # Si3
909 1 3 0.000000000000 0.0 0.0 0.0 # C_3
910 1 3 0.000000000000 0.0 0.0 0.0 # C_3
911 1 4 0.000000000000 0.0 0.0 0.0 # O_3
912 1 2 0.000000000000 0.0 0.0 0.0 # Si3
913 1 3 0.000000000000 0.0 0.0 0.0 # C_3
914 1 3 0.000000000000 0.0 0.0 0.0 # C_3
915 1 4 0.000000000000 0.0 0.0 0.0 # O_3
916 1 5 0.000000000000 0.0 0.0 0.0 # O_
917 1 2 0.000000000000 0.0 0.0 0.0 # Si3
918 1 3 0.000000000000 0.0 0.0 0.0 # C_3
919 1 3 0.000000000000 0.0 0.0 0.0 # C_3
920 1 4 0.000000000000 0.0 0.0 0.0 # O_3
921 1 2 0.000000000000 0.0 0.0 0.0 # Si3
922 1 3 0.000000000000 0.0 0.0 0.0 # C_3
923 1 3 0.000000000000 0.0 0.0 0.0 # C_3
924 1 4 0.000000000000 0.0 0.0 0.0 # O_3
925 1 2 0.000000000000 0.0 0.0 0.0 # Si3
926 1 3 0.000000000000 0.0 0.0 0.0 # C_3
927 1 3 0.000000000000 0.0 0.0 0.0 # C_3
928 1 4 0.000000000000 0.0 0.0 0.0 # O_3
929 1 2 0.000000000000 0.0 0.0 0.0 # Si3
930 1 3 0.000000000000 0.0 0.0 0.0 # C_3
931 1 3 0.000000000000 0.0 0.0 0.0 # C_3
932 1 4 0.000000000000 0.0 0.0 0.0 # O_3
933 1 2 0.000000000000 0.0 0.0 0.0 # Si3
934 1 3 0.000000000000 0.0 0.0 0.0 # C_3
935 1 3 0.000000000000 0.0 0.0 0.0 # C_3
936 1 4 0.000000000000 0.0 0.0 0.0 # O_3
937 1 5 0.000000000000 0.0 0.0 0.0 # O_
938 1 2 0.000000000000 0.0 0.0 0.0 # Si3
939 1 3 0.000000000000 0.0 0.0 0.0 # C_3
940 1 3 0.000000000000 0.0 0.0 0.0 # C_3
941 1 4 0.000000000000 0.0 0.0 0.0 # O_3
942 1 2 0.000000000000 0.0 0.0 0.0 # Si3
943 1 3 0.000000000000 0.0 0.0 0.0 # C_3
944 1 3 0.000000000000 0.0 0.0 0.0 # C_3
945 1 4 0.000000000000 0.0 0.0 0.0 # O_3
946 1 2 0.000000000000 0.0 0.0 0.0 # Si3
947 1 3 0.000000000000 0.0 0.0 0.0 # C_3
948 1 3 0.000000000000 0.0 0.0 0.0 # C_3
949 1 4 0.000000000000 0.0 0.0 0.0 # O_3
950 1 2 0.000000000000 0.0 0.0 0.0 # Si3
951 1 3 0.000000000000 0.0 0.0 0.0 # C_3
952 1 3 0.000000000000 0.0 0.0 0.0 # C_3
953 1 4 0.000000000000 0.0 0.0 0.0 # O_3
954 1 2 0.000000000000 0.0 0.0 0.0 # Si3
955 1 3 0.000000000000 0.0 0.0 0.0 # C_3
956 1 3 0.000000000000 0.0 0.0 0.0 # C_3
957 1 4 0.000000000000 0.0 0.0 0.0 # O_3
958 1 5 0.000000000000 0.0 0.0 0.0 # O_
959 1 2 0.000000000000 0.0 0.0 0.0 # Si3
960 1 3 0.000000000000 0.0 0.0 0.0 # C_3
961 1 3 0.000000000000 0.0 0.0 0.0 # C_3
962 1 4 0.000000000000 0.0 0.0 0.0 # O_3
963 1 2 0.000000000000 0.0 0.0 0.0 # Si3
964 1 3 0.000000000000 0.0 0.0 0.0 # C_3
965 1 3 0.000000000000 0.0 0.0 0.0 # C_3
966 1 4 0.000000000000 0.0 0.0 0.0 # O_3
967 1 2 0.000000000000 0.0 0.0 0.0 # Si3
968 1 3 0.000000000000 0.0 0.0 0.0 # C_3
969 1 3 0.000000000000 0.0 0.0 0.0 # C_3
970 1 4 0.000000000000 0.0 0.0 0.0 # O_3
971 1 2 0.000000000000 0.0 0.0 0.0 # Si3
972 1 3 0.000000000000 0.0 0.0 0.0 # C_3
973 1 3 0.000000000000 0.0 0.0 0.0 # C_3
974 1 4 0.000000000000 0.0 0.0 0.0 # O_3
975 1 2 0.000000000000 0.0 0.0 0.0 # Si3
976 1 3 0.000000000000 0.0 0.0 0.0 # C_3
977 1 3 0.000000000000 0.0 0.0 0.0 # C_3
978 1 4 0.000000000000 0.0 0.0 0.0 # O_3
979 1 5 0.000000000000 0.0 0.0 0.0 # O_
980 1 2 0.000000000000 0.0 0.0 0.0 # Si3
981 1 3 0.000000000000 0.0 0.0 0.0 # C_3
982 1 3 0.000000000000 0.0 0.0 0.0 # C_3
983 1 4 0.000000000000 0.0 0.0 0.0 # O_3
984 1 2 0.000000000000 0.0 0.0 0.0 # Si3
985 1 3 0.000000000000 0.0 0.0 0.0 # C_3
986 1 3 0.000000000000 0.0 0.0 0.0 # C_3
987 1 4 0.000000000000 0.0 0.0 0.0 # O_3
988 1 2 0.000000000000 0.0 0.0 0.0 # Si3
989 1 3 0.000000000000 0.0 0.0 0.0 # C_3
990 1 3 0.000000000000 0.0 0.0 0.0 # C_3
991 1 4 0.000000000000 0.0 0.0 0.0 # O_3
992 1 2 0.000000000000 0.0 0.0 0.0 # Si3
993 1 3 0.000000000000 0.0 0.0 0.0 # C_3
994 1 3 0.000000000000 0.0 0.0 0.0 # C_3
995 1 4 0.000000000000 0.0 0.0 0.0 # O_3
996 1 2 0.000000000000 0.0 0.0 0.0 # Si3
997 1 3 0.000000000000 0.0 0.0 0.0 # C_3
998 1 3 0.000000000000 0.0 0.0 0.0 # C_3
999 1 4 0.000000000000 0.0 0.0 0.0 # O_3
1000 1 5 0.000000000000 0.0 0.0 0.0 # O_
1001 1 2 0.000000000000 0.0 0.0 0.0 # Si3
1002 1 3 0.000000000000 0.0 0.0 0.0 # C_3
1003 1 3 0.000000000000 0.0 0.0 0.0 # C_3
1004 1 4 0.000000000000 0.0 0.0 0.0 # O_3
1005 1 2 0.000000000000 0.0 0.0 0.0 # Si3
1006 1 3 0.000000000000 0.0 0.0 0.0 # C_3
1007 1 3 0.000000000000 0.0 0.0 0.0 # C_3
1008 1 4 0.000000000000 0.0 0.0 0.0 # O_3
1009 1 2 0.000000000000 0.0 0.0 0.0 # Si3
1010 1 3 0.000000000000 0.0 0.0 0.0 # C_3
1011 1 3 0.000000000000 0.0 0.0 0.0 # C_3
1012 1 4 0.000000000000 0.0 0.0 0.0 # O_3
1013 1 2 0.000000000000 0.0 0.0 0.0 # Si3
1014 1 3 0.000000000000 0.0 0.0 0.0 # C_3
1015 1 3 0.000000000000 0.0 0.0 0.0 # C_3
1016 1 4 0.000000000000 0.0 0.0 0.0 # O_3
1017 1 2 0.000000000000 0.0 0.0 0.0 # Si3
1018 1 3 0.000000000000 0.0 0.0 0.0 # C_3
1019 1 3 0.000000000000 0.0 0.0 0.0 # C_3
1020 1 4 0.000000000000 0.0 0.0 0.0 # O_3
1021 1 5 0.000000000000 0.0 0.0 0.0 # O_
1022 1 2 0.000000000000 0.0 0.0 0.0 # Si3
1023 1 3 0.000000000000 0.0 0.0 0.0 # C_3
1024 1 3 0.000000000000 0.0 0.0 0.0 # C_3
1025 1 4 0.000000000000 0.0 0.0 0.0 # O_3
1026 1 2 0.000000000000 0.0 0.0 0.0 # Si3
1027 1 3 0.000000000000 0.0 0.0 0.0 # C_3
1028 1 3 0.000000000000 0.0 0.0 0.0 # C_3
1029 1 4 0.000000000000 0.0 0.0 0.0 # O_3
1030 1 2 0.000000000000 0.0 0.0 0.0 # Si3
1031 1 3 0.000000000000 0.0 0.0 0.0 # C_3
1032 1 3 0.000000000000 0.0 0.0 0.0 # C_3
1033 1 4 0.000000000000 0.0 0.0 0.0 # O_3
1034 1 2 0.000000000000 0.0 0.0 0.0 # Si3
1035 1 3 0.000000000000 0.0 0.0 0.0 # C_3
1036 1 3 0.000000000000 0.0 0.0 0.0 # C_3
1037 1 4 0.000000000000 0.0 0.0 0.0 # O_3
1038 1 2 0.000000000000 0.0 0.0 0.0 # Si3
1039 1 3 0.000000000000 0.0 0.0 0.0 # C_3
1040 1 3 0.000000000000 0.0 0.0 0.0 # C_3
1041 1 4 0.000000000000 0.0 0.0 0.0 # O_3
1042 1 5 0.000000000000 0.0 0.0 0.0 # O_
1043 1 2 0.000000000000 0.0 0.0 0.0 # Si3
1044 1 3 0.000000000000 0.0 0.0 0.0 # C_3
1045 1 3 0.000000000000 0.0 0.0 0.0 # C_3
1046 1 4 0.000000000000 0.0 0.0 0.0 # O_3
1047 1 2 0.000000000000 0.0 0.0 0.0 # Si3
1048 1 3 0.000000000000 0.0 0.0 0.0 # C_3
1049 1 3 0.000000000000 0.0 0.0 0.0 # C_3
1050 1 4 0.000000000000 0.0 0.0 0.0 # O_3
1051 1 2 0.000000000000 0.0 0.0 0.0 # Si3
1052 1 3 0.000000000000 0.0 0.0 0.0 # C_3
1053 1 3 0.000000000000 0.0 0.0 0.0 # C_3
1054 1 4 0.000000000000 0.0 0.0 0.0 # O_3
1055 1 2 0.000000000000 0.0 0.0 0.0 # Si3
1056 1 3 0.000000000000 0.0 0.0 0.0 # C_3
1057 1 3 0.000000000000 0.0 0.0 0.0 # C_3
1058 1 4 0.000000000000 0.0 0.0 0.0 # O_3
1059 1 2 0.000000000000 0.0 0.0 0.0 # Si3
1060 1 3 0.000000000000 0.0 0.0 0.0 # C_3
1061 1 3 0.000000000000 0.0 0.0 0.0 # C_3
1062 1 4 0.000000000000 0.0 0.0 0.0 # O_3
1063 1 5 0.000000000000 0.0 0.0 0.0 # O_
1064 1 2 0.000000000000 0.0 0.0 0.0 # Si3
1065 1 3 0.000000000000 0.0 0.0 0.0 # C_3
1066 1 3 0.000000000000 0.0 0.0 0.0 # C_3
1067 1 4 0.000000000000 0.0 0.0 0.0 # O_3
1068 1 2 0.000000000000 0.0 0.0 0.0 # Si3
1069 1 3 0.000000000000 0.0 0.0 0.0 # C_3
1070 1 3 0.000000000000 0.0 0.0 0.0 # C_3
1071 1 4 0.000000000000 0.0 0.0 0.0 # O_3
1072 1 2 0.000000000000 0.0 0.0 0.0 # Si3
1073 1 3 0.000000000000 0.0 0.0 0.0 # C_3
1074 1 3 0.000000000000 0.0 0.0 0.0 # C_3
1075 1 4 0.000000000000 0.0 0.0 0.0 # O_3
1076 1 2 0.000000000000 0.0 0.0 0.0 # Si3
1077 1 3 0.000000000000 0.0 0.0 0.0 # C_3
1078 1 3 0.000000000000 0.0 0.0 0.0 # C_3
1079 1 4 0.000000000000 0.0 0.0 0.0 # O_3
1080 1 2 0.000000000000 0.0 0.0 0.0 # Si3
1081 1 3 0.000000000000 0.0 0.0 0.0 # C_3
1082 1 3 0.000000000000 0.0 0.0 0.0 # C_3
1083 1 4 0.000000000000 0.0 0.0 0.0 # O_3
1084 1 5 0.000000000000 0.0 0.0 0.0 # O_
1085 1 2 0.000000000000 0.0 0.0 0.0 # Si3
1086 1 3 0.000000000000 0.0 0.0 0.0 # C_3
1087 1 3 0.000000000000 0.0 0.0 0.0 # C_3
1088 1 4 0.000000000000 0.0 0.0 0.0 # O_3
1089 1 2 0.000000000000 0.0 0.0 0.0 # Si3
1090 1 3 0.000000000000 0.0 0.0 0.0 # C_3
1091 1 3 0.000000000000 0.0 0.0 0.0 # C_3
1092 1 4 0.000000000000 0.0 0.0 0.0 # O_3
1093 1 2 0.000000000000 0.0 0.0 0.0 # Si3
1094 1 3 0.000000000000 0.0 0.0 0.0 # C_3
1095 1 3 0.000000000000 0.0 0.0 0.0 # C_3
1096 1 4 0.000000000000 0.0 0.0 0.0 # O_3
1097 1 2 0.000000000000 0.0 0.0 0.0 # Si3
1098 1 3 0.000000000000 0.0 0.0 0.0 # C_3
1099 1 3 0.000000000000 0.0 0.0 0.0 # C_3
1100 1 4 0.000000000000 0.0 0.0 0.0 # O_3
1101 1 2 0.000000000000 0.0 0.0 0.0 # Si3
1102 1 3 0.000000000000 0.0 0.0 0.0 # C_3
1103 1 3 0.000000000000 0.0 0.0 0.0 # C_3
1104 1 4 0.000000000000 0.0 0.0 0.0 # O_3
1105 1 5 0.000000000000 0.0 0.0 0.0 # O_
1106 1 2 0.000000000000 0.0 0.0 0.0 # Si3
1107 1 3 0.000000000000 0.0 0.0 0.0 # C_3
1108 1 3 0.000000000000 0.0 0.0 0.0 # C_3
1109 1 4 0.000000000000 0.0 0.0 0.0 # O_3
1110 1 2 0.000000000000 0.0 0.0 0.0 # Si3
1111 1 3 0.000000000000 0.0 0.0 0.0 # C_3
1112 1 3 0.000000000000 0.0 0.0 0.0 # C_3
1113 1 4 0.000000000000 0.0 0.0 0.0 # O_3
1114 1 2 0.000000000000 0.0 0.0 0.0 # Si3
1115 1 3 0.000000000000 0.0 0.0 0.0 # C_3
1116 1 3 0.000000000000 0.0 0.0 0.0 # C_3
1117 1 4 0.000000000000 0.0 0.0 0.0 # O_3
1118 1 2 0.000000000000 0.0 0.0 0.0 # Si3
1119 1 3 0.000000000000 0.0 0.0 0.0 # C_3
1120 1 3 0.000000000000 0.0 0.0 0.0 # C_3
1121 1 4 0.000000000000 0.0 0.0 0.0 # O_3
1122 1 2 0.000000000000 0.0 0.0 0.0 # Si3
1123 1 3 0.000000000000 0.0 0.0 0.0 # C_3
1124 1 3 0.000000000000 0.0 0.0 0.0 # C_3
1125 1 4 0.000000000000 0.0 0.0 0.0 # O_3
1126 1 5 0.000000000000 0.0 0.0 0.0 # O_
1127 1 2 0.000000000000 0.0 0.0 0.0 # Si3
1128 1 3 0.000000000000 0.0 0.0 0.0 # C_3
1129 1 3 0.000000000000 0.0 0.0 0.0 # C_3
1130 1 4 0.000000000000 0.0 0.0 0.0 # O_3
1131 1 2 0.000000000000 0.0 0.0 0.0 # Si3
1132 1 3 0.000000000000 0.0 0.0 0.0 # C_3
1133 1 3 0.000000000000 0.0 0.0 0.0 # C_3
1134 1 4 0.000000000000 0.0 0.0 0.0 # O_3
1135 1 2 0.000000000000 0.0 0.0 0.0 # Si3
1136 1 3 0.000000000000 0.0 0.0 0.0 # C_3
1137 1 3 0.000000000000 0.0 0.0 0.0 # C_3
1138 1 4 0.000000000000 0.0 0.0 0.0 # O_3
1139 1 2 0.000000000000 0.0 0.0 0.0 # Si3
1140 1 3 0.000000000000 0.0 0.0 0.0 # C_3
1141 1 3 0.000000000000 0.0 0.0 0.0 # C_3
1142 1 4 0.000000000000 0.0 0.0 0.0 # O_3
1143 1 2 0.000000000000 0.0 0.0 0.0 # Si3
1144 1 3 0.000000000000 0.0 0.0 0.0 # C_3
1145 1 3 0.000000000000 0.0 0.0 0.0 # C_3
1146 1 4 0.000000000000 0.0 0.0 0.0 # O_3
1147 1 5 0.000000000000 0.0 0.0 0.0 # O_
1148 1 2 0.000000000000 0.0 0.0 0.0 # Si3
1149 1 3 0.000000000000 0.0 0.0 0.0 # C_3
1150 1 3 0.000000000000 0.0 0.0 0.0 # C_3
1151 1 4 0.000000000000 0.0 0.0 0.0 # O_3
1152 1 2 0.000000000000 0.0 0.0 0.0 # Si3
1153 1 3 0.000000000000 0.0 0.0 0.0 # C_3
1154 1 3 0.000000000000 0.0 0.0 0.0 # C_3
1155 1 4 0.000000000000 0.0 0.0 0.0 # O_3
1156 1 2 0.000000000000 0.0 0.0 0.0 # Si3
1157 1 3 0.000000000000 0.0 0.0 0.0 # C_3
1158 1 3 0.000000000000 0.0 0.0 0.0 # C_3
1159 1 4 0.000000000000 0.0 0.0 0.0 # O_3
1160 1 2 0.000000000000 0.0 0.0 0.0 # Si3
1161 1 3 0.000000000000 0.0 0.0 0.0 # C_3
1162 1 3 0.000000000000 0.0 0.0 0.0 # C_3
1163 1 4 0.000000000000 0.0 0.0 0.0 # O_3
1164 1 2 0.000000000000 0.0 0.0 0.0 # Si3
1165 1 3 0.000000000000 0.0 0.0 0.0 # C_3
1166 1 3 0.000000000000 0.0 0.0 0.0 # C_3
1167 1 4 0.000000000000 0.0 0.0 0.0 # O_3
1168 1 5 0.000000000000 0.0 0.0 0.0 # O_
1169 1 2 0.000000000000 0.0 0.0 0.0 # Si3
1170 1 3 0.000000000000 0.0 0.0 0.0 # C_3
1171 1 3 0.000000000000 0.0 0.0 0.0 # C_3
1172 1 4 0.000000000000 0.0 0.0 0.0 # O_3
1173 1 2 0.000000000000 0.0 0.0 0.0 # Si3
1174 1 3 0.000000000000 0.0 0.0 0.0 # C_3
1175 1 3 0.000000000000 0.0 0.0 0.0 # C_3
1176 1 4 0.000000000000 0.0 0.0 0.0 # O_3
1177 1 2 0.000000000000 0.0 0.0 0.0 # Si3
1178 1 3 0.000000000000 0.0 0.0 0.0 # C_3
1179 1 3 0.000000000000 0.0 0.0 0.0 # C_3
1180 1 4 0.000000000000 0.0 0.0 0.0 # O_3
1181 1 2 0.000000000000 0.0 0.0 0.0 # Si3
1182 1 3 0.000000000000 0.0 0.0 0.0 # C_3
1183 1 3 0.000000000000 0.0 0.0 0.0 # C_3
1184 1 4 0.000000000000 0.0 0.0 0.0 # O_3
1185 1 2 0.000000000000 0.0 0.0 0.0 # Si3
1186 1 3 0.000000000000 0.0 0.0 0.0 # C_3
1187 1 3 0.000000000000 0.0 0.0 0.0 # C_3
1188 1 4 0.000000000000 0.0 0.0 0.0 # O_3
1189 1 5 0.000000000000 0.0 0.0 0.0 # O_
1190 1 2 0.000000000000 0.0 0.0 0.0 # Si3
1191 1 3 0.000000000000 0.0 0.0 0.0 # C_3
1192 1 3 0.000000000000 0.0 0.0 0.0 # C_3
1193 1 4 0.000000000000 0.0 0.0 0.0 # O_3
1194 1 2 0.000000000000 0.0 0.0 0.0 # Si3
1195 1 3 0.000000000000 0.0 0.0 0.0 # C_3
1196 1 3 0.000000000000 0.0 0.0 0.0 # C_3
1197 1 4 0.000000000000 0.0 0.0 0.0 # O_3
1198 1 2 0.000000000000 0.0 0.0 0.0 # Si3
1199 1 3 0.000000000000 0.0 0.0 0.0 # C_3
1200 1 3 0.000000000000 0.0 0.0 0.0 # C_3
1201 1 4 0.000000000000 0.0 0.0 0.0 # O_3
1202 1 2 0.000000000000 0.0 0.0 0.0 # Si3
1203 1 3 0.000000000000 0.0 0.0 0.0 # C_3
1204 1 3 0.000000000000 0.0 0.0 0.0 # C_3
1205 1 4 0.000000000000 0.0 0.0 0.0 # O_3
1206 1 2 0.000000000000 0.0 0.0 0.0 # Si3
1207 1 3 0.000000000000 0.0 0.0 0.0 # C_3
1208 1 3 0.000000000000 0.0 0.0 0.0 # C_3
1209 1 4 0.000000000000 0.0 0.0 0.0 # O_3
1210 1 5 0.000000000000 0.0 0.0 0.0 # O_
1211 1 2 0.000000000000 0.0 0.0 0.0 # Si3
1212 1 3 0.000000000000 0.0 0.0 0.0 # C_3
1213 1 3 0.000000000000 0.0 0.0 0.0 # C_3
1214 1 4 0.000000000000 0.0 0.0 0.0 # O_3
1215 1 2 0.000000000000 0.0 0.0 0.0 # Si3
1216 1 3 0.000000000000 0.0 0.0 0.0 # C_3
1217 1 3 0.000000000000 0.0 0.0 0.0 # C_3
1218 1 4 0.000000000000 0.0 0.0 0.0 # O_3
1219 1 2 0.000000000000 0.0 0.0 0.0 # Si3
1220 1 3 0.000000000000 0.0 0.0 0.0 # C_3
1221 1 3 0.000000000000 0.0 0.0 0.0 # C_3
1222 1 4 0.000000000000 0.0 0.0 0.0 # O_3
1223 1 2 0.000000000000 0.0 0.0 0.0 # Si3
1224 1 3 0.000000000000 0.0 0.0 0.0 # C_3
1225 1 3 0.000000000000 0.0 0.0 0.0 # C_3
1226 1 4 0.000000000000 0.0 0.0 0.0 # O_3
1227 1 2 0.000000000000 0.0 0.0 0.0 # Si3
1228 1 3 0.000000000000 0.0 0.0 0.0 # C_3
1229 1 3 0.000000000000 0.0 0.0 0.0 # C_3
1230 1 4 0.000000000000 0.0 0.0 0.0 # O_3
1231 1 5 0.000000000000 0.0 0.0 0.0 # O_
1232 1 2 0.000000000000 0.0 0.0 0.0 # Si3
1233 1 3 0.000000000000 0.0 0.0 0.0 # C_3
1234 1 3 0.000000000000 0.0 0.0 0.0 # C_3
1235 1 4 0.000000000000 0.0 0.0 0.0 # O_3
1236 1 2 0.000000000000 0.0 0.0 0.0 # Si3
1237 1 3 0.000000000000 0.0 0.0 0.0 # C_3
1238 1 3 0.000000000000 0.0 0.0 0.0 # C_3
1239 1 4 0.000000000000 0.0 0.0 0.0 # O_3
1240 1 2 0.000000000000 0.0 0.0 0.0 # Si3
1241 1 3 0.000000000000 0.0 0.0 0.0 # C_3
1242 1 3 0.000000000000 0.0 0.0 0.0 # C_3
1243 1 4 0.000000000000 0.0 0.0 0.0 # O_3
1244 1 2 0.000000000000 0.0 0.0 0.0 # Si3
1245 1 3 0.000000000000 0.0 0.0 0.0 # C_3
1246 1 3 0.000000000000 0.0 0.0 0.0 # C_3
1247 1 4 0.000000000000 0.0 0.0 0.0 # O_3
1248 1 2 0.000000000000 0.0 0.0 0.0 # Si3
1249 1 3 0.000000000000 0.0 0.0 0.0 # C_3
1250 1 3 0.000000000000 0.0 0.0 0.0 # C_3
1251 1 4 0.000000000000 0.0 0.0 0.0 # O_3
1252 1 5 0.000000000000 0.0 0.0 0.0 # O_
1253 1 2 0.000000000000 0.0 0.0 0.0 # Si3
1254 1 3 0.000000000000 0.0 0.0 0.0 # C_3
1255 1 3 0.000000000000 0.0 0.0 0.0 # C_3
1256 1 4 0.000000000000 0.0 0.0 0.0 # O_3
1257 1 2 0.000000000000 0.0 0.0 0.0 # Si3
1258 1 3 0.000000000000 0.0 0.0 0.0 # C_3
1259 1 3 0.000000000000 0.0 0.0 0.0 # C_3
1260 1 4 0.000000000000 0.0 0.0 0.0 # O_3
1261 1 2 0.000000000000 0.0 0.0 0.0 # Si3
1262 1 3 0.000000000000 0.0 0.0 0.0 # C_3
1263 1 3 0.000000000000 0.0 0.0 0.0 # C_3
1264 1 4 0.000000000000 0.0 0.0 0.0 # O_3
1265 1 2 0.000000000000 0.0 0.0 0.0 # Si3
1266 1 3 0.000000000000 0.0 0.0 0.0 # C_3
1267 1 3 0.000000000000 0.0 0.0 0.0 # C_3
1268 1 4 0.000000000000 0.0 0.0 0.0 # O_3
1269 1 2 0.000000000000 0.0 0.0 0.0 # Si3
1270 1 3 0.000000000000 0.0 0.0 0.0 # C_3
1271 1 3 0.000000000000 0.0 0.0 0.0 # C_3
1272 1 4 0.000000000000 0.0 0.0 0.0 # O_3
1273 1 5 0.000000000000 0.0 0.0 0.0 # O_
1274 1 2 0.000000000000 0.0 0.0 0.0 # Si3
1275 1 3 0.000000000000 0.0 0.0 0.0 # C_3
1276 1 3 0.000000000000 0.0 0.0 0.0 # C_3
1277 1 4 0.000000000000 0.0 0.0 0.0 # O_3
1278 1 2 0.000000000000 0.0 0.0 0.0 # Si3
1279 1 3 0.000000000000 0.0 0.0 0.0 # C_3
1280 1 3 0.000000000000 0.0 0.0 0.0 # C_3
1281 1 4 0.000000000000 0.0 0.0 0.0 # O_3
1282 1 2 0.000000000000 0.0 0.0 0.0 # Si3
1283 1 3 0.000000000000 0.0 0.0 0.0 # C_3
1284 1 3 0.000000000000 0.0 0.0 0.0 # C_3
1285 1 4 0.000000000000 0.0 0.0 0.0 # O_3
1286 1 2 0.000000000000 0.0 0.0 0.0 # Si3
1287 1 3 0.000000000000 0.0 0.0 0.0 # C_3
1288 1 3 0.000000000000 0.0 0.0 0.0 # C_3
1289 1 4 0.000000000000 0.0 0.0 0.0 # O_3
1290 1 2 0.000000000000 0.0 0.0 0.0 # Si3
1291 1 3 0.000000000000 0.0 0.0 0.0 # C_3
1292 1 3 0.000000000000 0.0 0.0 0.0 # C_3
1293 1 4 0.000000000000 0.0 0.0 0.0 # O_3
1294 1 5 0.000000000000 0.0 0.0 0.0 # O_
1295 1 2 0.000000000000 0.0 0.0 0.0 # Si3
1296 1 3 0.000000000000 0.0 0.0 0.0 # C_3
1297 1 3 0.000000000000 0.0 0.0 0.0 # C_3
1298 1 4 0.000000000000 0.0 0.0 0.0 # O_3
1299 1 2 0.000000000000 0.0 0.0 0.0 # Si3
1300 1 3 0.000000000000 0.0 0.0 0.0 # C_3
1301 1 3 0.000000000000 0.0 0.0 0.0 # C_3
1302 1 4 0.000000000000 0.0 0.0 0.0 # O_3
1303 1 2 0.000000000000 0.0 0.0 0.0 # Si3
1304 1 3 0.000000000000 0.0 0.0 0.0 # C_3
1305 1 3 0.000000000000 0.0 0.0 0.0 # C_3
1306 1 4 0.000000000000 0.0 0.0 0.0 # O_3
1307 1 2 0.000000000000 0.0 0.0 0.0 # Si3
1308 1 3 0.000000000000 0.0 0.0 0.0 # C_3
1309 1 3 0.000000000000 0.0 0.0 0.0 # C_3
1310 1 4 0.000000000000 0.0 0.0 0.0 # O_3
1311 1 2 0.000000000000 0.0 0.0 0.0 # Si3
1312 1 3 0.000000000000 0.0 0.0 0.0 # C_3
1313 1 3 0.000000000000 0.0 0.0 0.0 # C_3
1314 1 4 0.000000000000 0.0 0.0 0.0 # O_3
1315 1 5 0.000000000000 0.0 0.0 0.0 # O_
1316 1 2 0.000000000000 0.0 0.0 0.0 # Si3
1317 1 3 0.000000000000 0.0 0.0 0.0 # C_3
1318 1 3 0.000000000000 0.0 0.0 0.0 # C_3
1319 1 4 0.000000000000 0.0 0.0 0.0 # O_3
1320 1 2 0.000000000000 0.0 0.0 0.0 # Si3
1321 1 3 0.000000000000 0.0 0.0 0.0 # C_3
1322 1 3 0.000000000000 0.0 0.0 0.0 # C_3
1323 1 4 0.000000000000 0.0 0.0 0.0 # O_3
1324 1 2 0.000000000000 0.0 0.0 0.0 # Si3
1325 1 3 0.000000000000 0.0 0.0 0.0 # C_3
1326 1 3 0.000000000000 0.0 0.0 0.0 # C_3
1327 1 4 0.000000000000 0.0 0.0 0.0 # O_3
1328 1 2 0.000000000000 0.0 0.0 0.0 # Si3
1329 1 3 0.000000000000 0.0 0.0 0.0 # C_3
1330 1 3 0.000000000000 0.0 0.0 0.0 # C_3
1331 1 4 0.000000000000 0.0 0.0 0.0 # O_3
1332 1 2 0.000000000000 0.0 0.0 0.0 # Si3
1333 1 3 0.000000000000 0.0 0.0 0.0 # C_3
1334 1 3 0.000000000000 0.0 0.0 0.0 # C_3
1335 1 4 0.000000000000 0.0 0.0 0.0 # O_3
1336 1 5 0.000000000000 0.0 0.0 0.0 # O_
1337 1 2 0.000000000000 0.0 0.0 0.0 # Si3
1338 1 3 0.000000000000 0.0 0.0 0.0 # C_3
1339 1 3 0.000000000000 0.0 0.0 0.0 # C_3
1340 1 4 0.000000000000 0.0 0.0 0.0 # O_3
1341 1 2 0.000000000000 0.0 0.0 0.0 # Si3
1342 1 3 0.000000000000 0.0 0.0 0.0 # C_3
1343 1 3 0.000000000000 0.0 0.0 0.0 # C_3
1344 1 4 0.000000000000 0.0 0.0 0.0 # O_3
1345 1 2 0.000000000000 0.0 0.0 0.0 # Si3
1346 1 3 0.000000000000 0.0 0.0 0.0 # C_3
1347 1 3 0.000000000000 0.0 0.0 0.0 # C_3
1348 1 4 0.000000000000 0.0 0.0 0.0 # O_3
1349 1 2 0.000000000000 0.0 0.0 0.0 # Si3
1350 1 3 0.000000000000 0.0 0.0 0.0 # C_3
1351 1 3 0.000000000000 0.0 0.0 0.0 # C_3
1352 1 4 0.000000000000 0.0 0.0 0.0 # O_3
1353 1 2 0.000000000000 0.0 0.0 0.0 # Si3
1354 1 3 0.000000000000 0.0 0.0 0.0 # C_3
1355 1 3 0.000000000000 0.0 0.0 0.0 # C_3
1356 1 4 0.000000000000 0.0 0.0 0.0 # O_3
1357 1 5 0.000000000000 0.0 0.0 0.0 # O_
1358 1 2 0.000000000000 0.0 0.0 0.0 # Si3
1359 1 3 0.000000000000 0.0 0.0 0.0 # C_3
1360 1 3 0.000000000000 0.0 0.0 0.0 # C_3
1361 1 4 0.000000000000 0.0 0.0 0.0 # O_3
1362 1 2 0.000000000000 0.0 0.0 0.0 # Si3
1363 1 3 0.000000000000 0.0 0.0 0.0 # C_3
1364 1 3 0.000000000000 0.0 0.0 0.0 # C_3
1365 1 4 0.000000000000 0.0 0.0 0.0 # O_3
1366 1 2 0.000000000000 0.0 0.0 0.0 # Si3
1367 1 3 0.000000000000 0.0 0.0 0.0 # C_3
1368 1 3 0.000000000000 0.0 0.0 0.0 # C_3
1369 1 4 0.000000000000 0.0 0.0 0.0 # O_3
1370 1 2 0.000000000000 0.0 0.0 0.0 # Si3
1371 1 3 0.000000000000 0.0 0.0 0.0 # C_3
1372 1 3 0.000000000000 0.0 0.0 0.0 # C_3
1373 1 4 0.000000000000 0.0 0.0 0.0 # O_3
1374 1 2 0.000000000000 0.0 0.0 0.0 # Si3
1375 1 3 0.000000000000 0.0 0.0 0.0 # C_3
1376 1 3 0.000000000000 0.0 0.0 0.0 # C_3
1377 1 4 0.000000000000 0.0 0.0 0.0 # O_3
1378 1 5 0.000000000000 0.0 0.0 0.0 # O_
1379 1 2 0.000000000000 0.0 0.0 0.0 # Si3
1380 1 3 0.000000000000 0.0 0.0 0.0 # C_3
1381 1 3 0.000000000000 0.0 0.0 0.0 # C_3
1382 1 4 0.000000000000 0.0 0.0 0.0 # O_3
1383 1 2 0.000000000000 0.0 0.0 0.0 # Si3
1384 1 3 0.000000000000 0.0 0.0 0.0 # C_3
1385 1 3 0.000000000000 0.0 0.0 0.0 # C_3
1386 1 4 0.000000000000 0.0 0.0 0.0 # O_3
1387 1 2 0.000000000000 0.0 0.0 0.0 # Si3
1388 1 3 0.000000000000 0.0 0.0 0.0 # C_3
1389 1 3 0.000000000000 0.0 0.0 0.0 # C_3
1390 1 4 0.000000000000 0.0 0.0 0.0 # O_3
1391 1 2 0.000000000000 0.0 0.0 0.0 # Si3
1392 1 3 0.000000000000 0.0 0.0 0.0 # C_3
1393 1 3 0.000000000000 0.0 0.0 0.0 # C_3
1394 1 4 0.000000000000 0.0 0.0 0.0 # O_3
1395 1 2 0.000000000000 0.0 0.0 0.0 # Si3
1396 1 3 0.000000000000 0.0 0.0 0.0 # C_3
1397 1 3 0.000000000000 0.0 0.0 0.0 # C_3
1398 1 4 0.000000000000 0.0 0.0 0.0 # O_3
1399 1 5 0.000000000000 0.0 0.0 0.0 # O_
1400 1 2 0.000000000000 0.0 0.0 0.0 # Si3
1401 1 3 0.000000000000 0.0 0.0 0.0 # C_3
1402 1 3 0.000000000000 0.0 0.0 0.0 # C_3
1403 1 4 0.000000000000 0.0 0.0 0.0 # O_3
1404 1 2 0.000000000000 0.0 0.0 0.0 # Si3
1405 1 3 0.000000000000 0.0 0.0 0.0 # C_3
1406 1 3 0.000000000000 0.0 0.0 0.0 # C_3
1407 1 4 0.000000000000 0.0 0.0 0.0 # O_3
1408 1 2 0.000000000000 0.0 0.0 0.0 # Si3
1409 1 3 0.000000000000 0.0 0.0 0.0 # C_3
1410 1 3 0.000000000000 0.0 0.0 0.0 # C_3
1411 1 4 0.000000000000 0.0 0.0 0.0 # O_3
1412 1 2 0.000000000000 0.0 0.0 0.0 # Si3
1413 1 3 0.000000000000 0.0 0.0 0.0 # C_3
1414 1 3 0.000000000000 0.0 0.0 0.0 # C_3
1415 1 4 0.000000000000 0.0 0.0 0.0 # O_3
1416 1 2 0.000000000000 0.0 0.0 0.0 # Si3
1417 1 3 0.000000000000 0.0 0.0 0.0 # C_3
1418 1 3 0.000000000000 0.0 0.0 0.0 # C_3
1419 1 4 0.000000000000 0.0 0.0 0.0 # O_3
1420 1 5 0.000000000000 0.0 0.0 0.0 # O_
1421 1 2 0.000000000000 0.0 0.0 0.0 # Si3
1422 1 3 0.000000000000 0.0 0.0 0.0 # C_3
1423 1 3 0.000000000000 0.0 0.0 0.0 # C_3
1424 1 4 0.000000000000 0.0 0.0 0.0 # O_3
1425 1 2 0.000000000000 0.0 0.0 0.0 # Si3
1426 1 3 0.000000000000 0.0 0.0 0.0 # C_3
1427 1 3 0.000000000000 0.0 0.0 0.0 # C_3
1428 1 4 0.000000000000 0.0 0.0 0.0 # O_3
1429 1 2 0.000000000000 0.0 0.0 0.0 # Si3
1430 1 3 0.000000000000 0.0 0.0 0.0 # C_3
1431 1 3 0.000000000000 0.0 0.0 0.0 # C_3
1432 1 4 0.000000000000 0.0 0.0 0.0 # O_3
1433 1 2 0.000000000000 0.0 0.0 0.0 # Si3
1434 1 3 0.000000000000 0.0 0.0 0.0 # C_3
1435 1 3 0.000000000000 0.0 0.0 0.0 # C_3
1436 1 4 0.000000000000 0.0 0.0 0.0 # O_3
1437 1 2 0.000000000000 0.0 0.0 0.0 # Si3
1438 1 3 0.000000000000 0.0 0.0 0.0 # C_3
1439 1 3 0.000000000000 0.0 0.0 0.0 # C_3
1440 1 4 0.000000000000 0.0 0.0 0.0 # O_3
1441 1 5 0.000000000000 0.0 0.0 0.0 # O_
1442 1 2 0.000000000000 0.0 0.0 0.0 # Si3
1443 1 3 0.000000000000 0.0 0.0 0.0 # C_3
1444 1 3 0.000000000000 0.0 0.0 0.0 # C_3
1445 1 4 0.000000000000 0.0 0.0 0.0 # O_3
1446 1 2 0.000000000000 0.0 0.0 0.0 # Si3
1447 1 3 0.000000000000 0.0 0.0 0.0 # C_3
1448 1 3 0.000000000000 0.0 0.0 0.0 # C_3
1449 1 4 0.000000000000 0.0 0.0 0.0 # O_3
1450 1 2 0.000000000000 0.0 0.0 0.0 # Si3
1451 1 3 0.000000000000 0.0 0.0 0.0 # C_3
1452 1 3 0.000000000000 0.0 0.0 0.0 # C_3
1453 1 4 0.000000000000 0.0 0.0 0.0 # O_3
1454 1 2 0.000000000000 0.0 0.0 0.0 # Si3
1455 1 3 0.000000000000 0.0 0.0 0.0 # C_3
1456 1 3 0.000000000000 0.0 0.0 0.0 # C_3
1457 1 4 0.000000000000 0.0 0.0 0.0 # O_3
1458 1 2 0.000000000000 0.0 0.0 0.0 # Si3
1459 1 3 0.000000000000 0.0 0.0 0.0 # C_3
1460 1 3 0.000000000000 0.0 0.0 0.0 # C_3
1461 1 4 0.000000000000 0.0 0.0 0.0 # O_3
1462 1 5 0.000000000000 0.0 0.0 0.0 # O_
1463 1 2 0.000000000000 0.0 0.0 0.0 # Si3
1464 1 3 0.000000000000 0.0 0.0 0.0 # C_3
1465 1 3 0.000000000000 0.0 0.0 0.0 # C_3
1466 1 4 0.000000000000 0.0 0.0 0.0 # O_3
1467 1 2 0.000000000000 0.0 0.0 0.0 # Si3
1468 1 3 0.000000000000 0.0 0.0 0.0 # C_3
1469 1 3 0.000000000000 0.0 0.0 0.0 # C_3
1470 1 4 0.000000000000 0.0 0.0 0.0 # O_3
1471 1 2 0.000000000000 0.0 0.0 0.0 # Si3
1472 1 3 0.000000000000 0.0 0.0 0.0 # C_3
1473 1 3 0.000000000000 0.0 0.0 0.0 # C_3
1474 1 4 0.000000000000 0.0 0.0 0.0 # O_3
1475 1 2 0.000000000000 0.0 0.0 0.0 # Si3
1476 1 3 0.000000000000 0.0 0.0 0.0 # C_3
1477 1 3 0.000000000000 0.0 0.0 0.0 # C_3
1478 1 4 0.000000000000 0.0 0.0 0.0 # O_3
1479 1 2 0.000000000000 0.0 0.0 0.0 # Si3
1480 1 3 0.000000000000 0.0 0.0 0.0 # C_3
1481 1 3 0.000000000000 0.0 0.0 0.0 # C_3
1482 1 4 0.000000000000 0.0 0.0 0.0 # O_3
1483 1 5 0.000000000000 0.0 0.0 0.0 # O_
1484 1 2 0.000000000000 0.0 0.0 0.0 # Si3
1485 1 3 0.000000000000 0.0 0.0 0.0 # C_3
1486 1 3 0.000000000000 0.0 0.0 0.0 # C_3
1487 1 4 0.000000000000 0.0 0.0 0.0 # O_3
1488 1 2 0.000000000000 0.0 0.0 0.0 # Si3
1489 1 3 0.000000000000 0.0 0.0 0.0 # C_3
1490 1 3 0.000000000000 0.0 0.0 0.0 # C_3
1491 1 4 0.000000000000 0.0 0.0 0.0 # O_3
1492 1 2 0.000000000000 0.0 0.0 0.0 # Si3
1493 1 3 0.000000000000 0.0 0.0 0.0 # C_3
1494 1 3 0.000000000000 0.0 0.0 0.0 # C_3
1495 1 4 0.000000000000 0.0 0.0 0.0 # O_3
1496 1 2 0.000000000000 0.0 0.0 0.0 # Si3
1497 1 3 0.000000000000 0.0 0.0 0.0 # C_3
1498 1 3 0.000000000000 0.0 0.0 0.0 # C_3
1499 1 4 0.000000000000 0.0 0.0 0.0 # O_3
1500 1 2 0.000000000000 0.0 0.0 0.0 # Si3
1501 1 3 0.000000000000 0.0 0.0 0.0 # C_3
1502 1 3 0.000000000000 0.0 0.0 0.0 # C_3
1503 1 4 0.000000000000 0.0 0.0 0.0 # O_3
1504 1 5 0.000000000000 0.0 0.0 0.0 # O_
1505 1 2 0.000000000000 0.0 0.0 0.0 # Si3
1506 1 3 0.000000000000 0.0 0.0 0.0 # C_3
1507 1 3 0.000000000000 0.0 0.0 0.0 # C_3
1508 1 4 0.000000000000 0.0 0.0 0.0 # O_3
1509 1 2 0.000000000000 0.0 0.0 0.0 # Si3
1510 1 3 0.000000000000 0.0 0.0 0.0 # C_3
1511 1 3 0.000000000000 0.0 0.0 0.0 # C_3
1512 1 4 0.000000000000 0.0 0.0 0.0 # O_3
1513 1 2 0.000000000000 0.0 0.0 0.0 # Si3
1514 1 3 0.000000000000 0.0 0.0 0.0 # C_3
1515 1 3 0.000000000000 0.0 0.0 0.0 # C_3
1516 1 4 0.000000000000 0.0 0.0 0.0 # O_3
1517 1 2 0.000000000000 0.0 0.0 0.0 # Si3
1518 1 3 0.000000000000 0.0 0.0 0.0 # C_3
1519 1 3 0.000000000000 0.0 0.0 0.0 # C_3
1520 1 4 0.000000000000 0.0 0.0 0.0 # O_3
1521 1 2 0.000000000000 0.0 0.0 0.0 # Si3
1522 1 3 0.000000000000 0.0 0.0 0.0 # C_3
1523 1 3 0.000000000000 0.0 0.0 0.0 # C_3
1524 1 4 0.000000000000 0.0 0.0 0.0 # O_3
1525 1 5 0.000000000000 0.0 0.0 0.0 # O_
1526 1 2 0.000000000000 0.0 0.0 0.0 # Si3
1527 1 3 0.000000000000 0.0 0.0 0.0 # C_3
1528 1 3 0.000000000000 0.0 0.0 0.0 # C_3
1529 1 4 0.000000000000 0.0 0.0 0.0 # O_3
1530 1 2 0.000000000000 0.0 0.0 0.0 # Si3
1531 1 3 0.000000000000 0.0 0.0 0.0 # C_3
1532 1 3 0.000000000000 0.0 0.0 0.0 # C_3
1533 1 4 0.000000000000 0.0 0.0 0.0 # O_3
1534 1 2 0.000000000000 0.0 0.0 0.0 # Si3
1535 1 3 0.000000000000 0.0 0.0 0.0 # C_3
1536 1 3 0.000000000000 0.0 0.0 0.0 # C_3
1537 1 4 0.000000000000 0.0 0.0 0.0 # O_3
1538 1 2 0.000000000000 0.0 0.0 0.0 # Si3
1539 1 3 0.000000000000 0.0 0.0 0.0 # C_3
1540 1 3 0.000000000000 0.0 0.0 0.0 # C_3
1541 1 4 0.000000000000 0.0 0.0 0.0 # O_3
1542 1 2 0.000000000000 0.0 0.0 0.0 # Si3
1543 1 3 0.000000000000 0.0 0.0 0.0 # C_3
1544 1 3 0.000000000000 0.0 0.0 0.0 # C_3
1545 1 4 0.000000000000 0.0 0.0 0.0 # O_3
1546 1 5 0.000000000000 0.0 0.0 0.0 # O_
1547 1 2 0.000000000000 0.0 0.0 0.0 # Si3
1548 1 3 0.000000000000 0.0 0.0 0.0 # C_3
1549 1 3 0.000000000000 0.0 0.0 0.0 # C_3
1550 1 4 0.000000000000 0.0 0.0 0.0 # O_3
1551 1 2 0.000000000000 0.0 0.0 0.0 # Si3
1552 1 3 0.000000000000 0.0 0.0 0.0 # C_3
1553 1 3 0.000000000000 0.0 0.0 0.0 # C_3
1554 1 4 0.000000000000 0.0 0.0 0.0 # O_3
1555 1 2 0.000000000000 0.0 0.0 0.0 # Si3
1556 1 3 0.000000000000 0.0 0.0 0.0 # C_3
1557 1 3 0.000000000000 0.0 0.0 0.0 # C_3
1558 1 4 0.000000000000 0.0 0.0 0.0 # O_3
1559 1 2 0.000000000000 0.0 0.0 0.0 # Si3
1560 1 3 0.000000000000 0.0 0.0 0.0 # C_3
1561 1 3 0.000000000000 0.0 0.0 0.0 # C_3
1562 1 4 0.000000000000 0.0 0.0 0.0 # O_3
1563 1 2 0.000000000000 0.0 0.0 0.0 # Si3
1564 1 3 0.000000000000 0.0 0.0 0.0 # C_3
1565 1 3 0.000000000000 0.0 0.0 0.0 # C_3
1566 1 4 0.000000000000 0.0 0.0 0.0 # O_3
1567 1 5 0.000000000000 0.0 0.0 0.0 # O_
1568 1 2 0.000000000000 0.0 0.0 0.0 # Si3
1569 1 3 0.000000000000 0.0 0.0 0.0 # C_3
1570 1 3 0.000000000000 0.0 0.0 0.0 # C_3
1571 1 4 0.000000000000 0.0 0.0 0.0 # O_3
1572 1 2 0.000000000000 0.0 0.0 0.0 # Si3
1573 1 3 0.000000000000 0.0 0.0 0.0 # C_3
1574 1 3 0.000000000000 0.0 0.0 0.0 # C_3
1575 1 4 0.000000000000 0.0 0.0 0.0 # O_3
1576 1 2 0.000000000000 0.0 0.0 0.0 # Si3
1577 1 3 0.000000000000 0.0 0.0 0.0 # C_3
1578 1 3 0.000000000000 0.0 0.0 0.0 # C_3
1579 1 4 0.000000000000 0.0 0.0 0.0 # O_3
1580 1 2 0.000000000000 0.0 0.0 0.0 # Si3
1581 1 3 0.000000000000 0.0 0.0 0.0 # C_3
1582 1 3 0.000000000000 0.0 0.0 0.0 # C_3
1583 1 4 0.000000000000 0.0 0.0 0.0 # O_3
1584 1 2 0.000000000000 0.0 0.0 0.0 # Si3
1585 1 3 0.000000000000 0.0 0.0 0.0 # C_3
1586 1 3 0.000000000000 0.0 0.0 0.0 # C_3
1587 1 4 0.000000000000 0.0 0.0 0.0 # O_3
1588 1 5 0.000000000000 0.0 0.0 0.0 # O_
1589 1 2 0.000000000000 0.0 0.0 0.0 # Si3
1590 1 3 0.000000000000 0.0 0.0 0.0 # C_3
1591 1 3 0.000000000000 0.0 0.0 0.0 # C_3
1592 1 4 0.000000000000 0.0 0.0 0.0 # O_3
1593 1 2 0.000000000000 0.0 0.0 0.0 # Si3
1594 1 3 0.000000000000 0.0 0.0 0.0 # C_3
1595 1 3 0.000000000000 0.0 0.0 0.0 # C_3
1596 1 4 0.000000000000 0.0 0.0 0.0 # O_3
1597 1 2 0.000000000000 0.0 0.0 0.0 # Si3
1598 1 3 0.000000000000 0.0 0.0 0.0 # C_3
1599 1 3 0.000000000000 0.0 0.0 0.0 # C_3
1600 1 4 0.000000000000 0.0 0.0 0.0 # O_3
1601 1 2 0.000000000000 0.0 0.0 0.0 # Si3
1602 1 3 0.000000000000 0.0 0.0 0.0 # C_3
1603 1 3 0.000000000000 0.0 0.0 0.0 # C_3
1604 1 4 0.000000000000 0.0 0.0 0.0 # O_3
1605 1 2 0.000000000000 0.0 0.0 0.0 # Si3
1606 1 3 0.000000000000 0.0 0.0 0.0 # C_3
1607 1 3 0.000000000000 0.0 0.0 0.0 # C_3
1608 1 4 0.000000000000 0.0 0.0 0.0 # O_3
1609 1 5 0.000000000000 0.0 0.0 0.0 # O_
1610 1 2 0.000000000000 0.0 0.0 0.0 # Si3
1611 1 3 0.000000000000 0.0 0.0 0.0 # C_3
1612 1 3 0.000000000000 0.0 0.0 0.0 # C_3
1613 1 4 0.000000000000 0.0 0.0 0.0 # O_3
1614 1 2 0.000000000000 0.0 0.0 0.0 # Si3
1615 1 3 0.000000000000 0.0 0.0 0.0 # C_3
1616 1 3 0.000000000000 0.0 0.0 0.0 # C_3
1617 1 4 0.000000000000 0.0 0.0 0.0 # O_3
1618 1 2 0.000000000000 0.0 0.0 0.0 # Si3
1619 1 3 0.000000000000 0.0 0.0 0.0 # C_3
1620 1 3 0.000000000000 0.0 0.0 0.0 # C_3
1621 1 4 0.000000000000 0.0 0.0 0.0 # O_3
1622 1 2 0.000000000000 0.0 0.0 0.0 # Si3
1623 1 3 0.000000000000 0.0 0.0 0.0 # C_3
1624 1 3 0.000000000000 0.0 0.0 0.0 # C_3
1625 1 4 0.000000000000 0.0 0.0 0.0 # O_3
1626 1 2 0.000000000000 0.0 0.0 0.0 # Si3
1627 1 3 0.000000000000 0.0 0.0 0.0 # C_3
1628 1 3 0.000000000000 0.0 0.0 0.0 # C_3
1629 1 4 0.000000000000 0.0 0.0 0.0 # O_3
1630 1 5 0.000000000000 0.0 0.0 0.0 # O_
1631 1 2 0.000000000000 0.0 0.0 0.0 # Si3
1632 1 3 0.000000000000 0.0 0.0 0.0 # C_3
1633 1 3 0.000000000000 0.0 0.0 0.0 # C_3
1634 1 4 0.000000000000 0.0 0.0 0.0 # O_3
1635 1 2 0.000000000000 0.0 0.0 0.0 # Si3
1636 1 3 0.000000000000 0.0 0.0 0.0 # C_3
1637 1 3 0.000000000000 0.0 0.0 0.0 # C_3
1638 1 4 0.000000000000 0.0 0.0 0.0 # O_3
1639 1 2 0.000000000000 0.0 0.0 0.0 # Si3
1640 1 3 0.000000000000 0.0 0.0 0.0 # C_3
1641 1 3 0.000000000000 0.0 0.0 0.0 # C_3
1642 1 4 0.000000000000 0.0 0.0 0.0 # O_3
1643 1 2 0.000000000000 0.0 0.0 0.0 # Si3
1644 1 3 0.000000000000 0.0 0.0 0.0 # C_3
1645 1 3 0.000000000000 0.0 0.0 0.0 # C_3
1646 1 4 0.000000000000 0.0 0.0 0.0 # O_3
1647 1 2 0.000000000000 0.0 0.0 0.0 # Si3
1648 1 3 0.000000000000 0.0 0.0 0.0 # C_3
1649 1 3 0.000000000000 0.0 0.0 0.0 # C_3
1650 1 4 0.000000000000 0.0 0.0 0.0 # O_3
1651 1 5 0.000000000000 0.0 0.0 0.0 # O_
1652 1 2 0.000000000000 0.0 0.0 0.0 # Si3
1653 1 3 0.000000000000 0.0 0.0 0.0 # C_3
1654 1 3 0.000000000000 0.0 0.0 0.0 # C_3
1655 1 4 0.000000000000 0.0 0.0 0.0 # O_3
1656 1 2 0.000000000000 0.0 0.0 0.0 # Si3
1657 1 3 0.000000000000 0.0 0.0 0.0 # C_3
1658 1 3 0.000000000000 0.0 0.0 0.0 # C_3
1659 1 4 0.000000000000 0.0 0.0 0.0 # O_3
1660 1 2 0.000000000000 0.0 0.0 0.0 # Si3
1661 1 3 0.000000000000 0.0 0.0 0.0 # C_3
1662 1 3 0.000000000000 0.0 0.0 0.0 # C_3
1663 1 4 0.000000000000 0.0 0.0 0.0 # O_3
1664 1 2 0.000000000000 0.0 0.0 0.0 # Si3
1665 1 3 0.000000000000 0.0 0.0 0.0 # C_3
1666 1 3 0.000000000000 0.0 0.0 0.0 # C_3
1667 1 4 0.000000000000 0.0 0.0 0.0 # O_3
1668 1 2 0.000000000000 0.0 0.0 0.0 # Si3
1669 1 3 0.000000000000 0.0 0.0 0.0 # C_3
1670 1 3 0.000000000000 0.0 0.0 0.0 # C_3
1671 1 4 0.000000000000 0.0 0.0 0.0 # O_3
1672 1 5 0.000000000000 0.0 0.0 0.0 # O_
1673 1 2 0.000000000000 0.0 0.0 0.0 # Si3
1674 1 3 0.000000000000 0.0 0.0 0.0 # C_3
1675 1 3 0.000000000000 0.0 0.0 0.0 # C_3
1676 1 4 0.000000000000 0.0 0.0 0.0 # O_3
1677 1 2 0.000000000000 0.0 0.0 0.0 # Si3
1678 1 3 0.000000000000 0.0 0.0 0.0 # C_3
1679 1 3 0.000000000000 0.0 0.0 0.0 # C_3
1680 1 4 0.000000000000 0.0 0.0 0.0 # O_3
1681 1 2 0.000000000000 0.0 0.0 0.0 # Si3
1682 1 3 0.000000000000 0.0 0.0 0.0 # C_3
1683 1 3 0.000000000000 0.0 0.0 0.0 # C_3
1684 1 4 0.000000000000 0.0 0.0 0.0 # O_3
1685 1 2 0.000000000000 0.0 0.0 0.0 # Si3
1686 1 3 0.000000000000 0.0 0.0 0.0 # C_3
1687 1 3 0.000000000000 0.0 0.0 0.0 # C_3
1688 1 4 0.000000000000 0.0 0.0 0.0 # O_3
1689 1 2 0.000000000000 0.0 0.0 0.0 # Si3
1690 1 3 0.000000000000 0.0 0.0 0.0 # C_3
1691 1 3 0.000000000000 0.0 0.0 0.0 # C_3
1692 1 4 0.000000000000 0.0 0.0 0.0 # O_3
1693 1 5 0.000000000000 0.0 0.0 0.0 # O_
1694 1 2 0.000000000000 0.0 0.0 0.0 # Si3
1695 1 3 0.000000000000 0.0 0.0 0.0 # C_3
1696 1 3 0.000000000000 0.0 0.0 0.0 # C_3
1697 1 4 0.000000000000 0.0 0.0 0.0 # O_3
1698 1 2 0.000000000000 0.0 0.0 0.0 # Si3
1699 1 3 0.000000000000 0.0 0.0 0.0 # C_3
1700 1 3 0.000000000000 0.0 0.0 0.0 # C_3
1701 1 4 0.000000000000 0.0 0.0 0.0 # O_3
1702 1 2 0.000000000000 0.0 0.0 0.0 # Si3
1703 1 3 0.000000000000 0.0 0.0 0.0 # C_3
1704 1 3 0.000000000000 0.0 0.0 0.0 # C_3
1705 1 4 0.000000000000 0.0 0.0 0.0 # O_3
1706 1 2 0.000000000000 0.0 0.0 0.0 # Si3
1707 1 3 0.000000000000 0.0 0.0 0.0 # C_3
1708 1 3 0.000000000000 0.0 0.0 0.0 # C_3
1709 1 4 0.000000000000 0.0 0.0 0.0 # O_3
1710 1 2 0.000000000000 0.0 0.0 0.0 # Si3
1711 1 3 0.000000000000 0.0 0.0 0.0 # C_3
1712 1 3 0.000000000000 0.0 0.0 0.0 # C_3
1713 1 4 0.000000000000 0.0 0.0 0.0 # O_3
1714 1 5 0.000000000000 0.0 0.0 0.0 # O_
1715 1 2 0.000000000000 0.0 0.0 0.0 # Si3
1716 1 3 0.000000000000 0.0 0.0 0.0 # C_3
1717 1 3 0.000000000000 0.0 0.0 0.0 # C_3
1718 1 4 0.000000000000 0.0 0.0 0.0 # O_3
1719 1 2 0.000000000000 0.0 0.0 0.0 # Si3
1720 1 3 0.000000000000 0.0 0.0 0.0 # C_3
1721 1 3 0.000000000000 0.0 0.0 0.0 # C_3
1722 1 4 0.000000000000 0.0 0.0 0.0 # O_3
1723 1 2 0.000000000000 0.0 0.0 0.0 # Si3
1724 1 3 0.000000000000 0.0 0.0 0.0 # C_3
1725 1 3 0.000000000000 0.0 0.0 0.0 # C_3
1726 1 4 0.000000000000 0.0 0.0 0.0 # O_3
1727 1 2 0.000000000000 0.0 0.0 0.0 # Si3
1728 1 3 0.000000000000 0.0 0.0 0.0 # C_3
1729 1 3 0.000000000000 0.0 0.0 0.0 # C_3
1730 1 4 0.000000000000 0.0 0.0 0.0 # O_3
1731 1 2 0.000000000000 0.0 0.0 0.0 # Si3
1732 1 3 0.000000000000 0.0 0.0 0.0 # C_3
1733 1 3 0.000000000000 0.0 0.0 0.0 # C_3
1734 1 4 0.000000000000 0.0 0.0 0.0 # O_3
1735 1 5 0.000000000000 0.0 0.0 0.0 # O_
1736 1 2 0.000000000000 0.0 0.0 0.0 # Si3
1737 1 3 0.000000000000 0.0 0.0 0.0 # C_3
1738 1 3 0.000000000000 0.0 0.0 0.0 # C_3
1739 1 4 0.000000000000 0.0 0.0 0.0 # O_3
1740 1 2 0.000000000000 0.0 0.0 0.0 # Si3
1741 1 3 0.000000000000 0.0 0.0 0.0 # C_3
1742 1 3 0.000000000000 0.0 0.0 0.0 # C_3
1743 1 4 0.000000000000 0.0 0.0 0.0 # O_3
1744 1 2 0.000000000000 0.0 0.0 0.0 # Si3
1745 1 3 0.000000000000 0.0 0.0 0.0 # C_3
1746 1 3 0.000000000000 0.0 0.0 0.0 # C_3
1747 1 4 0.000000000000 0.0 0.0 0.0 # O_3
1748 1 2 0.000000000000 0.0 0.0 0.0 # Si3
1749 1 3 0.000000000000 0.0 0.0 0.0 # C_3
1750 1 3 0.000000000000 0.0 0.0 0.0 # C_3
1751 1 4 0.000000000000 0.0 0.0 0.0 # O_3
1752 1 2 0.000000000000 0.0 0.0 0.0 # Si3
1753 1 3 0.000000000000 0.0 0.0 0.0 # C_3
1754 1 3 0.000000000000 0.0 0.0 0.0 # C_3
1755 1 4 0.000000000000 0.0 0.0 0.0 # O_3
1756 1 5 0.000000000000 0.0 0.0 0.0 # O_
1757 1 2 0.000000000000 0.0 0.0 0.0 # Si3
1758 1 3 0.000000000000 0.0 0.0 0.0 # C_3
1759 1 3 0.000000000000 0.0 0.0 0.0 # C_3
1760 1 4 0.000000000000 0.0 0.0 0.0 # O_3
1761 1 2 0.000000000000 0.0 0.0 0.0 # Si3
1762 1 3 0.000000000000 0.0 0.0 0.0 # C_3
1763 1 3 0.000000000000 0.0 0.0 0.0 # C_3
1764 1 4 0.000000000000 0.0 0.0 0.0 # O_3
1765 1 2 0.000000000000 0.0 0.0 0.0 # Si3
1766 1 3 0.000000000000 0.0 0.0 0.0 # C_3
1767 1 3 0.000000000000 0.0 0.0 0.0 # C_3
1768 1 4 0.000000000000 0.0 0.0 0.0 # O_3
1769 1 2 0.000000000000 0.0 0.0 0.0 # Si3
1770 1 3 0.000000000000 0.0 0.0 0.0 # C_3
1771 1 3 0.000000000000 0.0 0.0 0.0 # C_3
1772 1 4 0.000000000000 0.0 0.0 0.0 # O_3
1773 1 2 0.000000000000 0.0 0.0 0.0 # Si3
1774 1 3 0.000000000000 0.0 0.0 0.0 # C_3
1775 1 3 0.000000000000 0.0 0.0 0.0 # C_3
1776 1 4 0.000000000000 0.0 0.0 0.0 # O_3
1777 1 5 0.000000000000 0.0 0.0 0.0 # O_
1778 1 2 0.000000000000 0.0 0.0 0.0 # Si3
1779 1 3 0.000000000000 0.0 0.0 0.0 # C_3
1780 1 3 0.000000000000 0.0 0.0 0.0 # C_3
1781 1 4 0.000000000000 0.0 0.0 0.0 # O_3
1782 1 2 0.000000000000 0.0 0.0 0.0 # Si3
1783 1 3 0.000000000000 0.0 0.0 0.0 # C_3
1784 1 3 0.000000000000 0.0 0.0 0.0 # C_3
1785 1 4 0.000000000000 0.0 0.0 0.0 # O_3
1786 1 2 0.000000000000 0.0 0.0 0.0 # Si3
1787 1 3 0.000000000000 0.0 0.0 0.0 # C_3
1788 1 3 0.000000000000 0.0 0.0 0.0 # C_3
1789 1 4 0.000000000000 0.0 0.0 0.0 # O_3
1790 1 2 0.000000000000 0.0 0.0 0.0 # Si3
1791 1 3 0.000000000000 0.0 0.0 0.0 # C_3
1792 1 3 0.000000000000 0.0 0.0 0.0 # C_3
1793 1 4 0.000000000000 0.0 0.0 0.0 # O_3
1794 1 2 0.000000000000 0.0 0.0 0.0 # Si3
1795 1 3 0.000000000000 0.0 0.0 0.0 # C_3
1796 1 3 0.000000000000 0.0 0.0 0.0 # C_3
1797 1 4 0.000000000000 0.0 0.0 0.0 # O_3
1798 1 5 0.000000000000 0.0 0.0 0.0 # O_
1799 1 2 0.000000000000 0.0 0.0 0.0 # Si3
1800 1 3 0.000000000000 0.0 0.0 0.0 # C_3
1801 1 3 0.000000000000 0.0 0.0 0.0 # C_3
1802 1 4 0.000000000000 0.0 0.0 0.0 # O_3
1803 1 2 0.000000000000 0.0 0.0 0.0 # Si3
1804 1 3 0.000000000000 0.0 0.0 0.0 # C_3
1805 1 3 0.000000000000 0.0 0.0 0.0 # C_3
1806 1 4 0.000000000000 0.0 0.0 0.0 # O_3
1807 1 2 0.000000000000 0.0 0.0 0.0 # Si3
1808 1 3 0.000000000000 0.0 0.0 0.0 # C_3
1809 1 3 0.000000000000 0.0 0.0 0.0 # C_3
1810 1 4 0.000000000000 0.0 0.0 0.0 # O_3
1811 1 2 0.000000000000 0.0 0.0 0.0 # Si3
1812 1 3 0.000000000000 0.0 0.0 0.0 # C_3
1813 1 3 0.000000000000 0.0 0.0 0.0 # C_3
1814 1 4 0.000000000000 0.0 0.0 0.0 # O_3
1815 1 2 0.000000000000 0.0 0.0 0.0 # Si3
1816 1 3 0.000000000000 0.0 0.0 0.0 # C_3
1817 1 3 0.000000000000 0.0 0.0 0.0 # C_3
1818 1 4 0.000000000000 0.0 0.0 0.0 # O_3
1819 1 5 0.000000000000 0.0 0.0 0.0 # O_
1820 1 2 0.000000000000 0.0 0.0 0.0 # Si3
1821 1 3 0.000000000000 0.0 0.0 0.0 # C_3
1822 1 3 0.000000000000 0.0 0.0 0.0 # C_3
1823 1 4 0.000000000000 0.0 0.0 0.0 # O_3
1824 1 2 0.000000000000 0.0 0.0 0.0 # Si3
1825 1 3 0.000000000000 0.0 0.0 0.0 # C_3
1826 1 3 0.000000000000 0.0 0.0 0.0 # C_3
1827 1 4 0.000000000000 0.0 0.0 0.0 # O_3
1828 1 2 0.000000000000 0.0 0.0 0.0 # Si3
1829 1 3 0.000000000000 0.0 0.0 0.0 # C_3
1830 1 3 0.000000000000 0.0 0.0 0.0 # C_3
1831 1 4 0.000000000000 0.0 0.0 0.0 # O_3
1832 1 2 0.000000000000 0.0 0.0 0.0 # Si3
1833 1 3 0.000000000000 0.0 0.0 0.0 # C_3
1834 1 3 0.000000000000 0.0 0.0 0.0 # C_3
1835 1 4 0.000000000000 0.0 0.0 0.0 # O_3
1836 1 2 0.000000000000 0.0 0.0 0.0 # Si3
1837 1 3 0.000000000000 0.0 0.0 0.0 # C_3
1838 1 3 0.000000000000 0.0 0.0 0.0 # C_3
1839 1 4 0.000000000000 0.0 0.0 0.0 # O_3
1840 1 5 0.000000000000 0.0 0.0 0.0 # O_
1841 1 2 0.000000000000 0.0 0.0 0.0 # Si3
1842 1 3 0.000000000000 0.0 0.0 0.0 # C_3
1843 1 3 0.000000000000 0.0 0.0 0.0 # C_3
1844 1 4 0.000000000000 0.0 0.0 0.0 # O_3
1845 1 2 0.000000000000 0.0 0.0 0.0 # Si3
1846 1 3 0.000000000000 0.0 0.0 0.0 # C_3
1847 1 3 0.000000000000 0.0 0.0 0.0 # C_3
1848 1 4 0.000000000000 0.0 0.0 0.0 # O_3
1849 1 2 0.000000000000 0.0 0.0 0.0 # Si3
1850 1 3 0.000000000000 0.0 0.0 0.0 # C_3
1851 1 3 0.000000000000 0.0 0.0 0.0 # C_3
1852 1 4 0.000000000000 0.0 0.0 0.0 # O_3
1853 1 2 0.000000000000 0.0 0.0 0.0 # Si3
1854 1 3 0.000000000000 0.0 0.0 0.0 # C_3
1855 1 3 0.000000000000 0.0 0.0 0.0 # C_3
1856 1 4 0.000000000000 0.0 0.0 0.0 # O_3
1857 1 2 0.000000000000 0.0 0.0 0.0 # Si3
1858 1 3 0.000000000000 0.0 0.0 0.0 # C_3
1859 1 3 0.000000000000 0.0 0.0 0.0 # C_3
1860 1 4 0.000000000000 0.0 0.0 0.0 # O_3
1861 1 5 0.000000000000 0.0 0.0 0.0 # O_
1862 1 2 0.000000000000 0.0 0.0 0.0 # Si3
1863 1 3 0.000000000000 0.0 0.0 0.0 # C_3
1864 1 3 0.000000000000 0.0 0.0 0.0 # C_3
1865 1 4 0.000000000000 0.0 0.0 0.0 # O_3
1866 1 2 0.000000000000 0.0 0.0 0.0 # Si3
1867 1 3 0.000000000000 0.0 0.0 0.0 # C_3
1868 1 3 0.000000000000 0.0 0.0 0.0 # C_3
1869 1 4 0.000000000000 0.0 0.0 0.0 # O_3
1870 1 2 0.000000000000 0.0 0.0 0.0 # Si3
1871 1 3 0.000000000000 0.0 0.0 0.0 # C_3
1872 1 3 0.000000000000 0.0 0.0 0.0 # C_3
1873 1 4 0.000000000000 0.0 0.0 0.0 # O_3
1874 1 2 0.000000000000 0.0 0.0 0.0 # Si3
1875 1 3 0.000000000000 0.0 0.0 0.0 # C_3
1876 1 3 0.000000000000 0.0 0.0 0.0 # C_3
1877 1 4 0.000000000000 0.0 0.0 0.0 # O_3
1878 1 2 0.000000000000 0.0 0.0 0.0 # Si3
1879 1 3 0.000000000000 0.0 0.0 0.0 # C_3
1880 1 3 0.000000000000 0.0 0.0 0.0 # C_3
1881 1 4 0.000000000000 0.0 0.0 0.0 # O_3
1882 1 5 0.000000000000 0.0 0.0 0.0 # O_
1883 1 2 0.000000000000 0.0 0.0 0.0 # Si3
1884 1 3 0.000000000000 0.0 0.0 0.0 # C_3
1885 1 3 0.000000000000 0.0 0.0 0.0 # C_3
1886 1 4 0.000000000000 0.0 0.0 0.0 # O_3
1887 1 2 0.000000000000 0.0 0.0 0.0 # Si3
1888 1 3 0.000000000000 0.0 0.0 0.0 # C_3
1889 1 3 0.000000000000 0.0 0.0 0.0 # C_3
1890 1 4 0.000000000000 0.0 0.0 0.0 # O_3
1891 1 2 0.000000000000 0.0 0.0 0.0 # Si3
1892 1 3 0.000000000000 0.0 0.0 0.0 # C_3
1893 1 3 0.000000000000 0.0 0.0 0.0 # C_3
1894 1 4 0.000000000000 0.0 0.0 0.0 # O_3
1895 1 2 0.000000000000 0.0 0.0 0.0 # Si3
1896 1 3 0.000000000000 0.0 0.0 0.0 # C_3
1897 1 3 0.000000000000 0.0 0.0 0.0 # C_3
1898 1 4 0.000000000000 0.0 0.0 0.0 # O_3
1899 1 2 0.000000000000 0.0 0.0 0.0 # Si3
1900 1 3 0.000000000000 0.0 0.0 0.0 # C_3
1901 1 3 0.000000000000 0.0 0.0 0.0 # C_3
1902 1 4 0.000000000000 0.0 0.0 0.0 # O_3
1903 1 5 0.000000000000 0.0 0.0 0.0 # O_
1904 1 2 0.000000000000 0.0 0.0 0.0 # Si3
1905 1 3 0.000000000000 0.0 0.0 0.0 # C_3
1906 1 3 0.000000000000 0.0 0.0 0.0 # C_3
1907 1 4 0.000000000000 0.0 0.0 0.0 # O_3
1908 1 2 0.000000000000 0.0 0.0 0.0 # Si3
1909 1 3 0.000000000000 0.0 0.0 0.0 # C_3
1910 1 3 0.000000000000 0.0 0.0 0.0 # C_3
1911 1 4 0.000000000000 0.0 0.0 0.0 # O_3
1912 1 2 0.000000000000 0.0 0.0 0.0 # Si3
1913 1 3 0.000000000000 0.0 0.0 0.0 # C_3
1914 1 3 0.000000000000 0.0 0.0 0.0 # C_3
1915 1 4 0.000000000000 0.0 0.0 0.0 # O_3
1916 1 2 0.000000000000 0.0 0.0 0.0 # Si3
1917 1 3 0.000000000000 0.0 0.0 0.0 # C_3
1918 1 3 0.000000000000 0.0 0.0 0.0 # C_3
1919 1 4 0.000000000000 0.0 0.0 0.0 # O_3
1920 1 2 0.000000000000 0.0 0.0 0.0 # Si3
1921 1 3 0.000000000000 0.0 0.0 0.0 # C_3
1922 1 3 0.000000000000 0.0 0.0 0.0 # C_3
1923 1 4 0.000000000000 0.0 0.0 0.0 # O_3
1924 1 5 0.000000000000 0.0 0.0 0.0 # O_
1925 1 2 0.000000000000 0.0 0.0 0.0 # Si3
1926 1 3 0.000000000000 0.0 0.0 0.0 # C_3
1927 1 3 0.000000000000 0.0 0.0 0.0 # C_3
1928 1 4 0.000000000000 0.0 0.0 0.0 # O_3
1929 1 2 0.000000000000 0.0 0.0 0.0 # Si3
1930 1 3 0.000000000000 0.0 0.0 0.0 # C_3
1931 1 3 0.000000000000 0.0 0.0 0.0 # C_3
1932 1 4 0.000000000000 0.0 0.0 0.0 # O_3
1933 1 2 0.000000000000 0.0 0.0 0.0 # Si3
1934 1 3 0.000000000000 0.0 0.0 0.0 # C_3
1935 1 3 0.000000000000 0.0 0.0 0.0 # C_3
1936 1 4 0.000000000000 0.0 0.0 0.0 # O_3
1937 1 2 0.000000000000 0.0 0.0 0.0 # Si3
1938 1 3 0.000000000000 0.0 0.0 0.0 # C_3
1939 1 3 0.000000000000 0.0 0.0 0.0 # C_3
1940 1 4 0.000000000000 0.0 0.0 0.0 # O_3
1941 1 2 0.000000000000 0.0 0.0 0.0 # Si3
1942 1 3 0.000000000000 0.0 0.0 0.0 # C_3
1943 1 3 0.000000000000 0.0 0.0 0.0 # C_3
1944 1 4 0.000000000000 0.0 0.0 0.0 # O_3
1945 1 5 0.000000000000 0.0 0.0 0.0 # O_
1946 1 2 0.000000000000 0.0 0.0 0.0 # Si3
1947 1 3 0.000000000000 0.0 0.0 0.0 # C_3
1948 1 3 0.000000000000 0.0 0.0 0.0 # C_3
1949 1 4 0.000000000000 0.0 0.0 0.0 # O_3
1950 1 2 0.000000000000 0.0 0.0 0.0 # Si3
1951 1 3 0.000000000000 0.0 0.0 0.0 # C_3
1952 1 3 0.000000000000 0.0 0.0 0.0 # C_3
1953 1 4 0.000000000000 0.0 0.0 0.0 # O_3
1954 1 2 0.000000000000 0.0 0.0 0.0 # Si3
1955 1 3 0.000000000000 0.0 0.0 0.0 # C_3
1956 1 3 0.000000000000 0.0 0.0 0.0 # C_3
1957 1 4 0.000000000000 0.0 0.0 0.0 # O_3
1958 1 2 0.000000000000 0.0 0.0 0.0 # Si3
1959 1 3 0.000000000000 0.0 0.0 0.0 # C_3
1960 1 3 0.000000000000 0.0 0.0 0.0 # C_3
1961 1 4 0.000000000000 0.0 0.0 0.0 # O_3
1962 1 2 0.000000000000 0.0 0.0 0.0 # Si3
1963 1 3 0.000000000000 0.0 0.0 0.0 # C_3
1964 1 3 0.000000000000 0.0 0.0 0.0 # C_3
1965 1 4 0.000000000000 0.0 0.0 0.0 # O_3
1966 1 5 0.000000000000 0.0 0.0 0.0 # O_
1967 1 2 0.000000000000 0.0 0.0 0.0 # Si3
1968 1 3 0.000000000000 0.0 0.0 0.0 # C_3
1969 1 3 0.000000000000 0.0 0.0 0.0 # C_3
1970 1 4 0.000000000000 0.0 0.0 0.0 # O_3
1971 1 2 0.000000000000 0.0 0.0 0.0 # Si3
1972 1 3 0.000000000000 0.0 0.0 0.0 # C_3
1973 1 3 0.000000000000 0.0 0.0 0.0 # C_3
1974 1 4 0.000000000000 0.0 0.0 0.0 # O_3
1975 1 2 0.000000000000 0.0 0.0 0.0 # Si3
1976 1 3 0.000000000000 0.0 0.0 0.0 # C_3
1977 1 3 0.000000000000 0.0 0.0 0.0 # C_3
1978 1 4 0.000000000000 0.0 0.0 0.0 # O_3
1979 1 2 0.000000000000 0.0 0.0 0.0 # Si3
1980 1 3 0.000000000000 0.0 0.0 0.0 # C_3
1981 1 3 0.000000000000 0.0 0.0 0.0 # C_3
1982 1 4 0.000000000000 0.0 0.0 0.0 # O_3
1983 1 2 0.000000000000 0.0 0.0 0.0 # Si3
1984 1 3 0.000000000000 0.0 0.0 0.0 # C_3
1985 1 3 0.000000000000 0.0 0.0 0.0 # C_3
1986 1 4 0.000000000000 0.0 0.0 0.0 # O_3
1987 1 5 0.000000000000 0.0 0.0 0.0 # O_
1988 1 2 0.000000000000 0.0 0.0 0.0 # Si3
1989 1 3 0.000000000000 0.0 0.0 0.0 # C_3
1990 1 3 0.000000000000 0.0 0.0 0.0 # C_3
1991 1 4 0.000000000000 0.0 0.0 0.0 # O_3
1992 1 2 0.000000000000 0.0 0.0 0.0 # Si3
1993 1 3 0.000000000000 0.0 0.0 0.0 # C_3
1994 1 3 0.000000000000 0.0 0.0 0.0 # C_3
1995 1 4 0.000000000000 0.0 0.0 0.0 # O_3
1996 1 2 0.000000000000 0.0 0.0 0.0 # Si3
1997 1 3 0.000000000000 0.0 0.0 0.0 # C_3
1998 1 3 0.000000000000 0.0 0.0 0.0 # C_3
1999 1 4 0.000000000000 0.0 0.0 0.0 # O_3
2000 1 2 0.000000000000 0.0 0.0 0.0 # Si3
2001 1 3 0.000000000000 0.0 0.0 0.0 # C_3
2002 1 3 0.000000000000 0.0 0.0 0.0 # C_3
2003 1 4 0.000000000000 0.0 0.0 0.0 # O_3
2004 1 2 0.000000000000 0.0 0.0 0.0 # Si3
2005 1 3 0.000000000000 0.0 0.0 0.0 # C_3
2006 1 3 0.000000000000 0.0 0.0 0.0 # C_3
2007 1 4 0.000000000000 0.0 0.0 0.0 # O_3
2008 1 5 0.000000000000 0.0 0.0 0.0 # O_
2009 1 2 0.000000000000 0.0 0.0 0.0 # Si3
2010 1 3 0.000000000000 0.0 0.0 0.0 # C_3
2011 1 3 0.000000000000 0.0 0.0 0.0 # C_3
2012 1 4 0.000000000000 0.0 0.0 0.0 # O_3
2013 1 2 0.000000000000 0.0 0.0 0.0 # Si3
2014 1 3 0.000000000000 0.0 0.0 0.0 # C_3
2015 1 3 0.000000000000 0.0 0.0 0.0 # C_3
2016 1 4 0.000000000000 0.0 0.0 0.0 # O_3
2017 1 2 0.000000000000 0.0 0.0 0.0 # Si3
2018 1 3 0.000000000000 0.0 0.0 0.0 # C_3
2019 1 3 0.000000000000 0.0 0.0 0.0 # C_3
2020 1 4 0.000000000000 0.0 0.0 0.0 # O_3
2021 1 2 0.000000000000 0.0 0.0 0.0 # Si3
2022 1 3 0.000000000000 0.0 0.0 0.0 # C_3
2023 1 3 0.000000000000 0.0 0.0 0.0 # C_3
2024 1 4 0.000000000000 0.0 0.0 0.0 # O_3
2025 1 2 0.000000000000 0.0 0.0 0.0 # Si3
2026 1 3 0.000000000000 0.0 0.0 0.0 # C_3
2027 1 3 0.000000000000 0.0 0.0 0.0 # C_3
2028 1 4 0.000000000000 0.0 0.0 0.0 # O_3
2029 1 5 0.000000000000 0.0 0.0 0.0 # O_
2030 1 2 0.000000000000 0.0 0.0 0.0 # Si3
2031 1 3 0.000000000000 0.0 0.0 0.0 # C_3
2032 1 3 0.000000000000 0.0 0.0 0.0 # C_3
2033 1 4 0.000000000000 0.0 0.0 0.0 # O_3
2034 1 2 0.000000000000 0.0 0.0 0.0 # Si3
2035 1 3 0.000000000000 0.0 0.0 0.0 # C_3
2036 1 3 0.000000000000 0.0 0.0 0.0 # C_3
2037 1 4 0.000000000000 0.0 0.0 0.0 # O_3
2038 1 2 0.000000000000 0.0 0.0 0.0 # Si3
2039 1 3 0.000000000000 0.0 0.0 0.0 # C_3
2040 1 3 0.000000000000 0.0 0.0 0.0 # C_3
2041 1 4 0.000000000000 0.0 0.0 0.0 # O_3
2042 1 2 0.000000000000 0.0 0.0 0.0 # Si3
2043 1 3 0.000000000000 0.0 0.0 0.0 # C_3
2044 1 3 0.000000000000 0.0 0.0 0.0 # C_3
2045 1 4 0.000000000000 0.0 0.0 0.0 # O_3
2046 1 2 0.000000000000 0.0 0.0 0.0 # Si3
2047 1 3 0.000000000000 0.0 0.0 0.0 # C_3
2048 1 3 0.000000000000 0.0 0.0 0.0 # C_3
2049 1 4 0.000000000000 0.0 0.0 0.0 # O_3
2050 1 5 0.000000000000 0.0 0.0 0.0 # O_
2051 1 2 0.000000000000 0.0 0.0 0.0 # Si3
2052 1 3 0.000000000000 0.0 0.0 0.0 # C_3
2053 1 3 0.000000000000 0.0 0.0 0.0 # C_3
2054 1 4 0.000000000000 0.0 0.0 0.0 # O_3
2055 1 2 0.000000000000 0.0 0.0 0.0 # Si3
2056 1 3 0.000000000000 0.0 0.0 0.0 # C_3
2057 1 3 0.000000000000 0.0 0.0 0.0 # C_3
2058 1 4 0.000000000000 0.0 0.0 0.0 # O_3
2059 1 2 0.000000000000 0.0 0.0 0.0 # Si3
2060 1 3 0.000000000000 0.0 0.0 0.0 # C_3
2061 1 3 0.000000000000 0.0 0.0 0.0 # C_3
2062 1 4 0.000000000000 0.0 0.0 0.0 # O_3
2063 1 2 0.000000000000 0.0 0.0 0.0 # Si3
2064 1 3 0.000000000000 0.0 0.0 0.0 # C_3
2065 1 3 0.000000000000 0.0 0.0 0.0 # C_3
2066 1 4 0.000000000000 0.0 0.0 0.0 # O_3
2067 1 2 0.000000000000 0.0 0.0 0.0 # Si3
2068 1 3 0.000000000000 0.0 0.0 0.0 # C_3
2069 1 3 0.000000000000 0.0 0.0 0.0 # C_3
2070 1 4 0.000000000000 0.0 0.0 0.0 # O_3
2071 1 5 0.000000000000 0.0 0.0 0.0 # O_
2072 1 2 0.000000000000 0.0 0.0 0.0 # Si3
2073 1 3 0.000000000000 0.0 0.0 0.0 # C_3
2074 1 3 0.000000000000 0.0 0.0 0.0 # C_3
2075 1 4 0.000000000000 0.0 0.0 0.0 # O_3
2076 1 2 0.000000000000 0.0 0.0 0.0 # Si3
2077 1 3 0.000000000000 0.0 0.0 0.0 # C_3
2078 1 3 0.000000000000 0.0 0.0 0.0 # C_3
2079 1 4 0.000000000000 0.0 0.0 0.0 # O_3
2080 1 2 0.000000000000 0.0 0.0 0.0 # Si3
2081 1 3 0.000000000000 0.0 0.0 0.0 # C_3
2082 1 3 0.000000000000 0.0 0.0 0.0 # C_3
2083 1 4 0.000000000000 0.0 0.0 0.0 # O_3
2084 1 2 0.000000000000 0.0 0.0 0.0 # Si3
2085 1 3 0.000000000000 0.0 0.0 0.0 # C_3
2086 1 3 0.000000000000 0.0 0.0 0.0 # C_3
2087 1 4 0.000000000000 0.0 0.0 0.0 # O_3
2088 1 2 0.000000000000 0.0 0.0 0.0 # Si3
2089 1 3 0.000000000000 0.0 0.0 0.0 # C_3
2090 1 3 0.000000000000 0.0 0.0 0.0 # C_3
2091 1 4 0.000000000000 0.0 0.0 0.0 # O_3
2092 1 5 0.000000000000 0.0 0.0 0.0 # O_
2093 1 2 0.000000000000 0.0 0.0 0.0 # Si3
2094 1 3 0.000000000000 0.0 0.0 0.0 # C_3
2095 1 3 0.000000000000 0.0 0.0 0.0 # C_3
2096 1 4 0.000000000000 0.0 0.0 0.0 # O_3
2097 1 2 0.000000000000 0.0 0.0 0.0 # Si3
2098 1 3 0.000000000000 0.0 0.0 0.0 # C_3
2099 1 3 0.000000000000 0.0 0.0 0.0 # C_3
2100 1 4 0.000000000000 0.0 0.0 0.0 # O_3
2101 1 2 0.000000000000 0.0 0.0 0.0 # Si3
2102 1 3 0.000000000000 0.0 0.0 0.0 # C_3
2103 1 3 0.000000000000 0.0 0.0 0.0 # C_3
2104 1 4 0.000000000000 0.0 0.0 0.0 # O_3
2105 1 2 0.000000000000 0.0 0.0 0.0 # Si3
2106 1 3 0.000000000000 0.0 0.0 0.0 # C_3
2107 1 3 0.000000000000 0.0 0.0 0.0 # C_3
2108 1 4 0.000000000000 0.0 0.0 0.0 # O_3
2109 1 2 0.000000000000 0.0 0.0 0.0 # Si3
2110 1 3 0.000000000000 0.0 0.0 0.0 # C_3
2111 1 3 0.000000000000 0.0 0.0 0.0 # C_3
2112 1 4 0.000000000000 0.0 0.0 0.0 # O_3
2113 1 5 0.000000000000 0.0 0.0 0.0 # O_
2114 1 2 0.000000000000 0.0 0.0 0.0 # Si3
2115 1 3 0.000000000000 0.0 0.0 0.0 # C_3
2116 1 3 0.000000000000 0.0 0.0 0.0 # C_3
2117 1 4 0.000000000000 0.0 0.0 0.0 # O_3
2118 1 2 0.000000000000 0.0 0.0 0.0 # Si3
2119 1 3 0.000000000000 0.0 0.0 0.0 # C_3
2120 1 3 0.000000000000 0.0 0.0 0.0 # C_3
2121 1 4 0.000000000000 0.0 0.0 0.0 # O_3
2122 1 2 0.000000000000 0.0 0.0 0.0 # Si3
2123 1 3 0.000000000000 0.0 0.0 0.0 # C_3
2124 1 3 0.000000000000 0.0 0.0 0.0 # C_3
2125 1 4 0.000000000000 0.0 0.0 0.0 # O_3
2126 1 2 0.000000000000 0.0 0.0 0.0 # Si3
2127 1 3 0.000000000000 0.0 0.0 0.0 # C_3
2128 1 3 0.000000000000 0.0 0.0 0.0 # C_3
2129 1 4 0.000000000000 0.0 0.0 0.0 # O_3
2130 1 2 0.000000000000 0.0 0.0 0.0 # Si3
2131 1 3 0.000000000000 0.0 0.0 0.0 # C_3
2132 1 3 0.000000000000 0.0 0.0 0.0 # C_3
2133 1 4 0.000000000000 0.0 0.0 0.0 # O_3
2134 1 5 0.000000000000 0.0 0.0 0.0 # O_
2135 1 2 0.000000000000 0.0 0.0 0.0 # Si3
2136 1 3 0.000000000000 0.0 0.0 0.0 # C_3
2137 1 3 0.000000000000 0.0 0.0 0.0 # C_3
2138 1 4 0.000000000000 0.0 0.0 0.0 # O_3
2139 1 2 0.000000000000 0.0 0.0 0.0 # Si3
2140 1 3 0.000000000000 0.0 0.0 0.0 # C_3
2141 1 3 0.000000000000 0.0 0.0 0.0 # C_3
2142 1 4 0.000000000000 0.0 0.0 0.0 # O_3
2143 1 2 0.000000000000 0.0 0.0 0.0 # Si3
2144 1 3 0.000000000000 0.0 0.0 0.0 # C_3
2145 1 3 0.000000000000 0.0 0.0 0.0 # C_3
2146 1 4 0.000000000000 0.0 0.0 0.0 # O_3
2147 1 2 0.000000000000 0.0 0.0 0.0 # Si3
2148 1 3 0.000000000000 0.0 0.0 0.0 # C_3
2149 1 3 0.000000000000 0.0 0.0 0.0 # C_3
2150 1 4 0.000000000000 0.0 0.0 0.0 # O_3
2151 1 2 0.000000000000 0.0 0.0 0.0 # Si3
2152 1 3 0.000000000000 0.0 0.0 0.0 # C_3
2153 1 3 0.000000000000 0.0 0.0 0.0 # C_3
2154 1 4 0.000000000000 0.0 0.0 0.0 # O_3
2155 1 5 0.000000000000 0.0 0.0 0.0 # O_
2156 1 2 0.000000000000 0.0 0.0 0.0 # Si3
2157 1 3 0.000000000000 0.0 0.0 0.0 # C_3
2158 1 3 0.000000000000 0.0 0.0 0.0 # C_3
2159 1 4 0.000000000000 0.0 0.0 0.0 # O_3
2160 1 2 0.000000000000 0.0 0.0 0.0 # Si3
2161 1 3 0.000000000000 0.0 0.0 0.0 # C_3
2162 1 3 0.000000000000 0.0 0.0 0.0 # C_3
2163 1 4 0.000000000000 0.0 0.0 0.0 # O_3
2164 1 2 0.000000000000 0.0 0.0 0.0 # Si3
2165 1 3 0.000000000000 0.0 0.0 0.0 # C_3
2166 1 3 0.000000000000 0.0 0.0 0.0 # C_3
2167 1 4 0.000000000000 0.0 0.0 0.0 # O_3
2168 1 2 0.000000000000 0.0 0.0 0.0 # Si3
2169 1 3 0.000000000000 0.0 0.0 0.0 # C_3
2170 1 3 0.000000000000 0.0 0.0 0.0 # C_3
2171 1 4 0.000000000000 0.0 0.0 0.0 # O_3
2172 1 2 0.000000000000 0.0 0.0 0.0 # Si3
2173 1 3 0.000000000000 0.0 0.0 0.0 # C_3
2174 1 3 0.000000000000 0.0 0.0 0.0 # C_3
2175 1 4 0.000000000000 0.0 0.0 0.0 # O_3
2176 1 5 0.000000000000 0.0 0.0 0.0 # O_
2177 1 2 0.000000000000 0.0 0.0 0.0 # Si3
2178 1 3 0.000000000000 0.0 0.0 0.0 # C_3
2179 1 3 0.000000000000 0.0 0.0 0.0 # C_3
2180 1 4 0.000000000000 0.0 0.0 0.0 # O_3
2181 1 2 0.000000000000 0.0 0.0 0.0 # Si3
2182 1 3 0.000000000000 0.0 0.0 0.0 # C_3
2183 1 3 0.000000000000 0.0 0.0 0.0 # C_3
2184 1 4 0.000000000000 0.0 0.0 0.0 # O_3
2185 1 2 0.000000000000 0.0 0.0 0.0 # Si3
2186 1 3 0.000000000000 0.0 0.0 0.0 # C_3
2187 1 3 0.000000000000 0.0 0.0 0.0 # C_3
2188 1 4 0.000000000000 0.0 0.0 0.0 # O_3
2189 1 2 0.000000000000 0.0 0.0 0.0 # Si3
2190 1 3 0.000000000000 0.0 0.0 0.0 # C_3
2191 1 3 0.000000000000 0.0 0.0 0.0 # C_3
2192 1 4 0.000000000000 0.0 0.0 0.0 # O_3
2193 1 2 0.000000000000 0.0 0.0 0.0 # Si3
2194 1 3 0.000000000000 0.0 0.0 0.0 # C_3
2195 1 3 0.000000000000 0.0 0.0 0.0 # C_3
2196 1 4 0.000000000000 0.0 0.0 0.0 # O_3
2197 1 5 0.000000000000 0.0 0.0 0.0 # O_
2198 1 2 0.000000000000 0.0 0.0 0.0 # Si3
2199 1 3 0.000000000000 0.0 0.0 0.0 # C_3
2200 1 3 0.000000000000 0.0 0.0 0.0 # C_3
2201 1 4 0.000000000000 0.0 0.0 0.0 # O_3
2202 1 2 0.000000000000 0.0 0.0 0.0 # Si3
2203 1 3 0.000000000000 0.0 0.0 0.0 # C_3
2204 1 3 0.000000000000 0.0 0.0 0.0 # C_3
2205 1 4 0.000000000000 0.0 0.0 0.0 # O_3
2206 1 2 0.000000000000 0.0 0.0 0.0 # Si3
2207 1 3 0.000000000000 0.0 0.0 0.0 # C_3
2208 1 3 0.000000000000 0.0 0.0 0.0 # C_3
2209 1 4 0.000000000000 0.0 0.0 0.0 # O_3
2210 1 2 0.000000000000 0.0 0.0 0.0 # Si3
2211 1 3 0.000000000000 0.0 0.0 0.0 # C_3
2212 1 3 0.000000000000 0.0 0.0 0.0 # C_3
2213 1 4 0.000000000000 0.0 0.0 0.0 # O_3
2214 1 2 0.000000000000 0.0 0.0 0.0 # Si3
2215 1 3 0.000000000000 0.0 0.0 0.0 # C_3
2216 1 3 0.000000000000 0.0 0.0 0.0 # C_3
2217 1 4 0.000000000000 0.0 0.0 0.0 # O_3
2218 1 5 0.000000000000 0.0 0.0 0.0 # O_
2219 1 2 0.000000000000 0.0 0.0 0.0 # Si3
2220 1 3 0.000000000000 0.0 0.0 0.0 # C_3
2221 1 3 0.000000000000 0.0 0.0 0.0 # C_3
2222 1 4 0.000000000000 0.0 0.0 0.0 # O_3
2223 1 2 0.000000000000 0.0 0.0 0.0 # Si3
2224 1 3 0.000000000000 0.0 0.0 0.0 # C_3
2225 1 3 0.000000000000 0.0 0.0 0.0 # C_3
2226 1 4 0.000000000000 0.0 0.0 0.0 # O_3
2227 1 2 0.000000000000 0.0 0.0 0.0 # Si3
2228 1 3 0.000000000000 0.0 0.0 0.0 # C_3
2229 1 3 0.000000000000 0.0 0.0 0.0 # C_3
2230 1 4 0.000000000000 0.0 0.0 0.0 # O_3
2231 1 2 0.000000000000 0.0 0.0 0.0 # Si3
2232 1 3 0.000000000000 0.0 0.0 0.0 # C_3
2233 1 3 0.000000000000 0.0 0.0 0.0 # C_3
2234 1 4 0.000000000000 0.0 0.0 0.0 # O_3
2235 1 2 0.000000000000 0.0 0.0 0.0 # Si3
2236 1 3 0.000000000000 0.0 0.0 0.0 # C_3
2237 1 3 0.000000000000 0.0 0.0 0.0 # C_3
2238 1 4 0.000000000000 0.0 0.0 0.0 # O_3
2239 1 5 0.000000000000 0.0 0.0 0.0 # O_
2240 1 2 0.000000000000 0.0 0.0 0.0 # Si3
2241 1 3 0.000000000000 0.0 0.0 0.0 # C_3
2242 1 3 0.000000000000 0.0 0.0 0.0 # C_3
2243 1 4 0.000000000000 0.0 0.0 0.0 # O_3
2244 1 2 0.000000000000 0.0 0.0 0.0 # Si3
2245 1 3 0.000000000000 0.0 0.0 0.0 # C_3
2246 1 3 0.000000000000 0.0 0.0 0.0 # C_3
2247 1 4 0.000000000000 0.0 0.0 0.0 # O_3
2248 1 2 0.000000000000 0.0 0.0 0.0 # Si3
2249 1 3 0.000000000000 0.0 0.0 0.0 # C_3
2250 1 3 0.000000000000 0.0 0.0 0.0 # C_3
2251 1 4 0.000000000000 0.0 0.0 0.0 # O_3
2252 1 2 0.000000000000 0.0 0.0 0.0 # Si3
2253 1 3 0.000000000000 0.0 0.0 0.0 # C_3
2254 1 3 0.000000000000 0.0 0.0 0.0 # C_3
2255 1 4 0.000000000000 0.0 0.0 0.0 # O_3
2256 1 2 0.000000000000 0.0 0.0 0.0 # Si3
2257 1 3 0.000000000000 0.0 0.0 0.0 # C_3
2258 1 3 0.000000000000 0.0 0.0 0.0 # C_3
2259 1 4 0.000000000000 0.0 0.0 0.0 # O_3
2260 1 5 0.000000000000 0.0 0.0 0.0 # O_
2261 1 2 0.000000000000 0.0 0.0 0.0 # Si3
2262 1 3 0.000000000000 0.0 0.0 0.0 # C_3
2263 1 3 0.000000000000 0.0 0.0 0.0 # C_3
2264 1 4 0.000000000000 0.0 0.0 0.0 # O_3
2265 1 2 0.000000000000 0.0 0.0 0.0 # Si3
2266 1 3 0.000000000000 0.0 0.0 0.0 # C_3
2267 1 3 0.000000000000 0.0 0.0 0.0 # C_3
2268 1 4 0.000000000000 0.0 0.0 0.0 # O_3
2269 1 2 0.000000000000 0.0 0.0 0.0 # Si3
2270 1 3 0.000000000000 0.0 0.0 0.0 # C_3
2271 1 3 0.000000000000 0.0 0.0 0.0 # C_3
2272 1 4 0.000000000000 0.0 0.0 0.0 # O_3
2273 1 2 0.000000000000 0.0 0.0 0.0 # Si3
2274 1 3 0.000000000000 0.0 0.0 0.0 # C_3
2275 1 3 0.000000000000 0.0 0.0 0.0 # C_3
2276 1 4 0.000000000000 0.0 0.0 0.0 # O_3
2277 1 2 0.000000000000 0.0 0.0 0.0 # Si3
2278 1 3 0.000000000000 0.0 0.0 0.0 # C_3
2279 1 3 0.000000000000 0.0 0.0 0.0 # C_3
2280 1 4 0.000000000000 0.0 0.0 0.0 # O_3
2281 1 5 0.000000000000 0.0 0.0 0.0 # O_
2282 1 2 0.000000000000 0.0 0.0 0.0 # Si3
2283 1 3 0.000000000000 0.0 0.0 0.0 # C_3
2284 1 3 0.000000000000 0.0 0.0 0.0 # C_3
2285 1 4 0.000000000000 0.0 0.0 0.0 # O_3
2286 1 2 0.000000000000 0.0 0.0 0.0 # Si3
2287 1 3 0.000000000000 0.0 0.0 0.0 # C_3
2288 1 3 0.000000000000 0.0 0.0 0.0 # C_3
2289 1 4 0.000000000000 0.0 0.0 0.0 # O_3
2290 1 2 0.000000000000 0.0 0.0 0.0 # Si3
2291 1 3 0.000000000000 0.0 0.0 0.0 # C_3
2292 1 3 0.000000000000 0.0 0.0 0.0 # C_3
2293 1 4 0.000000000000 0.0 0.0 0.0 # O_3
2294 1 2 0.000000000000 0.0 0.0 0.0 # Si3
2295 1 3 0.000000000000 0.0 0.0 0.0 # C_3
2296 1 3 0.000000000000 0.0 0.0 0.0 # C_3
2297 1 4 0.000000000000 0.0 0.0 0.0 # O_3
2298 1 2 0.000000000000 0.0 0.0 0.0 # Si3
2299 1 3 0.000000000000 0.0 0.0 0.0 # C_3
2300 1 3 0.000000000000 0.0 0.0 0.0 # C_3
2301 1 4 0.000000000000 0.0 0.0 0.0 # O_3
2302 1 5 0.000000000000 0.0 0.0 0.0 # O_
2303 1 2 0.000000000000 0.0 0.0 0.0 # Si3
2304 1 3 0.000000000000 0.0 0.0 0.0 # C_3
2305 1 3 0.000000000000 0.0 0.0 0.0 # C_3
2306 1 4 0.000000000000 0.0 0.0 0.0 # O_3
2307 1 2 0.000000000000 0.0 0.0 0.0 # Si3
2308 1 3 0.000000000000 0.0 0.0 0.0 # C_3
2309 1 3 0.000000000000 0.0 0.0 0.0 # C_3
2310 1 4 0.000000000000 0.0 0.0 0.0 # O_3
2311 1 2 0.000000000000 0.0 0.0 0.0 # Si3
2312 1 3 0.000000000000 0.0 0.0 0.0 # C_3
2313 1 3 0.000000000000 0.0 0.0 0.0 # C_3
2314 1 4 0.000000000000 0.0 0.0 0.0 # O_3
2315 1 2 0.000000000000 0.0 0.0 0.0 # Si3
2316 1 3 0.000000000000 0.0 0.0 0.0 # C_3
2317 1 3 0.000000000000 0.0 0.0 0.0 # C_3
2318 1 4 0.000000000000 0.0 0.0 0.0 # O_3
2319 1 2 0.000000000000 0.0 0.0 0.0 # Si3
2320 1 3 0.000000000000 0.0 0.0 0.0 # C_3
2321 1 3 0.000000000000 0.0 0.0 0.0 # C_3
2322 1 4 0.000000000000 0.0 0.0 0.0 # O_3
2323 1 5 0.000000000000 0.0 0.0 0.0 # O_
2324 1 2 0.000000000000 0.0 0.0 0.0 # Si3
2325 1 3 0.000000000000 0.0 0.0 0.0 # C_3
2326 1 3 0.000000000000 0.0 0.0 0.0 # C_3
2327 1 4 0.000000000000 0.0 0.0 0.0 # O_3
2328 1 2 0.000000000000 0.0 0.0 0.0 # Si3
2329 1 3 0.000000000000 0.0 0.0 0.0 # C_3
2330 1 3 0.000000000000 0.0 0.0 0.0 # C_3
2331 1 4 0.000000000000 0.0 0.0 0.0 # O_3
2332 1 2 0.000000000000 0.0 0.0 0.0 # Si3
2333 1 3 0.000000000000 0.0 0.0 0.0 # C_3
2334 1 3 0.000000000000 0.0 0.0 0.0 # C_3
2335 1 4 0.000000000000 0.0 0.0 0.0 # O_3
2336 1 2 0.000000000000 0.0 0.0 0.0 # Si3
2337 1 3 0.000000000000 0.0 0.0 0.0 # C_3
2338 1 3 0.000000000000 0.0 0.0 0.0 # C_3
2339 1 4 0.000000000000 0.0 0.0 0.0 # O_3
2340 1 2 0.000000000000 0.0 0.0 0.0 # Si3
2341 1 3 0.000000000000 0.0 0.0 0.0 # C_3
2342 1 3 0.000000000000 0.0 0.0 0.0 # C_3
2343 1 4 0.000000000000 0.0 0.0 0.0 # O_3
2344 1 5 0.000000000000 0.0 0.0 0.0 # O_
2345 1 2 0.000000000000 0.0 0.0 0.0 # Si3
2346 1 3 0.000000000000 0.0 0.0 0.0 # C_3
2347 1 3 0.000000000000 0.0 0.0 0.0 # C_3
2348 1 4 0.000000000000 0.0 0.0 0.0 # O_3
2349 1 2 0.000000000000 0.0 0.0 0.0 # Si3
2350 1 3 0.000000000000 0.0 0.0 0.0 # C_3
2351 1 3 0.000000000000 0.0 0.0 0.0 # C_3
2352 1 4 0.000000000000 0.0 0.0 0.0 # O_3
2353 1 2 0.000000000000 0.0 0.0 0.0 # Si3
2354 1 3 0.000000000000 0.0 0.0 0.0 # C_3
2355 1 3 0.000000000000 0.0 0.0 0.0 # C_3
2356 1 4 0.000000000000 0.0 0.0 0.0 # O_3
2357 1 2 0.000000000000 0.0 0.0 0.0 # Si3
2358 1 3 0.000000000000 0.0 0.0 0.0 # C_3
2359 1 3 0.000000000000 0.0 0.0 0.0 # C_3
2360 1 4 0.000000000000 0.0 0.0 0.0 # O_3
2361 1 2 0.000000000000 0.0 0.0 0.0 # Si3
2362 1 3 0.000000000000 0.0 0.0 0.0 # C_3
2363 1 3 0.000000000000 0.0 0.0 0.0 # C_3
2364 1 4 0.000000000000 0.0 0.0 0.0 # O_3
2365 1 5 0.000000000000 0.0 0.0 0.0 # O_
2366 1 2 0.000000000000 0.0 0.0 0.0 # Si3
2367 1 3 0.000000000000 0.0 0.0 0.0 # C_3
2368 1 3 0.000000000000 0.0 0.0 0.0 # C_3
2369 1 4 0.000000000000 0.0 0.0 0.0 # O_3
2370 1 2 0.000000000000 0.0 0.0 0.0 # Si3
2371 1 3 0.000000000000 0.0 0.0 0.0 # C_3
2372 1 3 0.000000000000 0.0 0.0 0.0 # C_3
2373 1 4 0.000000000000 0.0 0.0 0.0 # O_3
2374 1 2 0.000000000000 0.0 0.0 0.0 # Si3
2375 1 3 0.000000000000 0.0 0.0 0.0 # C_3
2376 1 3 0.000000000000 0.0 0.0 0.0 # C_3
2377 1 4 0.000000000000 0.0 0.0 0.0 # O_3
2378 1 2 0.000000000000 0.0 0.0 0.0 # Si3
2379 1 3 0.000000000000 0.0 0.0 0.0 # C_3
2380 1 3 0.000000000000 0.0 0.0 0.0 # C_3
2381 1 4 0.000000000000 0.0 0.0 0.0 # O_3
2382 1 2 0.000000000000 0.0 0.0 0.0 # Si3
2383 1 3 0.000000000000 0.0 0.0 0.0 # C_3
2384 1 3 0.000000000000 0.0 0.0 0.0 # C_3
2385 1 4 0.000000000000 0.0 0.0 0.0 # O_3
2386 1 5 0.000000000000 0.0 0.0 0.0 # O_
2387 1 2 0.000000000000 0.0 0.0 0.0 # Si3
2388 1 3 0.000000000000 0.0 0.0 0.0 # C_3
2389 1 3 0.000000000000 0.0 0.0 0.0 # C_3
2390 1 4 0.000000000000 0.0 0.0 0.0 # O_3
2391 1 2 0.000000000000 0.0 0.0 0.0 # Si3
2392 1 3 0.000000000000 0.0 0.0 0.0 # C_3
2393 1 3 0.000000000000 0.0 0.0 0.0 # C_3
2394 1 4 0.000000000000 0.0 0.0 0.0 # O_3
2395 1 2 0.000000000000 0.0 0.0 0.0 # Si3
2396 1 3 0.000000000000 0.0 0.0 0.0 # C_3
2397 1 3 0.000000000000 0.0 0.0 0.0 # C_3
2398 1 4 0.000000000000 0.0 0.0 0.0 # O_3
2399 1 2 0.000000000000 0.0 0.0 0.0 # Si3
2400 1 3 0.000000000000 0.0 0.0 0.0 # C_3
2401 1 3 0.000000000000 0.0 0.0 0.0 # C_3
2402 1 4 0.000000000000 0.0 0.0 0.0 # O_3
2403 1 2 0.000000000000 0.0 0.0 0.0 # Si3
2404 1 3 0.000000000000 0.0 0.0 0.0 # C_3
2405 1 3 0.000000000000 0.0 0.0 0.0 # C_3
2406 1 4 0.000000000000 0.0 0.0 0.0 # O_3
2407 1 5 0.000000000000 0.0 0.0 0.0 # O_
2408 1 2 0.000000000000 0.0 0.0 0.0 # Si3
2409 1 3 0.000000000000 0.0 0.0 0.0 # C_3
2410 1 3 0.000000000000 0.0 0.0 0.0 # C_3
2411 1 4 0.000000000000 0.0 0.0 0.0 # O_3
2412 1 2 0.000000000000 0.0 0.0 0.0 # Si3
2413 1 3 0.000000000000 0.0 0.0 0.0 # C_3
2414 1 3 0.000000000000 0.0 0.0 0.0 # C_3
2415 1 4 0.000000000000 0.0 0.0 0.0 # O_3
2416 1 2 0.000000000000 0.0 0.0 0.0 # Si3
2417 1 3 0.000000000000 0.0 0.0 0.0 # C_3
2418 1 3 0.000000000000 0.0 0.0 0.0 # C_3
2419 1 4 0.000000000000 0.0 0.0 0.0 # O_3
2420 1 2 0.000000000000 0.0 0.0 0.0 # Si3
2421 1 3 0.000000000000 0.0 0.0 0.0 # C_3
2422 1 3 0.000000000000 0.0 0.0 0.0 # C_3
2423 1 4 0.000000000000 0.0 0.0 0.0 # O_3
2424 1 2 0.000000000000 0.0 0.0 0.0 # Si3
2425 1 3 0.000000000000 0.0 0.0 0.0 # C_3
2426 1 3 0.000000000000 0.0 0.0 0.0 # C_3
2427 1 4 0.000000000000 0.0 0.0 0.0 # O_3
2428 1 5 0.000000000000 0.0 0.0 0.0 # O_
2429 1 2 0.000000000000 0.0 0.0 0.0 # Si3
2430 1 3 0.000000000000 0.0 0.0 0.0 # C_3
2431 1 3 0.000000000000 0.0 0.0 0.0 # C_3
2432 1 4 0.000000000000 0.0 0.0 0.0 # O_3
2433 1 2 0.000000000000 0.0 0.0 0.0 # Si3
2434 1 3 0.000000000000 0.0 0.0 0.0 # C_3
2435 1 3 0.000000000000 0.0 0.0 0.0 # C_3
2436 1 4 0.000000000000 0.0 0.0 0.0 # O_3
2437 1 2 0.000000000000 0.0 0.0 0.0 # Si3
2438 1 3 0.000000000000 0.0 0.0 0.0 # C_3
2439 1 3 0.000000000000 0.0 0.0 0.0 # C_3
2440 1 4 0.000000000000 0.0 0.0 0.0 # O_3
2441 1 2 0.000000000000 0.0 0.0 0.0 # Si3
2442 1 3 0.000000000000 0.0 0.0 0.0 # C_3
2443 1 3 0.000000000000 0.0 0.0 0.0 # C_3
2444 1 4 0.000000000000 0.0 0.0 0.0 # O_3
2445 1 2 0.000000000000 0.0 0.0 0.0 # Si3
2446 1 3 0.000000000000 0.0 0.0 0.0 # C_3
2447 1 3 0.000000000000 0.0 0.0 0.0 # C_3
2448 1 4 0.000000000000 0.0 0.0 0.0 # O_3
2449 1 5 0.000000000000 0.0 0.0 0.0 # O_
2450 1 2 0.000000000000 0.0 0.0 0.0 # Si3
2451 1 3 0.000000000000 0.0 0.0 0.0 # C_3
2452 1 3 0.000000000000 0.0 0.0 0.0 # C_3
2453 1 4 0.000000000000 0.0 0.0 0.0 # O_3
2454 1 2 0.000000000000 0.0 0.0 0.0 # Si3
2455 1 3 0.000000000000 0.0 0.0 0.0 # C_3
2456 1 3 0.000000000000 0.0 0.0 0.0 # C_3
2457 1 4 0.000000000000 0.0 0.0 0.0 # O_3
2458 1 2 0.000000000000 0.0 0.0 0.0 # Si3
2459 1 3 0.000000000000 0.0 0.0 0.0 # C_3
2460 1 3 0.000000000000 0.0 0.0 0.0 # C_3
2461 1 4 0.000000000000 0.0 0.0 0.0 # O_3
2462 1 2 0.000000000000 0.0 0.0 0.0 # Si3
2463 1 3 0.000000000000 0.0 0.0 0.0 # C_3
2464 1 3 0.000000000000 0.0 0.0 0.0 # C_3
2465 1 4 0.000000000000 0.0 0.0 0.0 # O_3
2466 1 2 0.000000000000 0.0 0.0 0.0 # Si3
2467 1 3 0.000000000000 0.0 0.0 0.0 # C_3
2468 1 3 0.000000000000 0.0 0.0 0.0 # C_3
2469 1 4 0.000000000000 0.0 0.0 0.0 # O_3
2470 1 5 0.000000000000 0.0 0.0 0.0 # O_
2471 1 2 0.000000000000 0.0 0.0 0.0 # Si3
2472 1 3 0.000000000000 0.0 0.0 0.0 # C_3
2473 1 3 0.000000000000 0.0 0.0 0.0 # C_3
2474 1 4 0.000000000000 0.0 0.0 0.0 # O_3
2475 1 2 0.000000000000 0.0 0.0 0.0 # Si3
2476 1 3 0.000000000000 0.0 0.0 0.0 # C_3
2477 1 3 0.000000000000 0.0 0.0 0.0 # C_3
2478 1 4 0.000000000000 0.0 0.0 0.0 # O_3
2479 1 2 0.000000000000 0.0 0.0 0.0 # Si3
2480 1 3 0.000000000000 0.0 0.0 0.0 # C_3
2481 1 3 0.000000000000 0.0 0.0 0.0 # C_3
2482 1 4 0.000000000000 0.0 0.0 0.0 # O_3
2483 1 2 0.000000000000 0.0 0.0 0.0 # Si3
2484 1 3 0.000000000000 0.0 0.0 0.0 # C_3
2485 1 3 0.000000000000 0.0 0.0 0.0 # C_3
2486 1 4 0.000000000000 0.0 0.0 0.0 # O_3
2487 1 2 0.000000000000 0.0 0.0 0.0 # Si3
2488 1 3 0.000000000000 0.0 0.0 0.0 # C_3
2489 1 3 0.000000000000 0.0 0.0 0.0 # C_3
2490 1 4 0.000000000000 0.0 0.0 0.0 # O_3
2491 1 5 0.000000000000 0.0 0.0 0.0 # O_
2492 1 2 0.000000000000 0.0 0.0 0.0 # Si3
2493 1 3 0.000000000000 0.0 0.0 0.0 # C_3
2494 1 3 0.000000000000 0.0 0.0 0.0 # C_3
2495 1 4 0.000000000000 0.0 0.0 0.0 # O_3
2496 1 2 0.000000000000 0.0 0.0 0.0 # Si3
2497 1 3 0.000000000000 0.0 0.0 0.0 # C_3
2498 1 3 0.000000000000 0.0 0.0 0.0 # C_3
2499 1 4 0.000000000000 0.0 0.0 0.0 # O_3
2500 1 2 0.000000000000 0.0 0.0 0.0 # Si3
2501 1 3 0.000000000000 0.0 0.0 0.0 # C_3
2502 1 3 0.000000000000 0.0 0.0 0.0 # C_3
2503 1 4 0.000000000000 0.0 0.0 0.0 # O_3
2504 1 2 0.000000000000 0.0 0.0 0.0 # Si3
2505 1 3 0.000000000000 0.0 0.0 0.0 # C_3
2506 1 3 0.000000000000 0.0 0.0 0.0 # C_3
2507 1 4 0.000000000000 0.0 0.0 0.0 # O_3
2508 1 2 0.000000000000 0.0 0.0 0.0 # Si3
2509 1 3 0.000000000000 0.0 0.0 0.0 # C_3
2510 1 3 0.000000000000 0.0 0.0 0.0 # C_3
2511 1 4 0.000000000000 0.0 0.0 0.0 # O_3
2512 1 5 0.000000000000 0.0 0.0 0.0 # O_
2513 1 2 0.000000000000 0.0 0.0 0.0 # Si3
2514 1 3 0.000000000000 0.0 0.0 0.0 # C_3
2515 1 3 0.000000000000 0.0 0.0 0.0 # C_3
2516 1 4 0.000000000000 0.0 0.0 0.0 # O_3
2517 1 2 0.000000000000 0.0 0.0 0.0 # Si3
2518 1 3 0.000000000000 0.0 0.0 0.0 # C_3
2519 1 3 0.000000000000 0.0 0.0 0.0 # C_3
2520 1 4 0.000000000000 0.0 0.0 0.0 # O_3
2521 1 2 0.000000000000 0.0 0.0 0.0 # Si3
2522 1 3 0.000000000000 0.0 0.0 0.0 # C_3
2523 1 3 0.000000000000 0.0 0.0 0.0 # C_3
2524 1 4 0.000000000000 0.0 0.0 0.0 # O_3
2525 1 2 0.000000000000 0.0 0.0 0.0 # Si3
2526 1 3 0.000000000000 0.0 0.0 0.0 # C_3
2527 1 3 0.000000000000 0.0 0.0 0.0 # C_3
2528 1 4 0.000000000000 0.0 0.0 0.0 # O_3
2529 1 2 0.000000000000 0.0 0.0 0.0 # Si3
2530 1 3 0.000000000000 0.0 0.0 0.0 # C_3
2531 1 3 0.000000000000 0.0 0.0 0.0 # C_3
2532 1 4 0.000000000000 0.0 0.0 0.0 # O_3
2533 1 5 0.000000000000 0.0 0.0 0.0 # O_
2534 1 2 0.000000000000 0.0 0.0 0.0 # Si3
2535 1 3 0.000000000000 0.0 0.0 0.0 # C_3
2536 1 3 0.000000000000 0.0 0.0 0.0 # C_3
2537 1 4 0.000000000000 0.0 0.0 0.0 # O_3
2538 1 2 0.000000000000 0.0 0.0 0.0 # Si3
2539 1 3 0.000000000000 0.0 0.0 0.0 # C_3
2540 1 3 0.000000000000 0.0 0.0 0.0 # C_3
2541 1 4 0.000000000000 0.0 0.0 0.0 # O_3
2542 1 2 0.000000000000 0.0 0.0 0.0 # Si3
2543 1 3 0.000000000000 0.0 0.0 0.0 # C_3
2544 1 3 0.000000000000 0.0 0.0 0.0 # C_3
2545 1 4 0.000000000000 0.0 0.0 0.0 # O_3
2546 1 2 0.000000000000 0.0 0.0 0.0 # Si3
2547 1 3 0.000000000000 0.0 0.0 0.0 # C_3
2548 1 3 0.000000000000 0.0 0.0 0.0 # C_3
2549 1 4 0.000000000000 0.0 0.0 0.0 # O_3
2550 1 2 0.000000000000 0.0 0.0 0.0 # Si3
2551 1 3 0.000000000000 0.0 0.0 0.0 # C_3
2552 1 3 0.000000000000 0.0 0.0 0.0 # C_3
2553 1 4 0.000000000000 0.0 0.0 0.0 # O_3
2554 1 5 0.000000000000 0.0 0.0 0.0 # O_
2555 1 2 0.000000000000 0.0 0.0 0.0 # Si3
2556 1 3 0.000000000000 0.0 0.0 0.0 # C_3
2557 1 3 0.000000000000 0.0 0.0 0.0 # C_3
2558 1 4 0.000000000000 0.0 0.0 0.0 # O_3
2559 1 2 0.000000000000 0.0 0.0 0.0 # Si3
2560 1 3 0.000000000000 0.0 0.0 0.0 # C_3
2561 1 3 0.000000000000 0.0 0.0 0.0 # C_3
2562 1 4 0.000000000000 0.0 0.0 0.0 # O_3
2563 1 2 0.000000000000 0.0 0.0 0.0 # Si3
2564 1 3 0.000000000000 0.0 0.0 0.0 # C_3
2565 1 3 0.000000000000 0.0 0.0 0.0 # C_3
2566 1 4 0.000000000000 0.0 0.0 0.0 # O_3
2567 1 2 0.000000000000 0.0 0.0 0.0 # Si3
2568 1 3 0.000000000000 0.0 0.0 0.0 # C_3
2569 1 3 0.000000000000 0.0 0.0 0.0 # C_3
2570 1 4 0.000000000000 0.0 0.0 0.0 # O_3
2571 1 2 0.000000000000 0.0 0.0 0.0 # Si3
2572 1 3 0.000000000000 0.0 0.0 0.0 # C_3
2573 1 3 0.000000000000 0.0 0.0 0.0 # C_3
2574 1 4 0.000000000000 0.0 0.0 0.0 # O_3
2575 1 5 0.000000000000 0.0 0.0 0.0 # O_
2576 1 2 0.000000000000 0.0 0.0 0.0 # Si3
2577 1 3 0.000000000000 0.0 0.0 0.0 # C_3
2578 1 3 0.000000000000 0.0 0.0 0.0 # C_3
2579 1 4 0.000000000000 0.0 0.0 0.0 # O_3
2580 1 2 0.000000000000 0.0 0.0 0.0 # Si3
2581 1 3 0.000000000000 0.0 0.0 0.0 # C_3
2582 1 3 0.000000000000 0.0 0.0 0.0 # C_3
2583 1 4 0.000000000000 0.0 0.0 0.0 # O_3
2584 1 2 0.000000000000 0.0 0.0 0.0 # Si3
2585 1 3 0.000000000000 0.0 0.0 0.0 # C_3
2586 1 3 0.000000000000 0.0 0.0 0.0 # C_3
2587 1 4 0.000000000000 0.0 0.0 0.0 # O_3
2588 1 2 0.000000000000 0.0 0.0 0.0 # Si3
2589 1 3 0.000000000000 0.0 0.0 0.0 # C_3
2590 1 3 0.000000000000 0.0 0.0 0.0 # C_3
2591 1 4 0.000000000000 0.0 0.0 0.0 # O_3
2592 1 2 0.000000000000 0.0 0.0 0.0 # Si3
2593 1 3 0.000000000000 0.0 0.0 0.0 # C_3
2594 1 3 0.000000000000 0.0 0.0 0.0 # C_3
2595 1 4 0.000000000000 0.0 0.0 0.0 # O_3
2596 1 5 0.000000000000 0.0 0.0 0.0 # O_
2597 1 2 0.000000000000 0.0 0.0 0.0 # Si3
2598 1 3 0.000000000000 0.0 0.0 0.0 # C_3
2599 1 3 0.000000000000 0.0 0.0 0.0 # C_3
2600 1 4 0.000000000000 0.0 0.0 0.0 # O_3
2601 1 2 0.000000000000 0.0 0.0 0.0 # Si3
2602 1 3 0.000000000000 0.0 0.0 0.0 # C_3
2603 1 3 0.000000000000 0.0 0.0 0.0 # C_3
2604 1 4 0.000000000000 0.0 0.0 0.0 # O_3
2605 1 2 0.000000000000 0.0 0.0 0.0 # Si3
2606 1 3 0.000000000000 0.0 0.0 0.0 # C_3
2607 1 3 0.000000000000 0.0 0.0 0.0 # C_3
2608 1 4 0.000000000000 0.0 0.0 0.0 # O_3
2609 1 2 0.000000000000 0.0 0.0 0.0 # Si3
2610 1 3 0.000000000000 0.0 0.0 0.0 # C_3
2611 1 3 0.000000000000 0.0 0.0 0.0 # C_3
2612 1 4 0.000000000000 0.0 0.0 0.0 # O_3
2613 1 2 0.000000000000 0.0 0.0 0.0 # Si3
2614 1 3 0.000000000000 0.0 0.0 0.0 # C_3
2615 1 3 0.000000000000 0.0 0.0 0.0 # C_3
2616 1 4 0.000000000000 0.0 0.0 0.0 # O_3
2617 1 5 0.000000000000 0.0 0.0 0.0 # O_
2618 1 2 0.000000000000 0.0 0.0 0.0 # Si3
2619 1 3 0.000000000000 0.0 0.0 0.0 # C_3
2620 1 3 0.000000000000 0.0 0.0 0.0 # C_3
2621 1 4 0.000000000000 0.0 0.0 0.0 # O_3
2622 1 2 0.000000000000 0.0 0.0 0.0 # Si3
2623 1 3 0.000000000000 0.0 0.0 0.0 # C_3
2624 1 3 0.000000000000 0.0 0.0 0.0 # C_3
2625 1 4 0.000000000000 0.0 0.0 0.0 # O_3
2626 1 2 0.000000000000 0.0 0.0 0.0 # Si3
2627 1 3 0.000000000000 0.0 0.0 0.0 # C_3
2628 1 3 0.000000000000 0.0 0.0 0.0 # C_3
2629 1 4 0.000000000000 0.0 0.0 0.0 # O_3
2630 1 2 0.000000000000 0.0 0.0 0.0 # Si3
2631 1 3 0.000000000000 0.0 0.0 0.0 # C_3
2632 1 3 0.000000000000 0.0 0.0 0.0 # C_3
2633 1 4 0.000000000000 0.0 0.0 0.0 # O_3
2634 1 2 0.000000000000 0.0 0.0 0.0 # Si3
2635 1 3 0.000000000000 0.0 0.0 0.0 # C_3
2636 1 3 0.000000000000 0.0 0.0 0.0 # C_3
2637 1 4 0.000000000000 0.0 0.0 0.0 # O_3
2638 1 5 0.000000000000 0.0 0.0 0.0 # O_
2639 1 2 0.000000000000 0.0 0.0 0.0 # Si3
2640 1 3 0.000000000000 0.0 0.0 0.0 # C_3
2641 1 3 0.000000000000 0.0 0.0 0.0 # C_3
2642 1 4 0.000000000000 0.0 0.0 0.0 # O_3
2643 1 2 0.000000000000 0.0 0.0 0.0 # Si3
2644 1 3 0.000000000000 0.0 0.0 0.0 # C_3
2645 1 3 0.000000000000 0.0 0.0 0.0 # C_3
2646 1 4 0.000000000000 0.0 0.0 0.0 # O_3
2647 1 2 0.000000000000 0.0 0.0 0.0 # Si3
2648 1 3 0.000000000000 0.0 0.0 0.0 # C_3
2649 1 3 0.000000000000 0.0 0.0 0.0 # C_3
2650 1 4 0.000000000000 0.0 0.0 0.0 # O_3
2651 1 2 0.000000000000 0.0 0.0 0.0 # Si3
2652 1 3 0.000000000000 0.0 0.0 0.0 # C_3
2653 1 3 0.000000000000 0.0 0.0 0.0 # C_3
2654 1 4 0.000000000000 0.0 0.0 0.0 # O_3
2655 1 2 0.000000000000 0.0 0.0 0.0 # Si3
2656 1 3 0.000000000000 0.0 0.0 0.0 # C_3
2657 1 3 0.000000000000 0.0 0.0 0.0 # C_3
2658 1 4 0.000000000000 0.0 0.0 0.0 # O_3
2659 1 5 0.000000000000 0.0 0.0 0.0 # O_
2660 1 2 0.000000000000 0.0 0.0 0.0 # Si3
2661 1 3 0.000000000000 0.0 0.0 0.0 # C_3
2662 1 3 0.000000000000 0.0 0.0 0.0 # C_3
2663 1 4 0.000000000000 0.0 0.0 0.0 # O_3
2664 1 2 0.000000000000 0.0 0.0 0.0 # Si3
2665 1 3 0.000000000000 0.0 0.0 0.0 # C_3
2666 1 3 0.000000000000 0.0 0.0 0.0 # C_3
2667 1 4 0.000000000000 0.0 0.0 0.0 # O_3
2668 1 2 0.000000000000 0.0 0.0 0.0 # Si3
2669 1 3 0.000000000000 0.0 0.0 0.0 # C_3
2670 1 3 0.000000000000 0.0 0.0 0.0 # C_3
2671 1 4 0.000000000000 0.0 0.0 0.0 # O_3
2672 1 2 0.000000000000 0.0 0.0 0.0 # Si3
2673 1 3 0.000000000000 0.0 0.0 0.0 # C_3
2674 1 3 0.000000000000 0.0 0.0 0.0 # C_3
2675 1 4 0.000000000000 0.0 0.0 0.0 # O_3
2676 1 2 0.000000000000 0.0 0.0 0.0 # Si3
2677 1 3 0.000000000000 0.0 0.0 0.0 # C_3
2678 1 3 0.000000000000 0.0 0.0 0.0 # C_3
2679 1 4 0.000000000000 0.0 0.0 0.0 # O_3
2680 1 5 0.000000000000 0.0 0.0 0.0 # O_
2681 1 2 0.000000000000 0.0 0.0 0.0 # Si3
2682 1 3 0.000000000000 0.0 0.0 0.0 # C_3
2683 1 3 0.000000000000 0.0 0.0 0.0 # C_3
2684 1 4 0.000000000000 0.0 0.0 0.0 # O_3
2685 1 2 0.000000000000 0.0 0.0 0.0 # Si3
2686 1 3 0.000000000000 0.0 0.0 0.0 # C_3
2687 1 3 0.000000000000 0.0 0.0 0.0 # C_3
2688 1 4 0.000000000000 0.0 0.0 0.0 # O_3
2689 1 2 0.000000000000 0.0 0.0 0.0 # Si3
2690 1 3 0.000000000000 0.0 0.0 0.0 # C_3
2691 1 3 0.000000000000 0.0 0.0 0.0 # C_3
2692 1 4 0.000000000000 0.0 0.0 0.0 # O_3
2693 1 2 0.000000000000 0.0 0.0 0.0 # Si3
2694 1 3 0.000000000000 0.0 0.0 0.0 # C_3
2695 1 3 0.000000000000 0.0 0.0 0.0 # C_3
2696 1 4 0.000000000000 0.0 0.0 0.0 # O_3
2697 1 2 0.000000000000 0.0 0.0 0.0 # Si3
2698 1 3 0.000000000000 0.0 0.0 0.0 # C_3
2699 1 3 0.000000000000 0.0 0.0 0.0 # C_3
2700 1 4 0.000000000000 0.0 0.0 0.0 # O_3
2701 1 5 0.000000000000 0.0 0.0 0.0 # O_
2702 1 2 0.000000000000 0.0 0.0 0.0 # Si3
2703 1 3 0.000000000000 0.0 0.0 0.0 # C_3
2704 1 3 0.000000000000 0.0 0.0 0.0 # C_3
2705 1 4 0.000000000000 0.0 0.0 0.0 # O_3
2706 1 2 0.000000000000 0.0 0.0 0.0 # Si3
2707 1 3 0.000000000000 0.0 0.0 0.0 # C_3
2708 1 3 0.000000000000 0.0 0.0 0.0 # C_3
2709 1 4 0.000000000000 0.0 0.0 0.0 # O_3
2710 1 2 0.000000000000 0.0 0.0 0.0 # Si3
2711 1 3 0.000000000000 0.0 0.0 0.0 # C_3
2712 1 3 0.000000000000 0.0 0.0 0.0 # C_3
2713 1 4 0.000000000000 0.0 0.0 0.0 # O_3
2714 1 2 0.000000000000 0.0 0.0 0.0 # Si3
2715 1 3 0.000000000000 0.0 0.0 0.0 # C_3
2716 1 3 0.000000000000 0.0 0.0 0.0 # C_3
2717 1 4 0.000000000000 0.0 0.0 0.0 # O_3
2718 1 2 0.000000000000 0.0 0.0 0.0 # Si3
2719 1 3 0.000000000000 0.0 0.0 0.0 # C_3
2720 1 3 0.000000000000 0.0 0.0 0.0 # C_3
2721 1 4 0.000000000000 0.0 0.0 0.0 # O_3
2722 1 5 0.000000000000 0.0 0.0 0.0 # O_
2723 1 2 0.000000000000 0.0 0.0 0.0 # Si3
2724 1 3 0.000000000000 0.0 0.0 0.0 # C_3
2725 1 3 0.000000000000 0.0 0.0 0.0 # C_3
2726 1 4 0.000000000000 0.0 0.0 0.0 # O_3
2727 1 2 0.000000000000 0.0 0.0 0.0 # Si3
2728 1 3 0.000000000000 0.0 0.0 0.0 # C_3
2729 1 3 0.000000000000 0.0 0.0 0.0 # C_3
2730 1 4 0.000000000000 0.0 0.0 0.0 # O_3
2731 1 2 0.000000000000 0.0 0.0 0.0 # Si3
2732 1 3 0.000000000000 0.0 0.0 0.0 # C_3
2733 1 3 0.000000000000 0.0 0.0 0.0 # C_3
2734 1 4 0.000000000000 0.0 0.0 0.0 # O_3
2735 1 2 0.000000000000 0.0 0.0 0.0 # Si3
2736 1 3 0.000000000000 0.0 0.0 0.0 # C_3
2737 1 3 0.000000000000 0.0 0.0 0.0 # C_3
2738 1 4 0.000000000000 0.0 0.0 0.0 # O_3
2739 1 2 0.000000000000 0.0 0.0 0.0 # Si3
2740 1 3 0.000000000000 0.0 0.0 0.0 # C_3
2741 1 3 0.000000000000 0.0 0.0 0.0 # C_3
2742 1 4 0.000000000000 0.0 0.0 0.0 # O_3
2743 1 5 0.000000000000 0.0 0.0 0.0 # O_
2744 1 2 0.000000000000 0.0 0.0 0.0 # Si3
2745 1 3 0.000000000000 0.0 0.0 0.0 # C_3
2746 1 3 0.000000000000 0.0 0.0 0.0 # C_3
2747 1 4 0.000000000000 0.0 0.0 0.0 # O_3
2748 1 2 0.000000000000 0.0 0.0 0.0 # Si3
2749 1 3 0.000000000000 0.0 0.0 0.0 # C_3
2750 1 3 0.000000000000 0.0 0.0 0.0 # C_3
2751 1 4 0.000000000000 0.0 0.0 0.0 # O_3
2752 1 2 0.000000000000 0.0 0.0 0.0 # Si3
2753 1 3 0.000000000000 0.0 0.0 0.0 # C_3
2754 1 3 0.000000000000 0.0 0.0 0.0 # C_3
2755 1 4 0.000000000000 0.0 0.0 0.0 # O_3
2756 1 2 0.000000000000 0.0 0.0 0.0 # Si3
2757 1 3 0.000000000000 0.0 0.0 0.0 # C_3
2758 1 3 0.000000000000 0.0 0.0 0.0 # C_3
2759 1 4 0.000000000000 0.0 0.0 0.0 # O_3
2760 1 2 0.000000000000 0.0 0.0 0.0 # Si3
2761 1 3 0.000000000000 0.0 0.0 0.0 # C_3
2762 1 3 0.000000000000 0.0 0.0 0.0 # C_3
2763 1 4 0.000000000000 0.0 0.0 0.0 # O_3
2764 1 5 0.000000000000 0.0 0.0 0.0 # O_
2765 1 2 0.000000000000 0.0 0.0 0.0 # Si3
2766 1 3 0.000000000000 0.0 0.0 0.0 # C_3
2767 1 3 0.000000000000 0.0 0.0 0.0 # C_3
2768 1 4 0.000000000000 0.0 0.0 0.0 # O_3
2769 1 2 0.000000000000 0.0 0.0 0.0 # Si3
2770 1 3 0.000000000000 0.0 0.0 0.0 # C_3
2771 1 3 0.000000000000 0.0 0.0 0.0 # C_3
2772 1 4 0.000000000000 0.0 0.0 0.0 # O_3
2773 1 2 0.000000000000 0.0 0.0 0.0 # Si3
2774 1 3 0.000000000000 0.0 0.0 0.0 # C_3
2775 1 3 0.000000000000 0.0 0.0 0.0 # C_3
2776 1 4 0.000000000000 0.0 0.0 0.0 # O_3
2777 1 2 0.000000000000 0.0 0.0 0.0 # Si3
2778 1 3 0.000000000000 0.0 0.0 0.0 # C_3
2779 1 3 0.000000000000 0.0 0.0 0.0 # C_3
2780 1 4 0.000000000000 0.0 0.0 0.0 # O_3
2781 1 2 0.000000000000 0.0 0.0 0.0 # Si3
2782 1 3 0.000000000000 0.0 0.0 0.0 # C_3
2783 1 3 0.000000000000 0.0 0.0 0.0 # C_3
2784 1 4 0.000000000000 0.0 0.0 0.0 # O_3
2785 1 5 0.000000000000 0.0 0.0 0.0 # O_
2786 1 2 0.000000000000 0.0 0.0 0.0 # Si3
2787 1 3 0.000000000000 0.0 0.0 0.0 # C_3
2788 1 3 0.000000000000 0.0 0.0 0.0 # C_3
2789 1 4 0.000000000000 0.0 0.0 0.0 # O_3
2790 1 2 0.000000000000 0.0 0.0 0.0 # Si3
2791 1 3 0.000000000000 0.0 0.0 0.0 # C_3
2792 1 3 0.000000000000 0.0 0.0 0.0 # C_3
2793 1 4 0.000000000000 0.0 0.0 0.0 # O_3
2794 1 2 0.000000000000 0.0 0.0 0.0 # Si3
2795 1 3 0.000000000000 0.0 0.0 0.0 # C_3
2796 1 3 0.000000000000 0.0 0.0 0.0 # C_3
2797 1 4 0.000000000000 0.0 0.0 0.0 # O_3
2798 1 2 0.000000000000 0.0 0.0 0.0 # Si3
2799 1 3 0.000000000000 0.0 0.0 0.0 # C_3
2800 1 3 0.000000000000 0.0 0.0 0.0 # C_3
2801 1 4 0.000000000000 0.0 0.0 0.0 # O_3
2802 1 2 0.000000000000 0.0 0.0 0.0 # Si3
2803 1 3 0.000000000000 0.0 0.0 0.0 # C_3
2804 1 3 0.000000000000 0.0 0.0 0.0 # C_3
2805 1 4 0.000000000000 0.0 0.0 0.0 # O_3
2806 1 5 0.000000000000 0.0 0.0 0.0 # O_
2807 1 2 0.000000000000 0.0 0.0 0.0 # Si3
2808 1 3 0.000000000000 0.0 0.0 0.0 # C_3
2809 1 3 0.000000000000 0.0 0.0 0.0 # C_3
2810 1 4 0.000000000000 0.0 0.0 0.0 # O_3
2811 1 2 0.000000000000 0.0 0.0 0.0 # Si3
2812 1 3 0.000000000000 0.0 0.0 0.0 # C_3
2813 1 3 0.000000000000 0.0 0.0 0.0 # C_3
2814 1 4 0.000000000000 0.0 0.0 0.0 # O_3
2815 1 2 0.000000000000 0.0 0.0 0.0 # Si3
2816 1 3 0.000000000000 0.0 0.0 0.0 # C_3
2817 1 3 0.000000000000 0.0 0.0 0.0 # C_3
2818 1 4 0.000000000000 0.0 0.0 0.0 # O_3
2819 1 2 0.000000000000 0.0 0.0 0.0 # Si3
2820 1 3 0.000000000000 0.0 0.0 0.0 # C_3
2821 1 3 0.000000000000 0.0 0.0 0.0 # C_3
2822 1 4 0.000000000000 0.0 0.0 0.0 # O_3
2823 1 2 0.000000000000 0.0 0.0 0.0 # Si3
2824 1 3 0.000000000000 0.0 0.0 0.0 # C_3
2825 1 3 0.000000000000 0.0 0.0 0.0 # C_3
2826 1 4 0.000000000000 0.0 0.0 0.0 # O_3
2827 1 5 0.000000000000 0.0 0.0 0.0 # O_
2828 1 2 0.000000000000 0.0 0.0 0.0 # Si3
2829 1 3 0.000000000000 0.0 0.0 0.0 # C_3
2830 1 3 0.000000000000 0.0 0.0 0.0 # C_3
2831 1 4 0.000000000000 0.0 0.0 0.0 # O_3
2832 1 2 0.000000000000 0.0 0.0 0.0 # Si3
2833 1 3 0.000000000000 0.0 0.0 0.0 # C_3
2834 1 3 0.000000000000 0.0 0.0 0.0 # C_3
2835 1 4 0.000000000000 0.0 0.0 0.0 # O_3
2836 1 2 0.000000000000 0.0 0.0 0.0 # Si3
2837 1 3 0.000000000000 0.0 0.0 0.0 # C_3
2838 1 3 0.000000000000 0.0 0.0 0.0 # C_3
2839 1 4 0.000000000000 0.0 0.0 0.0 # O_3
2840 1 2 0.000000000000 0.0 0.0 0.0 # Si3
2841 1 3 0.000000000000 0.0 0.0 0.0 # C_3
2842 1 3 0.000000000000 0.0 0.0 0.0 # C_3
2843 1 4 0.000000000000 0.0 0.0 0.0 # O_3
2844 1 2 0.000000000000 0.0 0.0 0.0 # Si3
2845 1 3 0.000000000000 0.0 0.0 0.0 # C_3
2846 1 3 0.000000000000 0.0 0.0 0.0 # C_3
2847 1 4 0.000000000000 0.0 0.0 0.0 # O_3
2848 1 5 0.000000000000 0.0 0.0 0.0 # O_
2849 1 2 0.000000000000 0.0 0.0 0.0 # Si3
2850 1 3 0.000000000000 0.0 0.0 0.0 # C_3
2851 1 3 0.000000000000 0.0 0.0 0.0 # C_3
2852 1 4 0.000000000000 0.0 0.0 0.0 # O_3
2853 1 2 0.000000000000 0.0 0.0 0.0 # Si3
2854 1 3 0.000000000000 0.0 0.0 0.0 # C_3
2855 1 3 0.000000000000 0.0 0.0 0.0 # C_3
2856 1 4 0.000000000000 0.0 0.0 0.0 # O_3
2857 1 2 0.000000000000 0.0 0.0 0.0 # Si3
2858 1 3 0.000000000000 0.0 0.0 0.0 # C_3
2859 1 3 0.000000000000 0.0 0.0 0.0 # C_3
2860 1 4 0.000000000000 0.0 0.0 0.0 # O_3
2861 1 2 0.000000000000 0.0 0.0 0.0 # Si3
2862 1 3 0.000000000000 0.0 0.0 0.0 # C_3
2863 1 3 0.000000000000 0.0 0.0 0.0 # C_3
2864 1 4 0.000000000000 0.0 0.0 0.0 # O_3
2865 1 2 0.000000000000 0.0 0.0 0.0 # Si3
2866 1 3 0.000000000000 0.0 0.0 0.0 # C_3
2867 1 3 0.000000000000 0.0 0.0 0.0 # C_3
2868 1 4 0.000000000000 0.0 0.0 0.0 # O_3
2869 1 5 0.000000000000 0.0 0.0 0.0 # O_
2870 1 2 0.000000000000 0.0 0.0 0.0 # Si3
2871 1 3 0.000000000000 0.0 0.0 0.0 # C_3
2872 1 3 0.000000000000 0.0 0.0 0.0 # C_3
2873 1 4 0.000000000000 0.0 0.0 0.0 # O_3
2874 1 2 0.000000000000 0.0 0.0 0.0 # Si3
2875 1 3 0.000000000000 0.0 0.0 0.0 # C_3
2876 1 3 0.000000000000 0.0 0.0 0.0 # C_3
2877 1 4 0.000000000000 0.0 0.0 0.0 # O_3
2878 1 2 0.000000000000 0.0 0.0 0.0 # Si3
2879 1 3 0.000000000000 0.0 0.0 0.0 # C_3
2880 1 3 0.000000000000 0.0 0.0 0.0 # C_3
2881 1 4 0.000000000000 0.0 0.0 0.0 # O_3
2882 1 2 0.000000000000 0.0 0.0 0.0 # Si3
2883 1 3 0.000000000000 0.0 0.0 0.0 # C_3
2884 1 3 0.000000000000 0.0 0.0 0.0 # C_3
2885 1 4 0.000000000000 0.0 0.0 0.0 # O_3
2886 1 2 0.000000000000 0.0 0.0 0.0 # Si3
2887 1 3 0.000000000000 0.0 0.0 0.0 # C_3
2888 1 3 0.000000000000 0.0 0.0 0.0 # C_3
2889 1 4 0.000000000000 0.0 0.0 0.0 # O_3
2890 1 5 0.000000000000 0.0 0.0 0.0 # O_
2891 1 2 0.000000000000 0.0 0.0 0.0 # Si3
2892 1 3 0.000000000000 0.0 0.0 0.0 # C_3
2893 1 3 0.000000000000 0.0 0.0 0.0 # C_3
2894 1 4 0.000000000000 0.0 0.0 0.0 # O_3
2895 1 2 0.000000000000 0.0 0.0 0.0 # Si3
2896 1 3 0.000000000000 0.0 0.0 0.0 # C_3
2897 1 3 0.000000000000 0.0 0.0 0.0 # C_3
2898 1 4 0.000000000000 0.0 0.0 0.0 # O_3
2899 1 2 0.000000000000 0.0 0.0 0.0 # Si3
2900 1 3 0.000000000000 0.0 0.0 0.0 # C_3
2901 1 3 0.000000000000 0.0 0.0 0.0 # C_3
2902 1 4 0.000000000000 0.0 0.0 0.0 # O_3
2903 1 2 0.000000000000 0.0 0.0 0.0 # Si3
2904 1 3 0.000000000000 0.0 0.0 0.0 # C_3
2905 1 3 0.000000000000 0.0 0.0 0.0 # C_3
2906 1 4 0.000000000000 0.0 0.0 0.0 # O_3
2907 1 2 0.000000000000 0.0 0.0 0.0 # Si3
2908 1 3 0.000000000000 0.0 0.0 0.0 # C_3
2909 1 3 0.000000000000 0.0 0.0 0.0 # C_3
2910 1 4 0.000000000000 0.0 0.0 0.0 # O_3
2911 1 5 0.000000000000 0.0 0.0 0.0 # O_
2912 1 2 0.000000000000 0.0 0.0 0.0 # Si3
2913 1 3 0.000000000000 0.0 0.0 0.0 # C_3
2914 1 3 0.000000000000 0.0 0.0 0.0 # C_3
2915 1 4 0.000000000000 0.0 0.0 0.0 # O_3
2916 1 2 0.000000000000 0.0 0.0 0.0 # Si3
2917 1 3 0.000000000000 0.0 0.0 0.0 # C_3
2918 1 3 0.000000000000 0.0 0.0 0.0 # C_3
2919 1 4 0.000000000000 0.0 0.0 0.0 # O_3
2920 1 2 0.000000000000 0.0 0.0 0.0 # Si3
2921 1 3 0.000000000000 0.0 0.0 0.0 # C_3
2922 1 3 0.000000000000 0.0 0.0 0.0 # C_3
2923 1 4 0.000000000000 0.0 0.0 0.0 # O_3
2924 1 2 0.000000000000 0.0 0.0 0.0 # Si3
2925 1 3 0.000000000000 0.0 0.0 0.0 # C_3
2926 1 3 0.000000000000 0.0 0.0 0.0 # C_3
2927 1 4 0.000000000000 0.0 0.0 0.0 # O_3
2928 1 2 0.000000000000 0.0 0.0 0.0 # Si3
2929 1 3 0.000000000000 0.0 0.0 0.0 # C_3
2930 1 3 0.000000000000 0.0 0.0 0.0 # C_3
2931 1 4 0.000000000000 0.0 0.0 0.0 # O_3
2932 1 5 0.000000000000 0.0 0.0 0.0 # O_
2933 1 2 0.000000000000 0.0 0.0 0.0 # Si3
2934 1 3 0.000000000000 0.0 0.0 0.0 # C_3
2935 1 3 0.000000000000 0.0 0.0 0.0 # C_3
2936 1 4 0.000000000000 0.0 0.0 0.0 # O_3
2937 1 2 0.000000000000 0.0 0.0 0.0 # Si3
2938 1 3 0.000000000000 0.0 0.0 0.0 # C_3
2939 1 3 0.000000000000 0.0 0.0 0.0 # C_3
2940 1 4 0.000000000000 0.0 0.0 0.0 # O_3
2941 1 2 0.000000000000 0.0 0.0 0.0 # Si3
2942 1 3 0.000000000000 0.0 0.0 0.0 # C_3
2943 1 3 0.000000000000 0.0 0.0 0.0 # C_3
2944 1 4 0.000000000000 0.0 0.0 0.0 # O_3
2945 1 2 0.000000000000 0.0 0.0 0.0 # Si3
2946 1 3 0.000000000000 0.0 0.0 0.0 # C_3
2947 1 3 0.000000000000 0.0 0.0 0.0 # C_3
2948 1 4 0.000000000000 0.0 0.0 0.0 # O_3
2949 1 2 0.000000000000 0.0 0.0 0.0 # Si3
2950 1 3 0.000000000000 0.0 0.0 0.0 # C_3
2951 1 3 0.000000000000 0.0 0.0 0.0 # C_3
2952 1 4 0.000000000000 0.0 0.0 0.0 # O_3
2953 1 5 0.000000000000 0.0 0.0 0.0 # O_
2954 1 2 0.000000000000 0.0 0.0 0.0 # Si3
2955 1 3 0.000000000000 0.0 0.0 0.0 # C_3
2956 1 3 0.000000000000 0.0 0.0 0.0 # C_3
2957 1 4 0.000000000000 0.0 0.0 0.0 # O_3
2958 1 2 0.000000000000 0.0 0.0 0.0 # Si3
2959 1 3 0.000000000000 0.0 0.0 0.0 # C_3
2960 1 3 0.000000000000 0.0 0.0 0.0 # C_3
2961 1 4 0.000000000000 0.0 0.0 0.0 # O_3
2962 1 2 0.000000000000 0.0 0.0 0.0 # Si3
2963 1 3 0.000000000000 0.0 0.0 0.0 # C_3
2964 1 3 0.000000000000 0.0 0.0 0.0 # C_3
2965 1 4 0.000000000000 0.0 0.0 0.0 # O_3
2966 1 2 0.000000000000 0.0 0.0 0.0 # Si3
2967 1 3 0.000000000000 0.0 0.0 0.0 # C_3
2968 1 3 0.000000000000 0.0 0.0 0.0 # C_3
2969 1 4 0.000000000000 0.0 0.0 0.0 # O_3
2970 1 2 0.000000000000 0.0 0.0 0.0 # Si3
2971 1 3 0.000000000000 0.0 0.0 0.0 # C_3
2972 1 3 0.000000000000 0.0 0.0 0.0 # C_3
2973 1 4 0.000000000000 0.0 0.0 0.0 # O_3
2974 1 5 0.000000000000 0.0 0.0 0.0 # O_
2975 1 2 0.000000000000 0.0 0.0 0.0 # Si3
2976 1 3 0.000000000000 0.0 0.0 0.0 # C_3
2977 1 3 0.000000000000 0.0 0.0 0.0 # C_3
2978 1 4 0.000000000000 0.0 0.0 0.0 # O_3
2979 1 2 0.000000000000 0.0 0.0 0.0 # Si3
2980 1 3 0.000000000000 0.0 0.0 0.0 # C_3
2981 1 3 0.000000000000 0.0 0.0 0.0 # C_3
2982 1 4 0.000000000000 0.0 0.0 0.0 # O_3
2983 1 2 0.000000000000 0.0 0.0 0.0 # Si3
2984 1 3 0.000000000000 0.0 0.0 0.0 # C_3
2985 1 3 0.000000000000 0.0 0.0 0.0 # C_3
2986 1 4 0.000000000000 0.0 0.0 0.0 # O_3
2987 1 2 0.000000000000 0.0 0.0 0.0 # Si3
2988 1 3 0.000000000000 0.0 0.0 0.0 # C_3
2989 1 3 0.000000000000 0.0 0.0 0.0 # C_3
2990 1 4 0.000000000000 0.0 0.0 0.0 # O_3
2991 1 2 0.000000000000 0.0 0.0 0.0 # Si3
2992 1 3 0.000000000000 0.0 0.0 0.0 # C_3
2993 1 3 0.000000000000 0.0 0.0 0.0 # C_3
2994 1 4 0.000000000000 0.0 0.0 0.0 # O_3
2995 1 5 0.000000000000 0.0 0.0 0.0 # O_
2996 1 2 0.000000000000 0.0 0.0 0.0 # Si3
2997 1 3 0.000000000000 0.0 0.0 0.0 # C_3
2998 1 3 0.000000000000 0.0 0.0 0.0 # C_3
2999 1 4 0.000000000000 0.0 0.0 0.0 # O_3
3000 1 2 0.000000000000 0.0 0.0 0.0 # Si3
3001 1 3 0.000000000000 0.0 0.0 0.0 # C_3
3002 1 3 0.000000000000 0.0 0.0 0.0 # C_3
3003 1 4 0.000000000000 0.0 0.0 0.0 # O_3
3004 1 2 0.000000000000 0.0 0.0 0.0 # Si3
3005 1 3 0.000000000000 0.0 0.0 0.0 # C_3
3006 1 3 0.000000000000 0.0 0.0 0.0 # C_3
3007 1 4 0.000000000000 0.0 0.0 0.0 # O_3
3008 1 2 0.000000000000 0.0 0.0 0.0 # Si3
3009 1 3 0.000000000000 0.0 0.0 0.0 # C_3
3010 1 3 0.000000000000 0.0 0.0 0.0 # C_3
3011 1 4 0.000000000000 0.0 0.0 0.0 # O_3
3012 1 2 0.000000000000 0.0 0.0 0.0 # Si3
3013 1 3 0.000000000000 0.0 0.0 0.0 # C_3
3014 1 3 0.000000000000 0.0 0.0 0.0 # C_3
3015 1 4 0.000000000000 0.0 0.0 0.0 # O_3
3016 1 5 0.000000000000 0.0 0.0 0.0 # O_
3017 1 2 0.000000000000 0.0 0.0 0.0 # Si3
3018 1 3 0.000000000000 0.0 0.0 0.0 # C_3
3019 1 3 0.000000000000 0.0 0.0 0.0 # C_3
3020 1 4 0.000000000000 0.0 0.0 0.0 # O_3
3021 1 2 0.000000000000 0.0 0.0 0.0 # Si3
3022 1 3 0.000000000000 0.0 0.0 0.0 # C_3
3023 1 3 0.000000000000 0.0 0.0 0.0 # C_3
3024 1 4 0.000000000000 0.0 0.0 0.0 # O_3
3025 1 2 0.000000000000 0.0 0.0 0.0 # Si3
3026 1 3 0.000000000000 0.0 0.0 0.0 # C_3
3027 1 3 0.000000000000 0.0 0.0 0.0 # C_3
3028 1 4 0.000000000000 0.0 0.0 0.0 # O_3
3029 1 2 0.000000000000 0.0 0.0 0.0 # Si3
3030 1 3 0.000000000000 0.0 0.0 0.0 # C_3
3031 1 3 0.000000000000 0.0 0.0 0.0 # C_3
3032 1 4 0.000000000000 0.0 0.0 0.0 # O_3
3033 1 2 0.000000000000 0.0 0.0 0.0 # Si3
3034 1 3 0.000000000000 0.0 0.0 0.0 # C_3
3035 1 3 0.000000000000 0.0 0.0 0.0 # C_3
3036 1 4 0.000000000000 0.0 0.0 0.0 # O_3
3037 1 5 0.000000000000 0.0 0.0 0.0 # O_
3038 1 2 0.000000000000 0.0 0.0 0.0 # Si3
3039 1 3 0.000000000000 0.0 0.0 0.0 # C_3
3040 1 3 0.000000000000 0.0 0.0 0.0 # C_3
3041 1 4 0.000000000000 0.0 0.0 0.0 # O_3
3042 1 2 0.000000000000 0.0 0.0 0.0 # Si3
3043 1 3 0.000000000000 0.0 0.0 0.0 # C_3
3044 1 3 0.000000000000 0.0 0.0 0.0 # C_3
3045 1 4 0.000000000000 0.0 0.0 0.0 # O_3
3046 1 2 0.000000000000 0.0 0.0 0.0 # Si3
3047 1 3 0.000000000000 0.0 0.0 0.0 # C_3
3048 1 3 0.000000000000 0.0 0.0 0.0 # C_3
3049 1 4 0.000000000000 0.0 0.0 0.0 # O_3
3050 1 2 0.000000000000 0.0 0.0 0.0 # Si3
3051 1 3 0.000000000000 0.0 0.0 0.0 # C_3
3052 1 3 0.000000000000 0.0 0.0 0.0 # C_3
3053 1 4 0.000000000000 0.0 0.0 0.0 # O_3
3054 1 2 0.000000000000 0.0 0.0 0.0 # Si3
3055 1 3 0.000000000000 0.0 0.0 0.0 # C_3
3056 1 3 0.000000000000 0.0 0.0 0.0 # C_3
3057 1 4 0.000000000000 0.0 0.0 0.0 # O_3
3058 1 5 0.000000000000 0.0 0.0 0.0 # O_
3059 1 2 0.000000000000 0.0 0.0 0.0 # Si3
3060 1 3 0.000000000000 0.0 0.0 0.0 # C_3
3061 1 3 0.000000000000 0.0 0.0 0.0 # C_3
3062 1 4 0.000000000000 0.0 0.0 0.0 # O_3
3063 1 2 0.000000000000 0.0 0.0 0.0 # Si3
3064 1 3 0.000000000000 0.0 0.0 0.0 # C_3
3065 1 3 0.000000000000 0.0 0.0 0.0 # C_3
3066 1 4 0.000000000000 0.0 0.0 0.0 # O_3
3067 1 2 0.000000000000 0.0 0.0 0.0 # Si3
3068 1 3 0.000000000000 0.0 0.0 0.0 # C_3
3069 1 3 0.000000000000 0.0 0.0 0.0 # C_3
3070 1 4 0.000000000000 0.0 0.0 0.0 # O_3
3071 1 2 0.000000000000 0.0 0.0 0.0 # Si3
3072 1 3 0.000000000000 0.0 0.0 0.0 # C_3
3073 1 3 0.000000000000 0.0 0.0 0.0 # C_3
3074 1 4 0.000000000000 0.0 0.0 0.0 # O_3
3075 1 2 0.000000000000 0.0 0.0 0.0 # Si3
3076 1 3 0.000000000000 0.0 0.0 0.0 # C_3
3077 1 3 0.000000000000 0.0 0.0 0.0 # C_3
3078 1 4 0.000000000000 0.0 0.0 0.0 # O_3
3079 1 5 0.000000000000 0.0 0.0 0.0 # O_
3080 1 2 0.000000000000 0.0 0.0 0.0 # Si3
3081 1 3 0.000000000000 0.0 0.0 0.0 # C_3
3082 1 3 0.000000000000 0.0 0.0 0.0 # C_3
3083 1 4 0.000000000000 0.0 0.0 0.0 # O_3
3084 1 2 0.000000000000 0.0 0.0 0.0 # Si3
3085 1 3 0.000000000000 0.0 0.0 0.0 # C_3
3086 1 3 0.000000000000 0.0 0.0 0.0 # C_3
3087 1 4 0.000000000000 0.0 0.0 0.0 # O_3
3088 1 2 0.000000000000 0.0 0.0 0.0 # Si3
3089 1 3 0.000000000000 0.0 0.0 0.0 # C_3
3090 1 3 0.000000000000 0.0 0.0 0.0 # C_3
3091 1 4 0.000000000000 0.0 0.0 0.0 # O_3
3092 1 2 0.000000000000 0.0 0.0 0.0 # Si3
3093 1 3 0.000000000000 0.0 0.0 0.0 # C_3
3094 1 3 0.000000000000 0.0 0.0 0.0 # C_3
3095 1 4 0.000000000000 0.0 0.0 0.0 # O_3
3096 1 2 0.000000000000 0.0 0.0 0.0 # Si3
3097 1 3 0.000000000000 0.0 0.0 0.0 # C_3
3098 1 3 0.000000000000 0.0 0.0 0.0 # C_3
3099 1 4 0.000000000000 0.0 0.0 0.0 # O_3
3100 1 5 0.000000000000 0.0 0.0 0.0 # O_
3101 1 2 0.000000000000 0.0 0.0 0.0 # Si3
3102 1 3 0.000000000000 0.0 0.0 0.0 # C_3
3103 1 3 0.000000000000 0.0 0.0 0.0 # C_3
3104 1 4 0.000000000000 0.0 0.0 0.0 # O_3
3105 1 2 0.000000000000 0.0 0.0 0.0 # Si3
3106 1 3 0.000000000000 0.0 0.0 0.0 # C_3
3107 1 3 0.000000000000 0.0 0.0 0.0 # C_3
3108 1 4 0.000000000000 0.0 0.0 0.0 # O_3
3109 1 2 0.000000000000 0.0 0.0 0.0 # Si3
3110 1 3 0.000000000000 0.0 0.0 0.0 # C_3
3111 1 3 0.000000000000 0.0 0.0 0.0 # C_3
3112 1 4 0.000000000000 0.0 0.0 0.0 # O_3
3113 1 2 0.000000000000 0.0 0.0 0.0 # Si3
3114 1 3 0.000000000000 0.0 0.0 0.0 # C_3
3115 1 3 0.000000000000 0.0 0.0 0.0 # C_3
3116 1 4 0.000000000000 0.0 0.0 0.0 # O_3
3117 1 2 0.000000000000 0.0 0.0 0.0 # Si3
3118 1 3 0.000000000000 0.0 0.0 0.0 # C_3
3119 1 3 0.000000000000 0.0 0.0 0.0 # C_3
3120 1 4 0.000000000000 0.0 0.0 0.0 # O_3
3121 1 5 0.000000000000 0.0 0.0 0.0 # O_
3122 1 2 0.000000000000 0.0 0.0 0.0 # Si3
3123 1 3 0.000000000000 0.0 0.0 0.0 # C_3
3124 1 3 0.000000000000 0.0 0.0 0.0 # C_3
3125 1 4 0.000000000000 0.0 0.0 0.0 # O_3
3126 1 2 0.000000000000 0.0 0.0 0.0 # Si3
3127 1 3 0.000000000000 0.0 0.0 0.0 # C_3
3128 1 3 0.000000000000 0.0 0.0 0.0 # C_3
3129 1 4 0.000000000000 0.0 0.0 0.0 # O_3
3130 1 2 0.000000000000 0.0 0.0 0.0 # Si3
3131 1 3 0.000000000000 0.0 0.0 0.0 # C_3
3132 1 3 0.000000000000 0.0 0.0 0.0 # C_3
3133 1 4 0.000000000000 0.0 0.0 0.0 # O_3
3134 1 2 0.000000000000 0.0 0.0 0.0 # Si3
3135 1 3 0.000000000000 0.0 0.0 0.0 # C_3
3136 1 3 0.000000000000 0.0 0.0 0.0 # C_3
3137 1 4 0.000000000000 0.0 0.0 0.0 # O_3
3138 1 2 0.000000000000 0.0 0.0 0.0 # Si3
3139 1 3 0.000000000000 0.0 0.0 0.0 # C_3
3140 1 3 0.000000000000 0.0 0.0 0.0 # C_3
3141 1 4 0.000000000000 0.0 0.0 0.0 # O_3
3142 1 5 0.000000000000 0.0 0.0 0.0 # O_
3143 1 2 0.000000000000 0.0 0.0 0.0 # Si3
3144 1 3 0.000000000000 0.0 0.0 0.0 # C_3
3145 1 3 0.000000000000 0.0 0.0 0.0 # C_3
3146 1 4 0.000000000000 0.0 0.0 0.0 # O_3
3147 1 2 0.000000000000 0.0 0.0 0.0 # Si3
3148 1 3 0.000000000000 0.0 0.0 0.0 # C_3
3149 1 3 0.000000000000 0.0 0.0 0.0 # C_3
3150 1 4 0.000000000000 0.0 0.0 0.0 # O_3
3151 1 2 0.000000000000 0.0 0.0 0.0 # Si3
3152 1 3 0.000000000000 0.0 0.0 0.0 # C_3
3153 1 3 0.000000000000 0.0 0.0 0.0 # C_3
3154 1 4 0.000000000000 0.0 0.0 0.0 # O_3
3155 1 2 0.000000000000 0.0 0.0 0.0 # Si3
3156 1 3 0.000000000000 0.0 0.0 0.0 # C_3
3157 1 3 0.000000000000 0.0 0.0 0.0 # C_3
3158 1 4 0.000000000000 0.0 0.0 0.0 # O_3
3159 1 2 0.000000000000 0.0 0.0 0.0 # Si3
3160 1 3 0.000000000000 0.0 0.0 0.0 # C_3
3161 1 3 0.000000000000 0.0 0.0 0.0 # C_3
3162 1 4 0.000000000000 0.0 0.0 0.0 # O_3
3163 1 5 0.000000000000 0.0 0.0 0.0 # O_
3164 1 2 0.000000000000 0.0 0.0 0.0 # Si3
3165 1 3 0.000000000000 0.0 0.0 0.0 # C_3
3166 1 3 0.000000000000 0.0 0.0 0.0 # C_3
3167 1 4 0.000000000000 0.0 0.0 0.0 # O_3
3168 1 2 0.000000000000 0.0 0.0 0.0 # Si3
3169 1 3 0.000000000000 0.0 0.0 0.0 # C_3
3170 1 3 0.000000000000 0.0 0.0 0.0 # C_3
3171 1 4 0.000000000000 0.0 0.0 0.0 # O_3
3172 1 2 0.000000000000 0.0 0.0 0.0 # Si3
3173 1 3 0.000000000000 0.0 0.0 0.0 # C_3
3174 1 3 0.000000000000 0.0 0.0 0.0 # C_3
3175 1 4 0.000000000000 0.0 0.0 0.0 # O_3
3176 1 2 0.000000000000 0.0 0.0 0.0 # Si3
3177 1 3 0.000000000000 0.0 0.0 0.0 # C_3
3178 1 3 0.000000000000 0.0 0.0 0.0 # C_3
3179 1 4 0.000000000000 0.0 0.0 0.0 # O_3
3180 1 2 0.000000000000 0.0 0.0 0.0 # Si3
3181 1 3 0.000000000000 0.0 0.0 0.0 # C_3
3182 1 3 0.000000000000 0.0 0.0 0.0 # C_3
3183 1 4 0.000000000000 0.0 0.0 0.0 # O_3
3184 1 5 0.000000000000 0.0 0.0 0.0 # O_
3185 1 2 0.000000000000 0.0 0.0 0.0 # Si3
3186 1 3 0.000000000000 0.0 0.0 0.0 # C_3
3187 1 3 0.000000000000 0.0 0.0 0.0 # C_3
3188 1 4 0.000000000000 0.0 0.0 0.0 # O_3
3189 1 2 0.000000000000 0.0 0.0 0.0 # Si3
3190 1 3 0.000000000000 0.0 0.0 0.0 # C_3
3191 1 3 0.000000000000 0.0 0.0 0.0 # C_3
3192 1 4 0.000000000000 0.0 0.0 0.0 # O_3
3193 1 2 0.000000000000 0.0 0.0 0.0 # Si3
3194 1 3 0.000000000000 0.0 0.0 0.0 # C_3
3195 1 3 0.000000000000 0.0 0.0 0.0 # C_3
3196 1 4 0.000000000000 0.0 0.0 0.0 # O_3
3197 1 2 0.000000000000 0.0 0.0 0.0 # Si3
3198 1 3 0.000000000000 0.0 0.0 0.0 # C_3
3199 1 3 0.000000000000 0.0 0.0 0.0 # C_3
3200 1 4 0.000000000000 0.0 0.0 0.0 # O_3
3201 1 2 0.000000000000 0.0 0.0 0.0 # Si3
3202 1 3 0.000000000000 0.0 0.0 0.0 # C_3
3203 1 3 0.000000000000 0.0 0.0 0.0 # C_3
3204 1 4 0.000000000000 0.0 0.0 0.0 # O_3
3205 1 5 0.000000000000 0.0 0.0 0.0 # O_
3206 1 2 0.000000000000 0.0 0.0 0.0 # Si3
3207 1 3 0.000000000000 0.0 0.0 0.0 # C_3
3208 1 3 0.000000000000 0.0 0.0 0.0 # C_3
3209 1 4 0.000000000000 0.0 0.0 0.0 # O_3
3210 1 2 0.000000000000 0.0 0.0 0.0 # Si3
3211 1 3 0.000000000000 0.0 0.0 0.0 # C_3
3212 1 3 0.000000000000 0.0 0.0 0.0 # C_3
3213 1 4 0.000000000000 0.0 0.0 0.0 # O_3
3214 1 2 0.000000000000 0.0 0.0 0.0 # Si3
3215 1 3 0.000000000000 0.0 0.0 0.0 # C_3
3216 1 3 0.000000000000 0.0 0.0 0.0 # C_3
3217 1 4 0.000000000000 0.0 0.0 0.0 # O_3
3218 1 2 0.000000000000 0.0 0.0 0.0 # Si3
3219 1 3 0.000000000000 0.0 0.0 0.0 # C_3
3220 1 3 0.000000000000 0.0 0.0 0.0 # C_3
3221 1 4 0.000000000000 0.0 0.0 0.0 # O_3
3222 1 2 0.000000000000 0.0 0.0 0.0 # Si3
3223 1 3 0.000000000000 0.0 0.0 0.0 # C_3
3224 1 3 0.000000000000 0.0 0.0 0.0 # C_3
3225 1 4 0.000000000000 0.0 0.0 0.0 # O_3
3226 1 5 0.000000000000 0.0 0.0 0.0 # O_
3227 1 2 0.000000000000 0.0 0.0 0.0 # Si3
3228 1 3 0.000000000000 0.0 0.0 0.0 # C_3
3229 1 3 0.000000000000 0.0 0.0 0.0 # C_3
3230 1 4 0.000000000000 0.0 0.0 0.0 # O_3
3231 1 2 0.000000000000 0.0 0.0 0.0 # Si3
3232 1 3 0.000000000000 0.0 0.0 0.0 # C_3
3233 1 3 0.000000000000 0.0 0.0 0.0 # C_3
3234 1 4 0.000000000000 0.0 0.0 0.0 # O_3
3235 1 2 0.000000000000 0.0 0.0 0.0 # Si3
3236 1 3 0.000000000000 0.0 0.0 0.0 # C_3
3237 1 3 0.000000000000 0.0 0.0 0.0 # C_3
3238 1 4 0.000000000000 0.0 0.0 0.0 # O_3
3239 1 2 0.000000000000 0.0 0.0 0.0 # Si3
3240 1 3 0.000000000000 0.0 0.0 0.0 # C_3
3241 1 3 0.000000000000 0.0 0.0 0.0 # C_3
3242 1 4 0.000000000000 0.0 0.0 0.0 # O_3
3243 1 2 0.000000000000 0.0 0.0 0.0 # Si3
3244 1 3 0.000000000000 0.0 0.0 0.0 # C_3
3245 1 3 0.000000000000 0.0 0.0 0.0 # C_3
3246 1 4 0.000000000000 0.0 0.0 0.0 # O_3
3247 1 5 0.000000000000 0.0 0.0 0.0 # O_
3248 1 2 0.000000000000 0.0 0.0 0.0 # Si3
3249 1 3 0.000000000000 0.0 0.0 0.0 # C_3
3250 1 3 0.000000000000 0.0 0.0 0.0 # C_3
3251 1 4 0.000000000000 0.0 0.0 0.0 # O_3
3252 1 2 0.000000000000 0.0 0.0 0.0 # Si3
3253 1 3 0.000000000000 0.0 0.0 0.0 # C_3
3254 1 3 0.000000000000 0.0 0.0 0.0 # C_3
3255 1 4 0.000000000000 0.0 0.0 0.0 # O_3
3256 1 2 0.000000000000 0.0 0.0 0.0 # Si3
3257 1 3 0.000000000000 0.0 0.0 0.0 # C_3
3258 1 3 0.000000000000 0.0 0.0 0.0 # C_3
3259 1 4 0.000000000000 0.0 0.0 0.0 # O_3
3260 1 2 0.000000000000 0.0 0.0 0.0 # Si3
3261 1 3 0.000000000000 0.0 0.0 0.0 # C_3
3262 1 3 0.000000000000 0.0 0.0 0.0 # C_3
3263 1 4 0.000000000000 0.0 0.0 0.0 # O_3
3264 1 2 0.000000000000 0.0 0.0 0.0 # Si3
3265 1 3 0.000000000000 0.0 0.0 0.0 # C_3
3266 1 3 0.000000000000 0.0 0.0 0.0 # C_3
3267 1 4 0.000000000000 0.0 0.0 0.0 # O_3
3268 1 5 0.000000000000 0.0 0.0 0.0 # O_
3269 1 2 0.000000000000 0.0 0.0 0.0 # Si3
3270 1 3 0.000000000000 0.0 0.0 0.0 # C_3
3271 1 3 0.000000000000 0.0 0.0 0.0 # C_3
3272 1 4 0.000000000000 0.0 0.0 0.0 # O_3
3273 1 2 0.000000000000 0.0 0.0 0.0 # Si3
3274 1 3 0.000000000000 0.0 0.0 0.0 # C_3
3275 1 3 0.000000000000 0.0 0.0 0.0 # C_3
3276 1 4 0.000000000000 0.0 0.0 0.0 # O_3
3277 1 2 0.000000000000 0.0 0.0 0.0 # Si3
3278 1 3 0.000000000000 0.0 0.0 0.0 # C_3
3279 1 3 0.000000000000 0.0 0.0 0.0 # C_3
3280 1 4 0.000000000000 0.0 0.0 0.0 # O_3
3281 1 2 0.000000000000 0.0 0.0 0.0 # Si3
3282 1 3 0.000000000000 0.0 0.0 0.0 # C_3
3283 1 3 0.000000000000 0.0 0.0 0.0 # C_3
3284 1 4 0.000000000000 0.0 0.0 0.0 # O_3
3285 1 2 0.000000000000 0.0 0.0 0.0 # Si3
3286 1 3 0.000000000000 0.0 0.0 0.0 # C_3
3287 1 3 0.000000000000 0.0 0.0 0.0 # C_3
3288 1 4 0.000000000000 0.0 0.0 0.0 # O_3
3289 1 5 0.000000000000 0.0 0.0 0.0 # O_
3290 1 2 0.000000000000 0.0 0.0 0.0 # Si3
3291 1 3 0.000000000000 0.0 0.0 0.0 # C_3
3292 1 3 0.000000000000 0.0 0.0 0.0 # C_3
3293 1 4 0.000000000000 0.0 0.0 0.0 # O_3
3294 1 2 0.000000000000 0.0 0.0 0.0 # Si3
3295 1 3 0.000000000000 0.0 0.0 0.0 # C_3
3296 1 3 0.000000000000 0.0 0.0 0.0 # C_3
3297 1 4 0.000000000000 0.0 0.0 0.0 # O_3
3298 1 2 0.000000000000 0.0 0.0 0.0 # Si3
3299 1 3 0.000000000000 0.0 0.0 0.0 # C_3
3300 1 3 0.000000000000 0.0 0.0 0.0 # C_3
3301 1 4 0.000000000000 0.0 0.0 0.0 # O_3
3302 1 2 0.000000000000 0.0 0.0 0.0 # Si3
3303 1 3 0.000000000000 0.0 0.0 0.0 # C_3
3304 1 3 0.000000000000 0.0 0.0 0.0 # C_3
3305 1 4 0.000000000000 0.0 0.0 0.0 # O_3
3306 1 2 0.000000000000 0.0 0.0 0.0 # Si3
3307 1 3 0.000000000000 0.0 0.0 0.0 # C_3
3308 1 3 0.000000000000 0.0 0.0 0.0 # C_3
3309 1 4 0.000000000000 0.0 0.0 0.0 # O_3
3310 1 5 0.000000000000 0.0 0.0 0.0 # O_
3311 1 2 0.000000000000 0.0 0.0 0.0 # Si3
3312 1 3 0.000000000000 0.0 0.0 0.0 # C_3
3313 1 3 0.000000000000 0.0 0.0 0.0 # C_3
3314 1 4 0.000000000000 0.0 0.0 0.0 # O_3
3315 1 2 0.000000000000 0.0 0.0 0.0 # Si3
3316 1 3 0.000000000000 0.0 0.0 0.0 # C_3
3317 1 3 0.000000000000 0.0 0.0 0.0 # C_3
3318 1 4 0.000000000000 0.0 0.0 0.0 # O_3
3319 1 2 0.000000000000 0.0 0.0 0.0 # Si3
3320 1 3 0.000000000000 0.0 0.0 0.0 # C_3
3321 1 3 0.000000000000 0.0 0.0 0.0 # C_3
3322 1 4 0.000000000000 0.0 0.0 0.0 # O_3
3323 1 2 0.000000000000 0.0 0.0 0.0 # Si3
3324 1 3 0.000000000000 0.0 0.0 0.0 # C_3
3325 1 3 0.000000000000 0.0 0.0 0.0 # C_3
3326 1 4 0.000000000000 0.0 0.0 0.0 # O_3
3327 1 2 0.000000000000 0.0 0.0 0.0 # Si3
3328 1 3 0.000000000000 0.0 0.0 0.0 # C_3
3329 1 3 0.000000000000 0.0 0.0 0.0 # C_3
3330 1 4 0.000000000000 0.0 0.0 0.0 # O_3
3331 1 5 0.000000000000 0.0 0.0 0.0 # O_
3332 1 2 0.000000000000 0.0 0.0 0.0 # Si3
3333 1 3 0.000000000000 0.0 0.0 0.0 # C_3
3334 1 3 0.000000000000 0.0 0.0 0.0 # C_3
3335 1 4 0.000000000000 0.0 0.0 0.0 # O_3
3336 1 2 0.000000000000 0.0 0.0 0.0 # Si3
3337 1 3 0.000000000000 0.0 0.0 0.0 # C_3
3338 1 3 0.000000000000 0.0 0.0 0.0 # C_3
3339 1 4 0.000000000000 0.0 0.0 0.0 # O_3
3340 1 2 0.000000000000 0.0 0.0 0.0 # Si3
3341 1 3 0.000000000000 0.0 0.0 0.0 # C_3
3342 1 3 0.000000000000 0.0 0.0 0.0 # C_3
3343 1 4 0.000000000000 0.0 0.0 0.0 # O_3
3344 1 2 0.000000000000 0.0 0.0 0.0 # Si3
3345 1 3 0.000000000000 0.0 0.0 0.0 # C_3
3346 1 3 0.000000000000 0.0 0.0 0.0 # C_3
3347 1 4 0.000000000000 0.0 0.0 0.0 # O_3
3348 1 2 0.000000000000 0.0 0.0 0.0 # Si3
3349 1 3 0.000000000000 0.0 0.0 0.0 # C_3
3350 1 3 0.000000000000 0.0 0.0 0.0 # C_3
3351 1 4 0.000000000000 0.0 0.0 0.0 # O_3
3352 1 5 0.000000000000 0.0 0.0 0.0 # O_
3353 1 2 0.000000000000 0.0 0.0 0.0 # Si3
3354 1 3 0.000000000000 0.0 0.0 0.0 # C_3
3355 1 3 0.000000000000 0.0 0.0 0.0 # C_3
3356 1 4 0.000000000000 0.0 0.0 0.0 # O_3
3357 1 2 0.000000000000 0.0 0.0 0.0 # Si3
3358 1 3 0.000000000000 0.0 0.0 0.0 # C_3
3359 1 3 0.000000000000 0.0 0.0 0.0 # C_3
3360 1 4 0.000000000000 0.0 0.0 0.0 # O_3
3361 1 2 0.000000000000 0.0 0.0 0.0 # Si3
3362 1 3 0.000000000000 0.0 0.0 0.0 # C_3
3363 1 3 0.000000000000 0.0 0.0 0.0 # C_3
3364 1 4 0.000000000000 0.0 0.0 0.0 # O_3
3365 1 2 0.000000000000 0.0 0.0 0.0 # Si3
3366 1 3 0.000000000000 0.0 0.0 0.0 # C_3
3367 1 3 0.000000000000 0.0 0.0 0.0 # C_3
3368 1 4 0.000000000000 0.0 0.0 0.0 # O_3
3369 1 2 0.000000000000 0.0 0.0 0.0 # Si3
3370 1 3 0.000000000000 0.0 0.0 0.0 # C_3
3371 1 3 0.000000000000 0.0 0.0 0.0 # C_3
3372 1 4 0.000000000000 0.0 0.0 0.0 # O_3
3373 1 5 0.000000000000 0.0 0.0 0.0 # O_
3374 1 2 0.000000000000 0.0 0.0 0.0 # Si3
3375 1 3 0.000000000000 0.0 0.0 0.0 # C_3
3376 1 3 0.000000000000 0.0 0.0 0.0 # C_3
3377 1 4 0.000000000000 0.0 0.0 0.0 # O_3
3378 1 2 0.000000000000 0.0 0.0 0.0 # Si3
3379 1 3 0.000000000000 0.0 0.0 0.0 # C_3
3380 1 3 0.000000000000 0.0 0.0 0.0 # C_3
3381 1 4 0.000000000000 0.0 0.0 0.0 # O_3
3382 1 2 0.000000000000 0.0 0.0 0.0 # Si3
3383 1 3 0.000000000000 0.0 0.0 0.0 # C_3
3384 1 3 0.000000000000 0.0 0.0 0.0 # C_3
3385 1 4 0.000000000000 0.0 0.0 0.0 # O_3
3386 1 2 0.000000000000 0.0 0.0 0.0 # Si3
3387 1 3 0.000000000000 0.0 0.0 0.0 # C_3
3388 1 3 0.000000000000 0.0 0.0 0.0 # C_3
3389 1 4 0.000000000000 0.0 0.0 0.0 # O_3
3390 1 2 0.000000000000 0.0 0.0 0.0 # Si3
3391 1 3 0.000000000000 0.0 0.0 0.0 # C_3
3392 1 3 0.000000000000 0.0 0.0 0.0 # C_3
3393 1 4 0.000000000000 0.0 0.0 0.0 # O_3
3394 1 5 0.000000000000 0.0 0.0 0.0 # O_
3395 1 2 0.000000000000 0.0 0.0 0.0 # Si3
3396 1 3 0.000000000000 0.0 0.0 0.0 # C_3
3397 1 3 0.000000000000 0.0 0.0 0.0 # C_3
3398 1 4 0.000000000000 0.0 0.0 0.0 # O_3
3399 1 2 0.000000000000 0.0 0.0 0.0 # Si3
3400 1 3 0.000000000000 0.0 0.0 0.0 # C_3
3401 1 3 0.000000000000 0.0 0.0 0.0 # C_3
3402 1 4 0.000000000000 0.0 0.0 0.0 # O_3
3403 1 2 0.000000000000 0.0 0.0 0.0 # Si3
3404 1 3 0.000000000000 0.0 0.0 0.0 # C_3
3405 1 3 0.000000000000 0.0 0.0 0.0 # C_3
3406 1 4 0.000000000000 0.0 0.0 0.0 # O_3
3407 1 2 0.000000000000 0.0 0.0 0.0 # Si3
3408 1 3 0.000000000000 0.0 0.0 0.0 # C_3
3409 1 3 0.000000000000 0.0 0.0 0.0 # C_3
3410 1 4 0.000000000000 0.0 0.0 0.0 # O_3
3411 1 2 0.000000000000 0.0 0.0 0.0 # Si3
3412 1 3 0.000000000000 0.0 0.0 0.0 # C_3
3413 1 3 0.000000000000 0.0 0.0 0.0 # C_3
3414 1 4 0.000000000000 0.0 0.0 0.0 # O_3
3415 1 5 0.000000000000 0.0 0.0 0.0 # O_
3416 1 2 0.000000000000 0.0 0.0 0.0 # Si3
3417 1 3 0.000000000000 0.0 0.0 0.0 # C_3
3418 1 3 0.000000000000 0.0 0.0 0.0 # C_3
3419 1 4 0.000000000000 0.0 0.0 0.0 # O_3
3420 1 2 0.000000000000 0.0 0.0 0.0 # Si3
3421 1 3 0.000000000000 0.0 0.0 0.0 # C_3
3422 1 3 0.000000000000 0.0 0.0 0.0 # C_3
3423 1 4 0.000000000000 0.0 0.0 0.0 # O_3
3424 1 2 0.000000000000 0.0 0.0 0.0 # Si3
3425 1 3 0.000000000000 0.0 0.0 0.0 # C_3
3426 1 3 0.000000000000 0.0 0.0 0.0 # C_3
3427 1 4 0.000000000000 0.0 0.0 0.0 # O_3
3428 1 2 0.000000000000 0.0 0.0 0.0 # Si3
3429 1 3 0.000000000000 0.0 0.0 0.0 # C_3
3430 1 3 0.000000000000 0.0 0.0 0.0 # C_3
3431 1 4 0.000000000000 0.0 0.0 0.0 # O_3
3432 1 2 0.000000000000 0.0 0.0 0.0 # Si3
3433 1 3 0.000000000000 0.0 0.0 0.0 # C_3
3434 1 3 0.000000000000 0.0 0.0 0.0 # C_3
3435 1 4 0.000000000000 0.0 0.0 0.0 # O_3
3436 1 5 0.000000000000 0.0 0.0 0.0 # O_
3437 1 2 0.000000000000 0.0 0.0 0.0 # Si3
3438 1 3 0.000000000000 0.0 0.0 0.0 # C_3
3439 1 3 0.000000000000 0.0 0.0 0.0 # C_3
3440 1 4 0.000000000000 0.0 0.0 0.0 # O_3
3441 1 2 0.000000000000 0.0 0.0 0.0 # Si3
3442 1 3 0.000000000000 0.0 0.0 0.0 # C_3
3443 1 3 0.000000000000 0.0 0.0 0.0 # C_3
3444 1 4 0.000000000000 0.0 0.0 0.0 # O_3
3445 1 2 0.000000000000 0.0 0.0 0.0 # Si3
3446 1 3 0.000000000000 0.0 0.0 0.0 # C_3
3447 1 3 0.000000000000 0.0 0.0 0.0 # C_3
3448 1 4 0.000000000000 0.0 0.0 0.0 # O_3
3449 1 2 0.000000000000 0.0 0.0 0.0 # Si3
3450 1 3 0.000000000000 0.0 0.0 0.0 # C_3
3451 1 3 0.000000000000 0.0 0.0 0.0 # C_3
3452 1 4 0.000000000000 0.0 0.0 0.0 # O_3
3453 1 2 0.000000000000 0.0 0.0 0.0 # Si3
3454 1 3 0.000000000000 0.0 0.0 0.0 # C_3
3455 1 3 0.000000000000 0.0 0.0 0.0 # C_3
3456 1 4 0.000000000000 0.0 0.0 0.0 # O_3
3457 1 5 0.000000000000 0.0 0.0 0.0 # O_
3458 1 2 0.000000000000 0.0 0.0 0.0 # Si3
3459 1 3 0.000000000000 0.0 0.0 0.0 # C_3
3460 1 3 0.000000000000 0.0 0.0 0.0 # C_3
3461 1 4 0.000000000000 0.0 0.0 0.0 # O_3
3462 1 2 0.000000000000 0.0 0.0 0.0 # Si3
3463 1 3 0.000000000000 0.0 0.0 0.0 # C_3
3464 1 3 0.000000000000 0.0 0.0 0.0 # C_3
3465 1 4 0.000000000000 0.0 0.0 0.0 # O_3
3466 1 2 0.000000000000 0.0 0.0 0.0 # Si3
3467 1 3 0.000000000000 0.0 0.0 0.0 # C_3
3468 1 3 0.000000000000 0.0 0.0 0.0 # C_3
3469 1 4 0.000000000000 0.0 0.0 0.0 # O_3
3470 1 2 0.000000000000 0.0 0.0 0.0 # Si3
3471 1 3 0.000000000000 0.0 0.0 0.0 # C_3
3472 1 3 0.000000000000 0.0 0.0 0.0 # C_3
3473 1 4 0.000000000000 0.0 0.0 0.0 # O_3
3474 1 2 0.000000000000 0.0 0.0 0.0 # Si3
3475 1 3 0.000000000000 0.0 0.0 0.0 # C_3
3476 1 3 0.000000000000 0.0 0.0 0.0 # C_3
3477 1 4 0.000000000000 0.0 0.0 0.0 # O_3
3478 1 5 0.000000000000 0.0 0.0 0.0 # O_
3479 1 2 0.000000000000 0.0 0.0 0.0 # Si3
3480 1 3 0.000000000000 0.0 0.0 0.0 # C_3
3481 1 3 0.000000000000 0.0 0.0 0.0 # C_3
3482 1 4 0.000000000000 0.0 0.0 0.0 # O_3
3483 1 2 0.000000000000 0.0 0.0 0.0 # Si3
3484 1 3 0.000000000000 0.0 0.0 0.0 # C_3
3485 1 3 0.000000000000 0.0 0.0 0.0 # C_3
3486 1 4 0.000000000000 0.0 0.0 0.0 # O_3
3487 1 2 0.000000000000 0.0 0.0 0.0 # Si3
3488 1 3 0.000000000000 0.0 0.0 0.0 # C_3
3489 1 3 0.000000000000 0.0 0.0 0.0 # C_3
3490 1 4 0.000000000000 0.0 0.0 0.0 # O_3
3491 1 2 0.000000000000 0.0 0.0 0.0 # Si3
3492 1 3 0.000000000000 0.0 0.0 0.0 # C_3
3493 1 3 0.000000000000 0.0 0.0 0.0 # C_3
3494 1 4 0.000000000000 0.0 0.0 0.0 # O_3
3495 1 2 0.000000000000 0.0 0.0 0.0 # Si3
3496 1 3 0.000000000000 0.0 0.0 0.0 # C_3
3497 1 3 0.000000000000 0.0 0.0 0.0 # C_3
3498 1 4 0.000000000000 0.0 0.0 0.0 # O_3
3499 1 5 0.000000000000 0.0 0.0 0.0 # O_
3500 1 2 0.000000000000 0.0 0.0 0.0 # Si3
3501 1 3 0.000000000000 0.0 0.0 0.0 # C_3
3502 1 3 0.000000000000 0.0 0.0 0.0 # C_3
3503 1 4 0.000000000000 0.0 0.0 0.0 # O_3
3504 1 2 0.000000000000 0.0 0.0 0.0 # Si3
3505 1 3 0.000000000000 0.0 0.0 0.0 # C_3
3506 1 3 0.000000000000 0.0 0.0 0.0 # C_3
3507 1 4 0.000000000000 0.0 0.0 0.0 # O_3
3508 1 2 0.000000000000 0.0 0.0 0.0 # Si3
3509 1 3 0.000000000000 0.0 0.0 0.0 # C_3
3510 1 3 0.000000000000 0.0 0.0 0.0 # C_3
3511 1 4 0.000000000000 0.0 0.0 0.0 # O_3
3512 1 2 0.000000000000 0.0 0.0 0.0 # Si3
3513 1 3 0.000000000000 0.0 0.0 0.0 # C_3
3514 1 3 0.000000000000 0.0 0.0 0.0 # C_3
3515 1 4 0.000000000000 0.0 0.0 0.0 # O_3
3516 1 2 0.000000000000 0.0 0.0 0.0 # Si3
3517 1 3 0.000000000000 0.0 0.0 0.0 # C_3
3518 1 3 0.000000000000 0.0 0.0 0.0 # C_3
3519 1 4 0.000000000000 0.0 0.0 0.0 # O_3
3520 1 5 0.000000000000 0.0 0.0 0.0 # O_
3521 1 2 0.000000000000 0.0 0.0 0.0 # Si3
3522 1 3 0.000000000000 0.0 0.0 0.0 # C_3
3523 1 3 0.000000000000 0.0 0.0 0.0 # C_3
3524 1 4 0.000000000000 0.0 0.0 0.0 # O_3
3525 1 2 0.000000000000 0.0 0.0 0.0 # Si3
3526 1 3 0.000000000000 0.0 0.0 0.0 # C_3
3527 1 3 0.000000000000 0.0 0.0 0.0 # C_3
3528 1 4 0.000000000000 0.0 0.0 0.0 # O_3
3529 1 2 0.000000000000 0.0 0.0 0.0 # Si3
3530 1 3 0.000000000000 0.0 0.0 0.0 # C_3
3531 1 3 0.000000000000 0.0 0.0 0.0 # C_3
3532 1 4 0.000000000000 0.0 0.0 0.0 # O_3
3533 1 2 0.000000000000 0.0 0.0 0.0 # Si3
3534 1 3 0.000000000000 0.0 0.0 0.0 # C_3
3535 1 3 0.000000000000 0.0 0.0 0.0 # C_3
3536 1 4 0.000000000000 0.0 0.0 0.0 # O_3
3537 1 2 0.000000000000 0.0 0.0 0.0 # Si3
3538 1 3 0.000000000000 0.0 0.0 0.0 # C_3
3539 1 3 0.000000000000 0.0 0.0 0.0 # C_3
3540 1 4 0.000000000000 0.0 0.0 0.0 # O_3
3541 1 5 0.000000000000 0.0 0.0 0.0 # O_
3542 1 2 0.000000000000 0.0 0.0 0.0 # Si3
3543 1 3 0.000000000000 0.0 0.0 0.0 # C_3
3544 1 3 0.000000000000 0.0 0.0 0.0 # C_3
3545 1 4 0.000000000000 0.0 0.0 0.0 # O_3
3546 1 2 0.000000000000 0.0 0.0 0.0 # Si3
3547 1 3 0.000000000000 0.0 0.0 0.0 # C_3
3548 1 3 0.000000000000 0.0 0.0 0.0 # C_3
3549 1 4 0.000000000000 0.0 0.0 0.0 # O_3
3550 1 2 0.000000000000 0.0 0.0 0.0 # Si3
3551 1 3 0.000000000000 0.0 0.0 0.0 # C_3
3552 1 3 0.000000000000 0.0 0.0 0.0 # C_3
3553 1 4 0.000000000000 0.0 0.0 0.0 # O_3
3554 1 2 0.000000000000 0.0 0.0 0.0 # Si3
3555 1 3 0.000000000000 0.0 0.0 0.0 # C_3
3556 1 3 0.000000000000 0.0 0.0 0.0 # C_3
3557 1 4 0.000000000000 0.0 0.0 0.0 # O_3
3558 1 2 0.000000000000 0.0 0.0 0.0 # Si3
3559 1 3 0.000000000000 0.0 0.0 0.0 # C_3
3560 1 3 0.000000000000 0.0 0.0 0.0 # C_3
3561 1 4 0.000000000000 0.0 0.0 0.0 # O_3
3562 1 5 0.000000000000 0.0 0.0 0.0 # O_
3563 1 2 0.000000000000 0.0 0.0 0.0 # Si3
3564 1 3 0.000000000000 0.0 0.0 0.0 # C_3
3565 1 3 0.000000000000 0.0 0.0 0.0 # C_3
3566 1 4 0.000000000000 0.0 0.0 0.0 # O_3
3567 1 2 0.000000000000 0.0 0.0 0.0 # Si3
3568 1 3 0.000000000000 0.0 0.0 0.0 # C_3
3569 1 3 0.000000000000 0.0 0.0 0.0 # C_3
3570 1 4 0.000000000000 0.0 0.0 0.0 # O_3
3571 1 2 0.000000000000 0.0 0.0 0.0 # Si3
3572 1 3 0.000000000000 0.0 0.0 0.0 # C_3
3573 1 3 0.000000000000 0.0 0.0 0.0 # C_3
3574 1 4 0.000000000000 0.0 0.0 0.0 # O_3
3575 1 2 0.000000000000 0.0 0.0 0.0 # Si3
3576 1 3 0.000000000000 0.0 0.0 0.0 # C_3
3577 1 3 0.000000000000 0.0 0.0 0.0 # C_3
3578 1 4 0.000000000000 0.0 0.0 0.0 # O_3
3579 1 2 0.000000000000 0.0 0.0 0.0 # Si3
3580 1 3 0.000000000000 0.0 0.0 0.0 # C_3
3581 1 3 0.000000000000 0.0 0.0 0.0 # C_3
3582 1 4 0.000000000000 0.0 0.0 0.0 # O_3
3583 1 5 0.000000000000 0.0 0.0 0.0 # O_
3584 1 2 0.000000000000 0.0 0.0 0.0 # Si3
3585 1 3 0.000000000000 0.0 0.0 0.0 # C_3
3586 1 3 0.000000000000 0.0 0.0 0.0 # C_3
3587 1 4 0.000000000000 0.0 0.0 0.0 # O_3
3588 1 2 0.000000000000 0.0 0.0 0.0 # Si3
3589 1 3 0.000000000000 0.0 0.0 0.0 # C_3
3590 1 3 0.000000000000 0.0 0.0 0.0 # C_3
3591 1 4 0.000000000000 0.0 0.0 0.0 # O_3
3592 1 2 0.000000000000 0.0 0.0 0.0 # Si3
3593 1 3 0.000000000000 0.0 0.0 0.0 # C_3
3594 1 3 0.000000000000 0.0 0.0 0.0 # C_3
3595 1 4 0.000000000000 0.0 0.0 0.0 # O_3
3596 1 2 0.000000000000 0.0 0.0 0.0 # Si3
3597 1 3 0.000000000000 0.0 0.0 0.0 # C_3
3598 1 3 0.000000000000 0.0 0.0 0.0 # C_3
3599 1 4 0.000000000000 0.0 0.0 0.0 # O_3
3600 1 2 0.000000000000 0.0 0.0 0.0 # Si3
3601 1 3 0.000000000000 0.0 0.0 0.0 # C_3
3602 1 3 0.000000000000 0.0 0.0 0.0 # C_3
3603 1 4 0.000000000000 0.0 0.0 0.0 # O_3
3604 1 5 0.000000000000 0.0 0.0 0.0 # O_
3605 1 2 0.000000000000 0.0 0.0 0.0 # Si3
3606 1 3 0.000000000000 0.0 0.0 0.0 # C_3
3607 1 3 0.000000000000 0.0 0.0 0.0 # C_3
3608 1 4 0.000000000000 0.0 0.0 0.0 # O_3
3609 1 2 0.000000000000 0.0 0.0 0.0 # Si3
3610 1 3 0.000000000000 0.0 0.0 0.0 # C_3
3611 1 3 0.000000000000 0.0 0.0 0.0 # C_3
3612 1 4 0.000000000000 0.0 0.0 0.0 # O_3
3613 1 2 0.000000000000 0.0 0.0 0.0 # Si3
3614 1 3 0.000000000000 0.0 0.0 0.0 # C_3
3615 1 3 0.000000000000 0.0 0.0 0.0 # C_3
3616 1 4 0.000000000000 0.0 0.0 0.0 # O_3
3617 1 2 0.000000000000 0.0 0.0 0.0 # Si3
3618 1 3 0.000000000000 0.0 0.0 0.0 # C_3
3619 1 3 0.000000000000 0.0 0.0 0.0 # C_3
3620 1 4 0.000000000000 0.0 0.0 0.0 # O_3
3621 1 2 0.000000000000 0.0 0.0 0.0 # Si3
3622 1 3 0.000000000000 0.0 0.0 0.0 # C_3
3623 1 3 0.000000000000 0.0 0.0 0.0 # C_3
3624 1 4 0.000000000000 0.0 0.0 0.0 # O_3
3625 1 5 0.000000000000 0.0 0.0 0.0 # O_
3626 1 2 0.000000000000 0.0 0.0 0.0 # Si3
3627 1 3 0.000000000000 0.0 0.0 0.0 # C_3
3628 1 3 0.000000000000 0.0 0.0 0.0 # C_3
3629 1 4 0.000000000000 0.0 0.0 0.0 # O_3
3630 1 2 0.000000000000 0.0 0.0 0.0 # Si3
3631 1 3 0.000000000000 0.0 0.0 0.0 # C_3
3632 1 3 0.000000000000 0.0 0.0 0.0 # C_3
3633 1 4 0.000000000000 0.0 0.0 0.0 # O_3
3634 1 2 0.000000000000 0.0 0.0 0.0 # Si3
3635 1 3 0.000000000000 0.0 0.0 0.0 # C_3
3636 1 3 0.000000000000 0.0 0.0 0.0 # C_3
3637 1 4 0.000000000000 0.0 0.0 0.0 # O_3
3638 1 2 0.000000000000 0.0 0.0 0.0 # Si3
3639 1 3 0.000000000000 0.0 0.0 0.0 # C_3
3640 1 3 0.000000000000 0.0 0.0 0.0 # C_3
3641 1 4 0.000000000000 0.0 0.0 0.0 # O_3
3642 1 2 0.000000000000 0.0 0.0 0.0 # Si3
3643 1 3 0.000000000000 0.0 0.0 0.0 # C_3
3644 1 3 0.000000000000 0.0 0.0 0.0 # C_3
3645 1 4 0.000000000000 0.0 0.0 0.0 # O_3
3646 1 5 0.000000000000 0.0 0.0 0.0 # O_
3647 1 2 0.000000000000 0.0 0.0 0.0 # Si3
3648 1 3 0.000000000000 0.0 0.0 0.0 # C_3
3649 1 3 0.000000000000 0.0 0.0 0.0 # C_3
3650 1 4 0.000000000000 0.0 0.0 0.0 # O_3
3651 1 2 0.000000000000 0.0 0.0 0.0 # Si3
3652 1 3 0.000000000000 0.0 0.0 0.0 # C_3
3653 1 3 0.000000000000 0.0 0.0 0.0 # C_3
3654 1 4 0.000000000000 0.0 0.0 0.0 # O_3
3655 1 2 0.000000000000 0.0 0.0 0.0 # Si3
3656 1 3 0.000000000000 0.0 0.0 0.0 # C_3
3657 1 3 0.000000000000 0.0 0.0 0.0 # C_3
3658 1 4 0.000000000000 0.0 0.0 0.0 # O_3
3659 1 2 0.000000000000 0.0 0.0 0.0 # Si3
3660 1 3 0.000000000000 0.0 0.0 0.0 # C_3
3661 1 3 0.000000000000 0.0 0.0 0.0 # C_3
3662 1 4 0.000000000000 0.0 0.0 0.0 # O_3
3663 1 2 0.000000000000 0.0 0.0 0.0 # Si3
3664 1 3 0.000000000000 0.0 0.0 0.0 # C_3
3665 1 3 0.000000000000 0.0 0.0 0.0 # C_3
3666 1 4 0.000000000000 0.0 0.0 0.0 # O_3
3667 1 5 0.000000000000 0.0 0.0 0.0 # O_
3668 1 2 0.000000000000 0.0 0.0 0.0 # Si3
3669 1 3 0.000000000000 0.0 0.0 0.0 # C_3
3670 1 3 0.000000000000 0.0 0.0 0.0 # C_3
3671 1 4 0.000000000000 0.0 0.0 0.0 # O_3
3672 1 2 0.000000000000 0.0 0.0 0.0 # Si3
3673 1 3 0.000000000000 0.0 0.0 0.0 # C_3
3674 1 3 0.000000000000 0.0 0.0 0.0 # C_3
3675 1 4 0.000000000000 0.0 0.0 0.0 # O_3
3676 1 2 0.000000000000 0.0 0.0 0.0 # Si3
3677 1 3 0.000000000000 0.0 0.0 0.0 # C_3
3678 1 3 0.000000000000 0.0 0.0 0.0 # C_3
3679 1 4 0.000000000000 0.0 0.0 0.0 # O_3
3680 1 2 0.000000000000 0.0 0.0 0.0 # Si3
3681 1 3 0.000000000000 0.0 0.0 0.0 # C_3
3682 1 3 0.000000000000 0.0 0.0 0.0 # C_3
3683 1 4 0.000000000000 0.0 0.0 0.0 # O_3
3684 1 2 0.000000000000 0.0 0.0 0.0 # Si3
3685 1 3 0.000000000000 0.0 0.0 0.0 # C_3
3686 1 3 0.000000000000 0.0 0.0 0.0 # C_3
3687 1 4 0.000000000000 0.0 0.0 0.0 # O_3
3688 1 5 0.000000000000 0.0 0.0 0.0 # O_
3689 1 2 0.000000000000 0.0 0.0 0.0 # Si3
3690 1 3 0.000000000000 0.0 0.0 0.0 # C_3
3691 1 3 0.000000000000 0.0 0.0 0.0 # C_3
3692 1 4 0.000000000000 0.0 0.0 0.0 # O_3
3693 1 2 0.000000000000 0.0 0.0 0.0 # Si3
3694 1 3 0.000000000000 0.0 0.0 0.0 # C_3
3695 1 3 0.000000000000 0.0 0.0 0.0 # C_3
3696 1 4 0.000000000000 0.0 0.0 0.0 # O_3
3697 1 2 0.000000000000 0.0 0.0 0.0 # Si3
3698 1 3 0.000000000000 0.0 0.0 0.0 # C_3
3699 1 3 0.000000000000 0.0 0.0 0.0 # C_3
3700 1 4 0.000000000000 0.0 0.0 0.0 # O_3
3701 1 2 0.000000000000 0.0 0.0 0.0 # Si3
3702 1 3 0.000000000000 0.0 0.0 0.0 # C_3
3703 1 3 0.000000000000 0.0 0.0 0.0 # C_3
3704 1 4 0.000000000000 0.0 0.0 0.0 # O_3
3705 1 2 0.000000000000 0.0 0.0 0.0 # Si3
3706 1 3 0.000000000000 0.0 0.0 0.0 # C_3
3707 1 3 0.000000000000 0.0 0.0 0.0 # C_3
3708 1 4 0.000000000000 0.0 0.0 0.0 # O_3
3709 1 5 0.000000000000 0.0 0.0 0.0 # O_
3710 1 2 0.000000000000 0.0 0.0 0.0 # Si3
3711 1 3 0.000000000000 0.0 0.0 0.0 # C_3
3712 1 3 0.000000000000 0.0 0.0 0.0 # C_3
3713 1 4 0.000000000000 0.0 0.0 0.0 # O_3
3714 1 2 0.000000000000 0.0 0.0 0.0 # Si3
3715 1 3 0.000000000000 0.0 0.0 0.0 # C_3
3716 1 3 0.000000000000 0.0 0.0 0.0 # C_3
3717 1 4 0.000000000000 0.0 0.0 0.0 # O_3
3718 1 2 0.000000000000 0.0 0.0 0.0 # Si3
3719 1 3 0.000000000000 0.0 0.0 0.0 # C_3
3720 1 3 0.000000000000 0.0 0.0 0.0 # C_3
3721 1 4 0.000000000000 0.0 0.0 0.0 # O_3
3722 1 2 0.000000000000 0.0 0.0 0.0 # Si3
3723 1 3 0.000000000000 0.0 0.0 0.0 # C_3
3724 1 3 0.000000000000 0.0 0.0 0.0 # C_3
3725 1 4 0.000000000000 0.0 0.0 0.0 # O_3
3726 1 2 0.000000000000 0.0 0.0 0.0 # Si3
3727 1 3 0.000000000000 0.0 0.0 0.0 # C_3
3728 1 3 0.000000000000 0.0 0.0 0.0 # C_3
3729 1 4 0.000000000000 0.0 0.0 0.0 # O_3
3730 1 5 0.000000000000 0.0 0.0 0.0 # O_
3731 1 2 0.000000000000 0.0 0.0 0.0 # Si3
3732 1 3 0.000000000000 0.0 0.0 0.0 # C_3
3733 1 3 0.000000000000 0.0 0.0 0.0 # C_3
3734 1 4 0.000000000000 0.0 0.0 0.0 # O_3
3735 1 2 0.000000000000 0.0 0.0 0.0 # Si3
3736 1 3 0.000000000000 0.0 0.0 0.0 # C_3
3737 1 3 0.000000000000 0.0 0.0 0.0 # C_3
3738 1 4 0.000000000000 0.0 0.0 0.0 # O_3
3739 1 2 0.000000000000 0.0 0.0 0.0 # Si3
3740 1 3 0.000000000000 0.0 0.0 0.0 # C_3
3741 1 3 0.000000000000 0.0 0.0 0.0 # C_3
3742 1 4 0.000000000000 0.0 0.0 0.0 # O_3
3743 1 2 0.000000000000 0.0 0.0 0.0 # Si3
3744 1 3 0.000000000000 0.0 0.0 0.0 # C_3
3745 1 3 0.000000000000 0.0 0.0 0.0 # C_3
3746 1 4 0.000000000000 0.0 0.0 0.0 # O_3
3747 1 2 0.000000000000 0.0 0.0 0.0 # Si3
3748 1 3 0.000000000000 0.0 0.0 0.0 # C_3
3749 1 3 0.000000000000 0.0 0.0 0.0 # C_3
3750 1 4 0.000000000000 0.0 0.0 0.0 # O_3
3751 1 5 0.000000000000 0.0 0.0 0.0 # O_
3752 1 2 0.000000000000 0.0 0.0 0.0 # Si3
3753 1 3 0.000000000000 0.0 0.0 0.0 # C_3
3754 1 3 0.000000000000 0.0 0.0 0.0 # C_3
3755 1 4 0.000000000000 0.0 0.0 0.0 # O_3
3756 1 2 0.000000000000 0.0 0.0 0.0 # Si3
3757 1 3 0.000000000000 0.0 0.0 0.0 # C_3
3758 1 3 0.000000000000 0.0 0.0 0.0 # C_3
3759 1 4 0.000000000000 0.0 0.0 0.0 # O_3
3760 1 2 0.000000000000 0.0 0.0 0.0 # Si3
3761 1 3 0.000000000000 0.0 0.0 0.0 # C_3
3762 1 3 0.000000000000 0.0 0.0 0.0 # C_3
3763 1 4 0.000000000000 0.0 0.0 0.0 # O_3
3764 1 2 0.000000000000 0.0 0.0 0.0 # Si3
3765 1 3 0.000000000000 0.0 0.0 0.0 # C_3
3766 1 3 0.000000000000 0.0 0.0 0.0 # C_3
3767 1 4 0.000000000000 0.0 0.0 0.0 # O_3
3768 1 2 0.000000000000 0.0 0.0 0.0 # Si3
3769 1 3 0.000000000000 0.0 0.0 0.0 # C_3
3770 1 3 0.000000000000 0.0 0.0 0.0 # C_3
3771 1 4 0.000000000000 0.0 0.0 0.0 # O_3
3772 1 5 0.000000000000 0.0 0.0 0.0 # O_
3773 1 2 0.000000000000 0.0 0.0 0.0 # Si3
3774 1 3 0.000000000000 0.0 0.0 0.0 # C_3
3775 1 3 0.000000000000 0.0 0.0 0.0 # C_3
3776 1 4 0.000000000000 0.0 0.0 0.0 # O_3
3777 1 2 0.000000000000 0.0 0.0 0.0 # Si3
3778 1 3 0.000000000000 0.0 0.0 0.0 # C_3
3779 1 3 0.000000000000 0.0 0.0 0.0 # C_3
3780 1 4 0.000000000000 0.0 0.0 0.0 # O_3
3781 1 2 0.000000000000 0.0 0.0 0.0 # Si3
3782 1 3 0.000000000000 0.0 0.0 0.0 # C_3
3783 1 3 0.000000000000 0.0 0.0 0.0 # C_3
3784 1 4 0.000000000000 0.0 0.0 0.0 # O_3
3785 1 2 0.000000000000 0.0 0.0 0.0 # Si3
3786 1 3 0.000000000000 0.0 0.0 0.0 # C_3
3787 1 3 0.000000000000 0.0 0.0 0.0 # C_3
3788 1 4 0.000000000000 0.0 0.0 0.0 # O_3
3789 1 2 0.000000000000 0.0 0.0 0.0 # Si3
3790 1 3 0.000000000000 0.0 0.0 0.0 # C_3
3791 1 3 0.000000000000 0.0 0.0 0.0 # C_3
3792 1 4 0.000000000000 0.0 0.0 0.0 # O_3
3793 1 5 0.000000000000 0.0 0.0 0.0 # O_
3794 1 2 0.000000000000 0.0 0.0 0.0 # Si3
3795 1 3 0.000000000000 0.0 0.0 0.0 # C_3
3796 1 3 0.000000000000 0.0 0.0 0.0 # C_3
3797 1 4 0.000000000000 0.0 0.0 0.0 # O_3
3798 1 2 0.000000000000 0.0 0.0 0.0 # Si3
3799 1 3 0.000000000000 0.0 0.0 0.0 # C_3
3800 1 3 0.000000000000 0.0 0.0 0.0 # C_3
3801 1 4 0.000000000000 0.0 0.0 0.0 # O_3
3802 1 2 0.000000000000 0.0 0.0 0.0 # Si3
3803 1 3 0.000000000000 0.0 0.0 0.0 # C_3
3804 1 3 0.000000000000 0.0 0.0 0.0 # C_3
3805 1 4 0.000000000000 0.0 0.0 0.0 # O_3
3806 1 2 0.000000000000 0.0 0.0 0.0 # Si3
3807 1 3 0.000000000000 0.0 0.0 0.0 # C_3
3808 1 3 0.000000000000 0.0 0.0 0.0 # C_3
3809 1 4 0.000000000000 0.0 0.0 0.0 # O_3
3810 1 2 0.000000000000 0.0 0.0 0.0 # Si3
3811 1 3 0.000000000000 0.0 0.0 0.0 # C_3
3812 1 3 0.000000000000 0.0 0.0 0.0 # C_3
3813 1 4 0.000000000000 0.0 0.0 0.0 # O_3
3814 1 5 0.000000000000 0.0 0.0 0.0 # O_
3815 1 2 0.000000000000 0.0 0.0 0.0 # Si3
3816 1 3 0.000000000000 0.0 0.0 0.0 # C_3
3817 1 3 0.000000000000 0.0 0.0 0.0 # C_3
3818 1 4 0.000000000000 0.0 0.0 0.0 # O_3
3819 1 2 0.000000000000 0.0 0.0 0.0 # Si3
3820 1 3 0.000000000000 0.0 0.0 0.0 # C_3
3821 1 3 0.000000000000 0.0 0.0 0.0 # C_3
3822 1 4 0.000000000000 0.0 0.0 0.0 # O_3
3823 1 2 0.000000000000 0.0 0.0 0.0 # Si3
3824 1 3 0.000000000000 0.0 0.0 0.0 # C_3
3825 1 3 0.000000000000 0.0 0.0 0.0 # C_3
3826 1 4 0.000000000000 0.0 0.0 0.0 # O_3
3827 1 2 0.000000000000 0.0 0.0 0.0 # Si3
3828 1 3 0.000000000000 0.0 0.0 0.0 # C_3
3829 1 3 0.000000000000 0.0 0.0 0.0 # C_3
3830 1 4 0.000000000000 0.0 0.0 0.0 # O_3
3831 1 2 0.000000000000 0.0 0.0 0.0 # Si3
3832 1 3 0.000000000000 0.0 0.0 0.0 # C_3
3833 1 3 0.000000000000 0.0 0.0 0.0 # C_3
3834 1 4 0.000000000000 0.0 0.0 0.0 # O_3
3835 1 5 0.000000000000 0.0 0.0 0.0 # O_
3836 1 2 0.000000000000 0.0 0.0 0.0 # Si3
3837 1 3 0.000000000000 0.0 0.0 0.0 # C_3
3838 1 3 0.000000000000 0.0 0.0 0.0 # C_3
3839 1 4 0.000000000000 0.0 0.0 0.0 # O_3
3840 1 2 0.000000000000 0.0 0.0 0.0 # Si3
3841 1 3 0.000000000000 0.0 0.0 0.0 # C_3
3842 1 3 0.000000000000 0.0 0.0 0.0 # C_3
3843 1 4 0.000000000000 0.0 0.0 0.0 # O_3
3844 1 2 0.000000000000 0.0 0.0 0.0 # Si3
3845 1 3 0.000000000000 0.0 0.0 0.0 # C_3
3846 1 3 0.000000000000 0.0 0.0 0.0 # C_3
3847 1 4 0.000000000000 0.0 0.0 0.0 # O_3
3848 1 2 0.000000000000 0.0 0.0 0.0 # Si3
3849 1 3 0.000000000000 0.0 0.0 0.0 # C_3
3850 1 3 0.000000000000 0.0 0.0 0.0 # C_3
3851 1 4 0.000000000000 0.0 0.0 0.0 # O_3
3852 1 2 0.000000000000 0.0 0.0 0.0 # Si3
3853 1 3 0.000000000000 0.0 0.0 0.0 # C_3
3854 1 3 0.000000000000 0.0 0.0 0.0 # C_3
3855 1 4 0.000000000000 0.0 0.0 0.0 # O_3
3856 1 5 0.000000000000 0.0 0.0 0.0 # O_
3857 1 2 0.000000000000 0.0 0.0 0.0 # Si3
3858 1 3 0.000000000000 0.0 0.0 0.0 # C_3
3859 1 3 0.000000000000 0.0 0.0 0.0 # C_3
3860 1 4 0.000000000000 0.0 0.0 0.0 # O_3
3861 1 2 0.000000000000 0.0 0.0 0.0 # Si3
3862 1 3 0.000000000000 0.0 0.0 0.0 # C_3
3863 1 3 0.000000000000 0.0 0.0 0.0 # C_3
3864 1 4 0.000000000000 0.0 0.0 0.0 # O_3
3865 1 2 0.000000000000 0.0 0.0 0.0 # Si3
3866 1 3 0.000000000000 0.0 0.0 0.0 # C_3
3867 1 3 0.000000000000 0.0 0.0 0.0 # C_3
3868 1 4 0.000000000000 0.0 0.0 0.0 # O_3
3869 1 2 0.000000000000 0.0 0.0 0.0 # Si3
3870 1 3 0.000000000000 0.0 0.0 0.0 # C_3
3871 1 3 0.000000000000 0.0 0.0 0.0 # C_3
3872 1 4 0.000000000000 0.0 0.0 0.0 # O_3
3873 1 2 0.000000000000 0.0 0.0 0.0 # Si3
3874 1 3 0.000000000000 0.0 0.0 0.0 # C_3
3875 1 3 0.000000000000 0.0 0.0 0.0 # C_3
3876 1 4 0.000000000000 0.0 0.0 0.0 # O_3
3877 1 5 0.000000000000 0.0 0.0 0.0 # O_
3878 1 2 0.000000000000 0.0 0.0 0.0 # Si3
3879 1 3 0.000000000000 0.0 0.0 0.0 # C_3
3880 1 3 0.000000000000 0.0 0.0 0.0 # C_3
3881 1 4 0.000000000000 0.0 0.0 0.0 # O_3
3882 1 2 0.000000000000 0.0 0.0 0.0 # Si3
3883 1 3 0.000000000000 0.0 0.0 0.0 # C_3
3884 1 3 0.000000000000 0.0 0.0 0.0 # C_3
3885 1 4 0.000000000000 0.0 0.0 0.0 # O_3
3886 1 2 0.000000000000 0.0 0.0 0.0 # Si3
3887 1 3 0.000000000000 0.0 0.0 0.0 # C_3
3888 1 3 0.000000000000 0.0 0.0 0.0 # C_3
3889 1 4 0.000000000000 0.0 0.0 0.0 # O_3
3890 1 2 0.000000000000 0.0 0.0 0.0 # Si3
3891 1 3 0.000000000000 0.0 0.0 0.0 # C_3
3892 1 3 0.000000000000 0.0 0.0 0.0 # C_3
3893 1 4 0.000000000000 0.0 0.0 0.0 # O_3
3894 1 2 0.000000000000 0.0 0.0 0.0 # Si3
3895 1 3 0.000000000000 0.0 0.0 0.0 # C_3
3896 1 3 0.000000000000 0.0 0.0 0.0 # C_3
3897 1 4 0.000000000000 0.0 0.0 0.0 # O_3
3898 1 5 0.000000000000 0.0 0.0 0.0 # O_
3899 1 2 0.000000000000 0.0 0.0 0.0 # Si3
3900 1 3 0.000000000000 0.0 0.0 0.0 # C_3
3901 1 3 0.000000000000 0.0 0.0 0.0 # C_3
3902 1 4 0.000000000000 0.0 0.0 0.0 # O_3
3903 1 2 0.000000000000 0.0 0.0 0.0 # Si3
3904 1 3 0.000000000000 0.0 0.0 0.0 # C_3
3905 1 3 0.000000000000 0.0 0.0 0.0 # C_3
3906 1 4 0.000000000000 0.0 0.0 0.0 # O_3
3907 1 2 0.000000000000 0.0 0.0 0.0 # Si3
3908 1 3 0.000000000000 0.0 0.0 0.0 # C_3
3909 1 3 0.000000000000 0.0 0.0 0.0 # C_3
3910 1 4 0.000000000000 0.0 0.0 0.0 # O_3
3911 1 2 0.000000000000 0.0 0.0 0.0 # Si3
3912 1 3 0.000000000000 0.0 0.0 0.0 # C_3
3913 1 3 0.000000000000 0.0 0.0 0.0 # C_3
3914 1 4 0.000000000000 0.0 0.0 0.0 # O_3
3915 1 2 0.000000000000 0.0 0.0 0.0 # Si3
3916 1 3 0.000000000000 0.0 0.0 0.0 # C_3
3917 1 3 0.000000000000 0.0 0.0 0.0 # C_3
3918 1 4 0.000000000000 0.0 0.0 0.0 # O_3
3919 1 5 0.000000000000 0.0 0.0 0.0 # O_
3920 1 2 0.000000000000 0.0 0.0 0.0 # Si3
3921 1 3 0.000000000000 0.0 0.0 0.0 # C_3
3922 1 3 0.000000000000 0.0 0.0 0.0 # C_3
3923 1 4 0.000000000000 0.0 0.0 0.0 # O_3
3924 1 2 0.000000000000 0.0 0.0 0.0 # Si3
3925 1 3 0.000000000000 0.0 0.0 0.0 # C_3
3926 1 3 0.000000000000 0.0 0.0 0.0 # C_3
3927 1 4 0.000000000000 0.0 0.0 0.0 # O_3
3928 1 2 0.000000000000 0.0 0.0 0.0 # Si3
3929 1 3 0.000000000000 0.0 0.0 0.0 # C_3
3930 1 3 0.000000000000 0.0 0.0 0.0 # C_3
3931 1 4 0.000000000000 0.0 0.0 0.0 # O_3
3932 1 2 0.000000000000 0.0 0.0 0.0 # Si3
3933 1 3 0.000000000000 0.0 0.0 0.0 # C_3
3934 1 3 0.000000000000 0.0 0.0 0.0 # C_3
3935 1 4 0.000000000000 0.0 0.0 0.0 # O_3
3936 1 2 0.000000000000 0.0 0.0 0.0 # Si3
3937 1 3 0.000000000000 0.0 0.0 0.0 # C_3
3938 1 3 0.000000000000 0.0 0.0 0.0 # C_3
3939 1 4 0.000000000000 0.0 0.0 0.0 # O_3
3940 1 5 0.000000000000 0.0 0.0 0.0 # O_
3941 1 2 0.000000000000 0.0 0.0 0.0 # Si3
3942 1 3 0.000000000000 0.0 0.0 0.0 # C_3
3943 1 3 0.000000000000 0.0 0.0 0.0 # C_3
3944 1 4 0.000000000000 0.0 0.0 0.0 # O_3
3945 1 2 0.000000000000 0.0 0.0 0.0 # Si3
3946 1 3 0.000000000000 0.0 0.0 0.0 # C_3
3947 1 3 0.000000000000 0.0 0.0 0.0 # C_3
3948 1 4 0.000000000000 0.0 0.0 0.0 # O_3
3949 1 2 0.000000000000 0.0 0.0 0.0 # Si3
3950 1 3 0.000000000000 0.0 0.0 0.0 # C_3
3951 1 3 0.000000000000 0.0 0.0 0.0 # C_3
3952 1 4 0.000000000000 0.0 0.0 0.0 # O_3
3953 1 2 0.000000000000 0.0 0.0 0.0 # Si3
3954 1 3 0.000000000000 0.0 0.0 0.0 # C_3
3955 1 3 0.000000000000 0.0 0.0 0.0 # C_3
3956 1 4 0.000000000000 0.0 0.0 0.0 # O_3
3957 1 2 0.000000000000 0.0 0.0 0.0 # Si3
3958 1 3 0.000000000000 0.0 0.0 0.0 # C_3
3959 1 3 0.000000000000 0.0 0.0 0.0 # C_3
3960 1 4 0.000000000000 0.0 0.0 0.0 # O_3
3961 1 5 0.000000000000 0.0 0.0 0.0 # O_
3962 1 2 0.000000000000 0.0 0.0 0.0 # Si3
3963 1 3 0.000000000000 0.0 0.0 0.0 # C_3
3964 1 3 0.000000000000 0.0 0.0 0.0 # C_3
3965 1 4 0.000000000000 0.0 0.0 0.0 # O_3
3966 1 2 0.000000000000 0.0 0.0 0.0 # Si3
3967 1 3 0.000000000000 0.0 0.0 0.0 # C_3
3968 1 3 0.000000000000 0.0 0.0 0.0 # C_3
3969 1 4 0.000000000000 0.0 0.0 0.0 # O_3
3970 1 2 0.000000000000 0.0 0.0 0.0 # Si3
3971 1 3 0.000000000000 0.0 0.0 0.0 # C_3
3972 1 3 0.000000000000 0.0 0.0 0.0 # C_3
3973 1 4 0.000000000000 0.0 0.0 0.0 # O_3
3974 1 2 0.000000000000 0.0 0.0 0.0 # Si3
3975 1 3 0.000000000000 0.0 0.0 0.0 # C_3
3976 1 3 0.000000000000 0.0 0.0 0.0 # C_3
3977 1 4 0.000000000000 0.0 0.0 0.0 # O_3
3978 1 2 0.000000000000 0.0 0.0 0.0 # Si3
3979 1 3 0.000000000000 0.0 0.0 0.0 # C_3
3980 1 3 0.000000000000 0.0 0.0 0.0 # C_3
3981 1 4 0.000000000000 0.0 0.0 0.0 # O_3
3982 1 5 0.000000000000 0.0 0.0 0.0 # O_
3983 1 2 0.000000000000 0.0 0.0 0.0 # Si3
3984 1 3 0.000000000000 0.0 0.0 0.0 # C_3
3985 1 3 0.000000000000 0.0 0.0 0.0 # C_3
3986 1 4 0.000000000000 0.0 0.0 0.0 # O_3
3987 1 2 0.000000000000 0.0 0.0 0.0 # Si3
3988 1 3 0.000000000000 0.0 0.0 0.0 # C_3
3989 1 3 0.000000000000 0.0 0.0 0.0 # C_3
3990 1 4 0.000000000000 0.0 0.0 0.0 # O_3
3991 1 2 0.000000000000 0.0 0.0 0.0 # Si3
3992 1 3 0.000000000000 0.0 0.0 0.0 # C_3
3993 1 3 0.000000000000 0.0 0.0 0.0 # C_3
3994 1 4 0.000000000000 0.0 0.0 0.0 # O_3
3995 1 2 0.000000000000 0.0 0.0 0.0 # Si3
3996 1 3 0.000000000000 0.0 0.0 0.0 # C_3
3997 1 3 0.000000000000 0.0 0.0 0.0 # C_3
3998 1 4 0.000000000000 0.0 0.0 0.0 # O_3
3999 1 2 0.000000000000 0.0 0.0 0.0 # Si3
4000 1 3 0.000000000000 0.0 0.0 0.0 # C_3
4001 1 3 0.000000000000 0.0 0.0 0.0 # C_3
4002 1 4 0.000000000000 0.0 0.0 0.0 # O_3
4003 1 5 0.000000000000 0.0 0.0 0.0 # O_
4004 1 2 0.000000000000 0.0 0.0 0.0 # Si3
4005 1 3 0.000000000000 0.0 0.0 0.0 # C_3
4006 1 3 0.000000000000 0.0 0.0 0.0 # C_3
4007 1 4 0.000000000000 0.0 0.0 0.0 # O_3
4008 1 2 0.000000000000 0.0 0.0 0.0 # Si3
4009 1 3 0.000000000000 0.0 0.0 0.0 # C_3
4010 1 3 0.000000000000 0.0 0.0 0.0 # C_3
4011 1 4 0.000000000000 0.0 0.0 0.0 # O_3
4012 1 2 0.000000000000 0.0 0.0 0.0 # Si3
4013 1 3 0.000000000000 0.0 0.0 0.0 # C_3
4014 1 3 0.000000000000 0.0 0.0 0.0 # C_3
4015 1 4 0.000000000000 0.0 0.0 0.0 # O_3
4016 1 2 0.000000000000 0.0 0.0 0.0 # Si3
4017 1 3 0.000000000000 0.0 0.0 0.0 # C_3
4018 1 3 0.000000000000 0.0 0.0 0.0 # C_3
4019 1 4 0.000000000000 0.0 0.0 0.0 # O_3
4020 1 2 0.000000000000 0.0 0.0 0.0 # Si3
4021 1 3 0.000000000000 0.0 0.0 0.0 # C_3
4022 1 3 0.000000000000 0.0 0.0 0.0 # C_3
4023 1 4 0.000000000000 0.0 0.0 0.0 # O_3
4024 1 5 0.000000000000 0.0 0.0 0.0 # O_
4025 1 2 0.000000000000 0.0 0.0 0.0 # Si3
4026 1 3 0.000000000000 0.0 0.0 0.0 # C_3
4027 1 3 0.000000000000 0.0 0.0 0.0 # C_3
4028 1 4 0.000000000000 0.0 0.0 0.0 # O_3
4029 1 2 0.000000000000 0.0 0.0 0.0 # Si3
4030 1 3 0.000000000000 0.0 0.0 0.0 # C_3
4031 1 3 0.000000000000 0.0 0.0 0.0 # C_3
4032 1 4 0.000000000000 0.0 0.0 0.0 # O_3
4033 1 2 0.000000000000 0.0 0.0 0.0 # Si3
4034 1 3 0.000000000000 0.0 0.0 0.0 # C_3
4035 1 3 0.000000000000 0.0 0.0 0.0 # C_3
4036 1 4 0.000000000000 0.0 0.0 0.0 # O_3
4037 1 2 0.000000000000 0.0 0.0 0.0 # Si3
4038 1 3 0.000000000000 0.0 0.0 0.0 # C_3
4039 1 3 0.000000000000 0.0 0.0 0.0 # C_3
4040 1 4 0.000000000000 0.0 0.0 0.0 # O_3
4041 1 2 0.000000000000 0.0 0.0 0.0 # Si3
4042 1 3 0.000000000000 0.0 0.0 0.0 # C_3
4043 1 3 0.000000000000 0.0 0.0 0.0 # C_3
4044 1 4 0.000000000000 0.0 0.0 0.0 # O_3
4045 1 5 0.000000000000 0.0 0.0 0.0 # O_
4046 1 2 0.000000000000 0.0 0.0 0.0 # Si3
4047 1 3 0.000000000000 0.0 0.0 0.0 # C_3
4048 1 3 0.000000000000 0.0 0.0 0.0 # C_3
4049 1 4 0.000000000000 0.0 0.0 0.0 # O_3
4050 1 2 0.000000000000 0.0 0.0 0.0 # Si3
4051 1 3 0.000000000000 0.0 0.0 0.0 # C_3
4052 1 3 0.000000000000 0.0 0.0 0.0 # C_3
4053 1 4 0.000000000000 0.0 0.0 0.0 # O_3
4054 1 2 0.000000000000 0.0 0.0 0.0 # Si3
4055 1 3 0.000000000000 0.0 0.0 0.0 # C_3
4056 1 3 0.000000000000 0.0 0.0 0.0 # C_3
4057 1 4 0.000000000000 0.0 0.0 0.0 # O_3
4058 1 2 0.000000000000 0.0 0.0 0.0 # Si3
4059 1 3 0.000000000000 0.0 0.0 0.0 # C_3
4060 1 3 0.000000000000 0.0 0.0 0.0 # C_3
4061 1 4 0.000000000000 0.0 0.0 0.0 # O_3
4062 1 2 0.000000000000 0.0 0.0 0.0 # Si3
4063 1 3 0.000000000000 0.0 0.0 0.0 # C_3
4064 1 3 0.000000000000 0.0 0.0 0.0 # C_3
4065 1 4 0.000000000000 0.0 0.0 0.0 # O_3
4066 1 5 0.000000000000 0.0 0.0 0.0 # O_
4067 1 2 0.000000000000 0.0 0.0 0.0 # Si3
4068 1 3 0.000000000000 0.0 0.0 0.0 # C_3
4069 1 3 0.000000000000 0.0 0.0 0.0 # C_3
4070 1 4 0.000000000000 0.0 0.0 0.0 # O_3
4071 1 2 0.000000000000 0.0 0.0 0.0 # Si3
4072 1 3 0.000000000000 0.0 0.0 0.0 # C_3
4073 1 3 0.000000000000 0.0 0.0 0.0 # C_3
4074 1 4 0.000000000000 0.0 0.0 0.0 # O_3
4075 1 2 0.000000000000 0.0 0.0 0.0 # Si3
4076 1 3 0.000000000000 0.0 0.0 0.0 # C_3
4077 1 3 0.000000000000 0.0 0.0 0.0 # C_3
4078 1 4 0.000000000000 0.0 0.0 0.0 # O_3
4079 1 2 0.000000000000 0.0 0.0 0.0 # Si3
4080 1 3 0.000000000000 0.0 0.0 0.0 # C_3
4081 1 3 0.000000000000 0.0 0.0 0.0 # C_3
4082 1 4 0.000000000000 0.0 0.0 0.0 # O_3
4083 1 2 0.000000000000 0.0 0.0 0.0 # Si3
4084 1 3 0.000000000000 0.0 0.0 0.0 # C_3
4085 1 3 0.000000000000 0.0 0.0 0.0 # C_3
4086 1 4 0.000000000000 0.0 0.0 0.0 # O_3
4087 1 5 0.000000000000 0.0 0.0 0.0 # O_
4088 1 2 0.000000000000 0.0 0.0 0.0 # Si3
4089 1 3 0.000000000000 0.0 0.0 0.0 # C_3
4090 1 3 0.000000000000 0.0 0.0 0.0 # C_3
4091 1 4 0.000000000000 0.0 0.0 0.0 # O_3
4092 1 2 0.000000000000 0.0 0.0 0.0 # Si3
4093 1 3 0.000000000000 0.0 0.0 0.0 # C_3
4094 1 3 0.000000000000 0.0 0.0 0.0 # C_3
4095 1 4 0.000000000000 0.0 0.0 0.0 # O_3
4096 1 2 0.000000000000 0.0 0.0 0.0 # Si3
4097 1 3 0.000000000000 0.0 0.0 0.0 # C_3
4098 1 3 0.000000000000 0.0 0.0 0.0 # C_3
4099 1 4 0.000000000000 0.0 0.0 0.0 # O_3
4100 1 2 0.000000000000 0.0 0.0 0.0 # Si3
4101 1 3 0.000000000000 0.0 0.0 0.0 # C_3
4102 1 3 0.000000000000 0.0 0.0 0.0 # C_3
4103 1 4 0.000000000000 0.0 0.0 0.0 # O_3
4104 1 2 0.000000000000 0.0 0.0 0.0 # Si3
4105 1 3 0.000000000000 0.0 0.0 0.0 # C_3
4106 1 3 0.000000000000 0.0 0.0 0.0 # C_3
4107 1 4 0.000000000000 0.0 0.0 0.0 # O_3
4108 1 5 0.000000000000 0.0 0.0 0.0 # O_
4109 1 2 0.000000000000 0.0 0.0 0.0 # Si3
4110 1 3 0.000000000000 0.0 0.0 0.0 # C_3
4111 1 3 0.000000000000 0.0 0.0 0.0 # C_3
4112 1 4 0.000000000000 0.0 0.0 0.0 # O_3
4113 1 2 0.000000000000 0.0 0.0 0.0 # Si3
4114 1 3 0.000000000000 0.0 0.0 0.0 # C_3
4115 1 3 0.000000000000 0.0 0.0 0.0 # C_3
4116 1 4 0.000000000000 0.0 0.0 0.0 # O_3
4117 1 2 0.000000000000 0.0 0.0 0.0 # Si3
4118 1 3 0.000000000000 0.0 0.0 0.0 # C_3
4119 1 3 0.000000000000 0.0 0.0 0.0 # C_3
4120 1 4 0.000000000000 0.0 0.0 0.0 # O_3
4121 1 2 0.000000000000 0.0 0.0 0.0 # Si3
4122 1 3 0.000000000000 0.0 0.0 0.0 # C_3
4123 1 3 0.000000000000 0.0 0.0 0.0 # C_3
4124 1 4 0.000000000000 0.0 0.0 0.0 # O_3
4125 1 2 0.000000000000 0.0 0.0 0.0 # Si3
4126 1 3 0.000000000000 0.0 0.0 0.0 # C_3
4127 1 3 0.000000000000 0.0 0.0 0.0 # C_3
4128 1 4 0.000000000000 0.0 0.0 0.0 # O_3
4129 1 5 0.000000000000 0.0 0.0 0.0 # O_
4130 1 2 0.000000000000 0.0 0.0 0.0 # Si3
4131 1 3 0.000000000000 0.0 0.0 0.0 # C_3
4132 1 3 0.000000000000 0.0 0.0 0.0 # C_3
4133 1 4 0.000000000000 0.0 0.0 0.0 # O_3
4134 1 2 0.000000000000 0.0 0.0 0.0 # Si3
4135 1 3 0.000000000000 0.0 0.0 0.0 # C_3
4136 1 3 0.000000000000 0.0 0.0 0.0 # C_3
4137 1 4 0.000000000000 0.0 0.0 0.0 # O_3
4138 1 2 0.000000000000 0.0 0.0 0.0 # Si3
4139 1 3 0.000000000000 0.0 0.0 0.0 # C_3
4140 1 3 0.000000000000 0.0 0.0 0.0 # C_3
4141 1 4 0.000000000000 0.0 0.0 0.0 # O_3
4142 1 2 0.000000000000 0.0 0.0 0.0 # Si3
4143 1 3 0.000000000000 0.0 0.0 0.0 # C_3
4144 1 3 0.000000000000 0.0 0.0 0.0 # C_3
4145 1 4 0.000000000000 0.0 0.0 0.0 # O_3
4146 1 2 0.000000000000 0.0 0.0 0.0 # Si3
4147 1 3 0.000000000000 0.0 0.0 0.0 # C_3
4148 1 3 0.000000000000 0.0 0.0 0.0 # C_3
4149 1 4 0.000000000000 0.0 0.0 0.0 # O_3
4150 1 5 0.000000000000 0.0 0.0 0.0 # O_
4151 1 2 0.000000000000 0.0 0.0 0.0 # Si3
4152 1 3 0.000000000000 0.0 0.0 0.0 # C_3
4153 1 3 0.000000000000 0.0 0.0 0.0 # C_3
4154 1 4 0.000000000000 0.0 0.0 0.0 # O_3
4155 1 2 0.000000000000 0.0 0.0 0.0 # Si3
4156 1 3 0.000000000000 0.0 0.0 0.0 # C_3
4157 1 3 0.000000000000 0.0 0.0 0.0 # C_3
4158 1 4 0.000000000000 0.0 0.0 0.0 # O_3
4159 1 2 0.000000000000 0.0 0.0 0.0 # Si3
4160 1 3 0.000000000000 0.0 0.0 0.0 # C_3
4161 1 3 0.000000000000 0.0 0.0 0.0 # C_3
4162 1 4 0.000000000000 0.0 0.0 0.0 # O_3
4163 1 2 0.000000000000 0.0 0.0 0.0 # Si3
4164 1 3 0.000000000000 0.0 0.0 0.0 # C_3
4165 1 3 0.000000000000 0.0 0.0 0.0 # C_3
4166 1 4 0.000000000000 0.0 0.0 0.0 # O_3
4167 1 2 0.000000000000 0.0 0.0 0.0 # Si3
4168 1 3 0.000000000000 0.0 0.0 0.0 # C_3
4169 1 3 0.000000000000 0.0 0.0 0.0 # C_3
4170 1 4 0.000000000000 0.0 0.0 0.0 # O_3
4171 1 5 0.000000000000 0.0 0.0 0.0 # O_
4172 1 2 0.000000000000 0.0 0.0 0.0 # Si3
4173 1 3 0.000000000000 0.0 0.0 0.0 # C_3
4174 1 3 0.000000000000 0.0 0.0 0.0 # C_3
4175 1 4 0.000000000000 0.0 0.0 0.0 # O_3
4176 1 2 0.000000000000 0.0 0.0 0.0 # Si3
4177 1 3 0.000000000000 0.0 0.0 0.0 # C_3
4178 1 3 0.000000000000 0.0 0.0 0.0 # C_3
4179 1 4 0.000000000000 0.0 0.0 0.0 # O_3
4180 1 2 0.000000000000 0.0 0.0 0.0 # Si3
4181 1 3 0.000000000000 0.0 0.0 0.0 # C_3
4182 1 3 0.000000000000 0.0 0.0 0.0 # C_3
4183 1 4 0.000000000000 0.0 0.0 0.0 # O_3
4184 1 2 0.000000000000 0.0 0.0 0.0 # Si3
4185 1 3 0.000000000000 0.0 0.0 0.0 # C_3
4186 1 3 0.000000000000 0.0 0.0 0.0 # C_3
4187 1 4 0.000000000000 0.0 0.0 0.0 # O_3
4188 1 2 0.000000000000 0.0 0.0 0.0 # Si3
4189 1 3 0.000000000000 0.0 0.0 0.0 # C_3
4190 1 3 0.000000000000 0.0 0.0 0.0 # C_3
4191 1 4 0.000000000000 0.0 0.0 0.0 # O_3
4192 1 5 0.000000000000 0.0 0.0 0.0 # O_
4193 1 2 0.000000000000 0.0 0.0 0.0 # Si3
4194 1 3 0.000000000000 0.0 0.0 0.0 # C_3
4195 1 3 0.000000000000 0.0 0.0 0.0 # C_3
4196 1 4 0.000000000000 0.0 0.0 0.0 # O_3
4197 1 2 0.000000000000 0.0 0.0 0.0 # Si3
4198 1 3 0.000000000000 0.0 0.0 0.0 # C_3
4199 1 3 0.000000000000 0.0 0.0 0.0 # C_3
4200 1 4 0.000000000000 0.0 0.0 0.0 # O_3
4201 1 2 0.000000000000 0.0 0.0 0.0 # Si3
4202 1 3 0.000000000000 0.0 0.0 0.0 # C_3
4203 1 3 0.000000000000 0.0 0.0 0.0 # C_3
4204 1 4 0.000000000000 0.0 0.0 0.0 # O_3
4205 1 2 0.000000000000 0.0 0.0 0.0 # Si3
4206 1 3 0.000000000000 0.0 0.0 0.0 # C_3
4207 1 3 0.000000000000 0.0 0.0 0.0 # C_3
4208 1 4 0.000000000000 0.0 0.0 0.0 # O_3
4209 1 2 0.000000000000 0.0 0.0 0.0 # Si3
4210 1 3 0.000000000000 0.0 0.0 0.0 # C_3
4211 1 3 0.000000000000 0.0 0.0 0.0 # C_3
4212 1 4 0.000000000000 0.0 0.0 0.0 # O_3
4213 1 5 0.000000000000 0.0 0.0 0.0 # O_
4214 1 2 0.000000000000 0.0 0.0 0.0 # Si3
4215 1 3 0.000000000000 0.0 0.0 0.0 # C_3
4216 1 3 0.000000000000 0.0 0.0 0.0 # C_3
4217 1 4 0.000000000000 0.0 0.0 0.0 # O_3
4218 1 2 0.000000000000 0.0 0.0 0.0 # Si3
4219 1 3 0.000000000000 0.0 0.0 0.0 # C_3
4220 1 3 0.000000000000 0.0 0.0 0.0 # C_3
4221 1 4 0.000000000000 0.0 0.0 0.0 # O_3
4222 1 2 0.000000000000 0.0 0.0 0.0 # Si3
4223 1 3 0.000000000000 0.0 0.0 0.0 # C_3
4224 1 3 0.000000000000 0.0 0.0 0.0 # C_3
4225 1 4 0.000000000000 0.0 0.0 0.0 # O_3
4226 1 2 0.000000000000 0.0 0.0 0.0 # Si3
4227 1 3 0.000000000000 0.0 0.0 0.0 # C_3
4228 1 3 0.000000000000 0.0 0.0 0.0 # C_3
4229 1 4 0.000000000000 0.0 0.0 0.0 # O_3
4230 1 2 0.000000000000 0.0 0.0 0.0 # Si3
4231 1 3 0.000000000000 0.0 0.0 0.0 # C_3
4232 1 3 0.000000000000 0.0 0.0 0.0 # C_3
4233 1 4 0.000000000000 0.0 0.0 0.0 # O_3
4234 1 5 0.000000000000 0.0 0.0 0.0 # O_
4235 1 2 0.000000000000 0.0 0.0 0.0 # Si3
4236 1 3 0.000000000000 0.0 0.0 0.0 # C_3
4237 1 3 0.000000000000 0.0 0.0 0.0 # C_3
4238 1 4 0.000000000000 0.0 0.0 0.0 # O_3
4239 1 2 0.000000000000 0.0 0.0 0.0 # Si3
4240 1 3 0.000000000000 0.0 0.0 0.0 # C_3
4241 1 3 0.000000000000 0.0 0.0 0.0 # C_3
4242 1 4 0.000000000000 0.0 0.0 0.0 # O_3
4243 1 2 0.000000000000 0.0 0.0 0.0 # Si3
4244 1 3 0.000000000000 0.0 0.0 0.0 # C_3
4245 1 3 0.000000000000 0.0 0.0 0.0 # C_3
4246 1 4 0.000000000000 0.0 0.0 0.0 # O_3
4247 1 2 0.000000000000 0.0 0.0 0.0 # Si3
4248 1 3 0.000000000000 0.0 0.0 0.0 # C_3
4249 1 3 0.000000000000 0.0 0.0 0.0 # C_3
4250 1 4 0.000000000000 0.0 0.0 0.0 # O_3
4251 1 2 0.000000000000 0.0 0.0 0.0 # Si3
4252 1 3 0.000000000000 0.0 0.0 0.0 # C_3
4253 1 3 0.000000000000 0.0 0.0 0.0 # C_3
4254 1 4 0.000000000000 0.0 0.0 0.0 # O_3
4255 1 5 0.000000000000 0.0 0.0 0.0 # O_
4256 1 2 0.000000000000 0.0 0.0 0.0 # Si3
4257 1 3 0.000000000000 0.0 0.0 0.0 # C_3
4258 1 3 0.000000000000 0.0 0.0 0.0 # C_3
4259 1 4 0.000000000000 0.0 0.0 0.0 # O_3
4260 1 2 0.000000000000 0.0 0.0 0.0 # Si3
4261 1 3 0.000000000000 0.0 0.0 0.0 # C_3
4262 1 3 0.000000000000 0.0 0.0 0.0 # C_3
4263 1 4 0.000000000000 0.0 0.0 0.0 # O_3
4264 1 2 0.000000000000 0.0 0.0 0.0 # Si3
4265 1 3 0.000000000000 0.0 0.0 0.0 # C_3
4266 1 3 0.000000000000 0.0 0.0 0.0 # C_3
4267 1 4 0.000000000000 0.0 0.0 0.0 # O_3
4268 1 2 0.000000000000 0.0 0.0 0.0 # Si3
4269 1 3 0.000000000000 0.0 0.0 0.0 # C_3
4270 1 3 0.000000000000 0.0 0.0 0.0 # C_3
4271 1 4 0.000000000000 0.0 0.0 0.0 # O_3
4272 1 2 0.000000000000 0.0 0.0 0.0 # Si3
4273 1 3 0.000000000000 0.0 0.0 0.0 # C_3
4274 1 3 0.000000000000 0.0 0.0 0.0 # C_3
4275 1 4 0.000000000000 0.0 0.0 0.0 # O_3
4276 1 5 0.000000000000 0.0 0.0 0.0 # O_
4277 1 2 0.000000000000 0.0 0.0 0.0 # Si3
4278 1 3 0.000000000000 0.0 0.0 0.0 # C_3
4279 1 3 0.000000000000 0.0 0.0 0.0 # C_3
4280 1 4 0.000000000000 0.0 0.0 0.0 # O_3
4281 1 2 0.000000000000 0.0 0.0 0.0 # Si3
4282 1 3 0.000000000000 0.0 0.0 0.0 # C_3
4283 1 3 0.000000000000 0.0 0.0 0.0 # C_3
4284 1 4 0.000000000000 0.0 0.0 0.0 # O_3
4285 1 2 0.000000000000 0.0 0.0 0.0 # Si3
4286 1 3 0.000000000000 0.0 0.0 0.0 # C_3
4287 1 3 0.000000000000 0.0 0.0 0.0 # C_3
4288 1 4 0.000000000000 0.0 0.0 0.0 # O_3
4289 1 2 0.000000000000 0.0 0.0 0.0 # Si3
4290 1 3 0.000000000000 0.0 0.0 0.0 # C_3
4291 1 3 0.000000000000 0.0 0.0 0.0 # C_3
4292 1 4 0.000000000000 0.0 0.0 0.0 # O_3
4293 1 2 0.000000000000 0.0 0.0 0.0 # Si3
4294 1 3 0.000000000000 0.0 0.0 0.0 # C_3
4295 1 3 0.000000000000 0.0 0.0 0.0 # C_3
4296 1 4 0.000000000000 0.0 0.0 0.0 # O_3
4297 1 5 0.000000000000 0.0 0.0 0.0 # O_
4298 1 2 0.000000000000 0.0 0.0 0.0 # Si3
4299 1 3 0.000000000000 0.0 0.0 0.0 # C_3
4300 1 3 0.000000000000 0.0 0.0 0.0 # C_3
4301 1 4 0.000000000000 0.0 0.0 0.0 # O_3
4302 1 2 0.000000000000 0.0 0.0 0.0 # Si3
4303 1 3 0.000000000000 0.0 0.0 0.0 # C_3
4304 1 3 0.000000000000 0.0 0.0 0.0 # C_3
4305 1 4 0.000000000000 0.0 0.0 0.0 # O_3
4306 1 2 0.000000000000 0.0 0.0 0.0 # Si3
4307 1 3 0.000000000000 0.0 0.0 0.0 # C_3
4308 1 3 0.000000000000 0.0 0.0 0.0 # C_3
4309 1 4 0.000000000000 0.0 0.0 0.0 # O_3
4310 1 2 0.000000000000 0.0 0.0 0.0 # Si3
4311 1 3 0.000000000000 0.0 0.0 0.0 # C_3
4312 1 3 0.000000000000 0.0 0.0 0.0 # C_3
4313 1 4 0.000000000000 0.0 0.0 0.0 # O_3
4314 1 2 0.000000000000 0.0 0.0 0.0 # Si3
4315 1 3 0.000000000000 0.0 0.0 0.0 # C_3
4316 1 3 0.000000000000 0.0 0.0 0.0 # C_3
4317 1 4 0.000000000000 0.0 0.0 0.0 # O_3
4318 1 5 0.000000000000 0.0 0.0 0.0 # O_
4319 1 2 0.000000000000 0.0 0.0 0.0 # Si3
4320 1 3 0.000000000000 0.0 0.0 0.0 # C_3
4321 1 3 0.000000000000 0.0 0.0 0.0 # C_3
4322 1 4 0.000000000000 0.0 0.0 0.0 # O_3
4323 1 2 0.000000000000 0.0 0.0 0.0 # Si3
4324 1 3 0.000000000000 0.0 0.0 0.0 # C_3
4325 1 3 0.000000000000 0.0 0.0 0.0 # C_3
4326 1 4 0.000000000000 0.0 0.0 0.0 # O_3
4327 1 2 0.000000000000 0.0 0.0 0.0 # Si3
4328 1 3 0.000000000000 0.0 0.0 0.0 # C_3
4329 1 3 0.000000000000 0.0 0.0 0.0 # C_3
4330 1 4 0.000000000000 0.0 0.0 0.0 # O_3
4331 1 2 0.000000000000 0.0 0.0 0.0 # Si3
4332 1 3 0.000000000000 0.0 0.0 0.0 # C_3
4333 1 3 0.000000000000 0.0 0.0 0.0 # C_3
4334 1 4 0.000000000000 0.0 0.0 0.0 # O_3
4335 1 2 0.000000000000 0.0 0.0 0.0 # Si3
4336 1 3 0.000000000000 0.0 0.0 0.0 # C_3
4337 1 3 0.000000000000 0.0 0.0 0.0 # C_3
4338 1 4 0.000000000000 0.0 0.0 0.0 # O_3
4339 1 5 0.000000000000 0.0 0.0 0.0 # O_
4340 1 2 0.000000000000 0.0 0.0 0.0 # Si3
4341 1 3 0.000000000000 0.0 0.0 0.0 # C_3
4342 1 3 0.000000000000 0.0 0.0 0.0 # C_3
4343 1 4 0.000000000000 0.0 0.0 0.0 # O_3
4344 1 2 0.000000000000 0.0 0.0 0.0 # Si3
4345 1 3 0.000000000000 0.0 0.0 0.0 # C_3
4346 1 3 0.000000000000 0.0 0.0 0.0 # C_3
4347 1 4 0.000000000000 0.0 0.0 0.0 # O_3
4348 1 2 0.000000000000 0.0 0.0 0.0 # Si3
4349 1 3 0.000000000000 0.0 0.0 0.0 # C_3
4350 1 3 0.000000000000 0.0 0.0 0.0 # C_3
4351 1 4 0.000000000000 0.0 0.0 0.0 # O_3
4352 1 2 0.000000000000 0.0 0.0 0.0 # Si3
4353 1 3 0.000000000000 0.0 0.0 0.0 # C_3
4354 1 3 0.000000000000 0.0 0.0 0.0 # C_3
4355 1 4 0.000000000000 0.0 0.0 0.0 # O_3
4356 1 2 0.000000000000 0.0 0.0 0.0 # Si3
4357 1 3 0.000000000000 0.0 0.0 0.0 # C_3
4358 1 3 0.000000000000 0.0 0.0 0.0 # C_3
4359 1 4 0.000000000000 0.0 0.0 0.0 # O_3
4360 1 5 0.000000000000 0.0 0.0 0.0 # O_
4361 1 2 0.000000000000 0.0 0.0 0.0 # Si3
4362 1 3 0.000000000000 0.0 0.0 0.0 # C_3
4363 1 3 0.000000000000 0.0 0.0 0.0 # C_3
4364 1 4 0.000000000000 0.0 0.0 0.0 # O_3
4365 1 2 0.000000000000 0.0 0.0 0.0 # Si3
4366 1 3 0.000000000000 0.0 0.0 0.0 # C_3
4367 1 3 0.000000000000 0.0 0.0 0.0 # C_3
4368 1 4 0.000000000000 0.0 0.0 0.0 # O_3
4369 1 2 0.000000000000 0.0 0.0 0.0 # Si3
4370 1 3 0.000000000000 0.0 0.0 0.0 # C_3
4371 1 3 0.000000000000 0.0 0.0 0.0 # C_3
4372 1 4 0.000000000000 0.0 0.0 0.0 # O_3
4373 1 2 0.000000000000 0.0 0.0 0.0 # Si3
4374 1 3 0.000000000000 0.0 0.0 0.0 # C_3
4375 1 3 0.000000000000 0.0 0.0 0.0 # C_3
4376 1 4 0.000000000000 0.0 0.0 0.0 # O_3
4377 1 2 0.000000000000 0.0 0.0 0.0 # Si3
4378 1 3 0.000000000000 0.0 0.0 0.0 # C_3
4379 1 3 0.000000000000 0.0 0.0 0.0 # C_3
4380 1 4 0.000000000000 0.0 0.0 0.0 # O_3
4381 1 5 0.000000000000 0.0 0.0 0.0 # O_
4382 1 2 0.000000000000 0.0 0.0 0.0 # Si3
4383 1 3 0.000000000000 0.0 0.0 0.0 # C_3
4384 1 3 0.000000000000 0.0 0.0 0.0 # C_3
4385 1 4 0.000000000000 0.0 0.0 0.0 # O_3
4386 1 2 0.000000000000 0.0 0.0 0.0 # Si3
4387 1 3 0.000000000000 0.0 0.0 0.0 # C_3
4388 1 3 0.000000000000 0.0 0.0 0.0 # C_3
4389 1 4 0.000000000000 0.0 0.0 0.0 # O_3
4390 1 2 0.000000000000 0.0 0.0 0.0 # Si3
4391 1 3 0.000000000000 0.0 0.0 0.0 # C_3
4392 1 3 0.000000000000 0.0 0.0 0.0 # C_3
4393 1 4 0.000000000000 0.0 0.0 0.0 # O_3
4394 1 2 0.000000000000 0.0 0.0 0.0 # Si3
4395 1 3 0.000000000000 0.0 0.0 0.0 # C_3
4396 1 3 0.000000000000 0.0 0.0 0.0 # C_3
4397 1 4 0.000000000000 0.0 0.0 0.0 # O_3
4398 1 2 0.000000000000 0.0 0.0 0.0 # Si3
4399 1 3 0.000000000000 0.0 0.0 0.0 # C_3
4400 1 3 0.000000000000 0.0 0.0 0.0 # C_3
4401 1 4 0.000000000000 0.0 0.0 0.0 # O_3
4402 1 5 0.000000000000 0.0 0.0 0.0 # O_
4403 1 2 0.000000000000 0.0 0.0 0.0 # Si3
4404 1 3 0.000000000000 0.0 0.0 0.0 # C_3
4405 1 3 0.000000000000 0.0 0.0 0.0 # C_3
4406 1 4 0.000000000000 0.0 0.0 0.0 # O_3
4407 1 2 0.000000000000 0.0 0.0 0.0 # Si3
4408 1 3 0.000000000000 0.0 0.0 0.0 # C_3
4409 1 3 0.000000000000 0.0 0.0 0.0 # C_3
4410 1 4 0.000000000000 0.0 0.0 0.0 # O_3
4411 1 2 0.000000000000 0.0 0.0 0.0 # Si3
4412 1 3 0.000000000000 0.0 0.0 0.0 # C_3
4413 1 3 0.000000000000 0.0 0.0 0.0 # C_3
4414 1 4 0.000000000000 0.0 0.0 0.0 # O_3
4415 1 2 0.000000000000 0.0 0.0 0.0 # Si3
4416 1 3 0.000000000000 0.0 0.0 0.0 # C_3
4417 1 3 0.000000000000 0.0 0.0 0.0 # C_3
4418 1 4 0.000000000000 0.0 0.0 0.0 # O_3
4419 1 2 0.000000000000 0.0 0.0 0.0 # Si3
4420 1 3 0.000000000000 0.0 0.0 0.0 # C_3
4421 1 3 0.000000000000 0.0 0.0 0.0 # C_3
4422 1 4 0.000000000000 0.0 0.0 0.0 # O_3
4423 1 5 0.000000000000 0.0 0.0 0.0 # O_
4424 1 2 0.000000000000 0.0 0.0 0.0 # Si3
4425 1 3 0.000000000000 0.0 0.0 0.0 # C_3
4426 1 3 0.000000000000 0.0 0.0 0.0 # C_3
4427 1 4 0.000000000000 0.0 0.0 0.0 # O_3
4428 1 2 0.000000000000 0.0 0.0 0.0 # Si3
4429 1 3 0.000000000000 0.0 0.0 0.0 # C_3
4430 1 3 0.000000000000 0.0 0.0 0.0 # C_3
4431 1 4 0.000000000000 0.0 0.0 0.0 # O_3
4432 1 2 0.000000000000 0.0 0.0 0.0 # Si3
4433 1 3 0.000000000000 0.0 0.0 0.0 # C_3
4434 1 3 0.000000000000 0.0 0.0 0.0 # C_3
4435 1 4 0.000000000000 0.0 0.0 0.0 # O_3
4436 1 2 0.000000000000 0.0 0.0 0.0 # Si3
4437 1 3 0.000000000000 0.0 0.0 0.0 # C_3
4438 1 3 0.000000000000 0.0 0.0 0.0 # C_3
4439 1 4 0.000000000000 0.0 0.0 0.0 # O_3
4440 1 2 0.000000000000 0.0 0.0 0.0 # Si3
4441 1 3 0.000000000000 0.0 0.0 0.0 # C_3
4442 1 3 0.000000000000 0.0 0.0 0.0 # C_3
4443 1 4 0.000000000000 0.0 0.0 0.0 # O_3
4444 1 5 0.000000000000 0.0 0.0 0.0 # O_
4445 1 2 0.000000000000 0.0 0.0 0.0 # Si3
4446 1 3 0.000000000000 0.0 0.0 0.0 # C_3
4447 1 3 0.000000000000 0.0 0.0 0.0 # C_3
4448 1 4 0.000000000000 0.0 0.0 0.0 # O_3
4449 1 2 0.000000000000 0.0 0.0 0.0 # Si3
4450 1 3 0.000000000000 0.0 0.0 0.0 # C_3
4451 1 3 0.000000000000 0.0 0.0 0.0 # C_3
4452 1 4 0.000000000000 0.0 0.0 0.0 # O_3
4453 1 2 0.000000000000 0.0 0.0 0.0 # Si3
4454 1 3 0.000000000000 0.0 0.0 0.0 # C_3
4455 1 3 0.000000000000 0.0 0.0 0.0 # C_3
4456 1 4 0.000000000000 0.0 0.0 0.0 # O_3
4457 1 2 0.000000000000 0.0 0.0 0.0 # Si3
4458 1 3 0.000000000000 0.0 0.0 0.0 # C_3
4459 1 3 0.000000000000 0.0 0.0 0.0 # C_3
4460 1 4 0.000000000000 0.0 0.0 0.0 # O_3
4461 1 2 0.000000000000 0.0 0.0 0.0 # Si3
4462 1 3 0.000000000000 0.0 0.0 0.0 # C_3
4463 1 3 0.000000000000 0.0 0.0 0.0 # C_3
4464 1 4 0.000000000000 0.0 0.0 0.0 # O_3
4465 1 5 0.000000000000 0.0 0.0 0.0 # O_
4466 1 2 0.000000000000 0.0 0.0 0.0 # Si3
4467 1 3 0.000000000000 0.0 0.0 0.0 # C_3
4468 1 3 0.000000000000 0.0 0.0 0.0 # C_3
4469 1 4 0.000000000000 0.0 0.0 0.0 # O_3
4470 1 2 0.000000000000 0.0 0.0 0.0 # Si3
4471 1 3 0.000000000000 0.0 0.0 0.0 # C_3
4472 1 3 0.000000000000 0.0 0.0 0.0 # C_3
4473 1 4 0.000000000000 0.0 0.0 0.0 # O_3
4474 1 2 0.000000000000 0.0 0.0 0.0 # Si3
4475 1 3 0.000000000000 0.0 0.0 0.0 # C_3
4476 1 3 0.000000000000 0.0 0.0 0.0 # C_3
4477 1 4 0.000000000000 0.0 0.0 0.0 # O_3
4478 1 2 0.000000000000 0.0 0.0 0.0 # Si3
4479 1 3 0.000000000000 0.0 0.0 0.0 # C_3
4480 1 3 0.000000000000 0.0 0.0 0.0 # C_3
4481 1 4 0.000000000000 0.0 0.0 0.0 # O_3
4482 1 2 0.000000000000 0.0 0.0 0.0 # Si3
4483 1 3 0.000000000000 0.0 0.0 0.0 # C_3
4484 1 3 0.000000000000 0.0 0.0 0.0 # C_3
4485 1 4 0.000000000000 0.0 0.0 0.0 # O_3
4486 1 5 0.000000000000 0.0 0.0 0.0 # O_
4487 1 2 0.000000000000 0.0 0.0 0.0 # Si3
4488 1 3 0.000000000000 0.0 0.0 0.0 # C_3
4489 1 3 0.000000000000 0.0 0.0 0.0 # C_3
4490 1 4 0.000000000000 0.0 0.0 0.0 # O_3
4491 1 2 0.000000000000 0.0 0.0 0.0 # Si3
4492 1 3 0.000000000000 0.0 0.0 0.0 # C_3
4493 1 3 0.000000000000 0.0 0.0 0.0 # C_3
4494 1 4 0.000000000000 0.0 0.0 0.0 # O_3
4495 1 2 0.000000000000 0.0 0.0 0.0 # Si3
4496 1 3 0.000000000000 0.0 0.0 0.0 # C_3
4497 1 3 0.000000000000 0.0 0.0 0.0 # C_3
4498 1 4 0.000000000000 0.0 0.0 0.0 # O_3
4499 1 2 0.000000000000 0.0 0.0 0.0 # Si3
4500 1 3 0.000000000000 0.0 0.0 0.0 # C_3
4501 1 3 0.000000000000 0.0 0.0 0.0 # C_3
4502 1 4 0.000000000000 0.0 0.0 0.0 # O_3
4503 1 2 0.000000000000 0.0 0.0 0.0 # Si3
4504 1 3 0.000000000000 0.0 0.0 0.0 # C_3
4505 1 3 0.000000000000 0.0 0.0 0.0 # C_3
4506 1 4 0.000000000000 0.0 0.0 0.0 # O_3
4507 1 5 0.000000000000 0.0 0.0 0.0 # O_
4508 1 2 0.000000000000 0.0 0.0 0.0 # Si3
4509 1 3 0.000000000000 0.0 0.0 0.0 # C_3
4510 1 3 0.000000000000 0.0 0.0 0.0 # C_3
4511 1 4 0.000000000000 0.0 0.0 0.0 # O_3
4512 1 2 0.000000000000 0.0 0.0 0.0 # Si3
4513 1 3 0.000000000000 0.0 0.0 0.0 # C_3
4514 1 3 0.000000000000 0.0 0.0 0.0 # C_3
4515 1 4 0.000000000000 0.0 0.0 0.0 # O_3
4516 1 2 0.000000000000 0.0 0.0 0.0 # Si3
4517 1 3 0.000000000000 0.0 0.0 0.0 # C_3
4518 1 3 0.000000000000 0.0 0.0 0.0 # C_3
4519 1 4 0.000000000000 0.0 0.0 0.0 # O_3
4520 1 2 0.000000000000 0.0 0.0 0.0 # Si3
4521 1 3 0.000000000000 0.0 0.0 0.0 # C_3
4522 1 3 0.000000000000 0.0 0.0 0.0 # C_3
4523 1 4 0.000000000000 0.0 0.0 0.0 # O_3
4524 1 2 0.000000000000 0.0 0.0 0.0 # Si3
4525 1 3 0.000000000000 0.0 0.0 0.0 # C_3
4526 1 3 0.000000000000 0.0 0.0 0.0 # C_3
4527 1 4 0.000000000000 0.0 0.0 0.0 # O_3
4528 1 5 0.000000000000 0.0 0.0 0.0 # O_
4529 1 2 0.000000000000 0.0 0.0 0.0 # Si3
4530 1 3 0.000000000000 0.0 0.0 0.0 # C_3
4531 1 3 0.000000000000 0.0 0.0 0.0 # C_3
4532 1 4 0.000000000000 0.0 0.0 0.0 # O_3
4533 1 2 0.000000000000 0.0 0.0 0.0 # Si3
4534 1 3 0.000000000000 0.0 0.0 0.0 # C_3
4535 1 3 0.000000000000 0.0 0.0 0.0 # C_3
4536 1 4 0.000000000000 0.0 0.0 0.0 # O_3
4537 1 2 0.000000000000 0.0 0.0 0.0 # Si3
4538 1 3 0.000000000000 0.0 0.0 0.0 # C_3
4539 1 3 0.000000000000 0.0 0.0 0.0 # C_3
4540 1 4 0.000000000000 0.0 0.0 0.0 # O_3
4541 1 2 0.000000000000 0.0 0.0 0.0 # Si3
4542 1 3 0.000000000000 0.0 0.0 0.0 # C_3
4543 1 3 0.000000000000 0.0 0.0 0.0 # C_3
4544 1 4 0.000000000000 0.0 0.0 0.0 # O_3
4545 1 2 0.000000000000 0.0 0.0 0.0 # Si3
4546 1 3 0.000000000000 0.0 0.0 0.0 # C_3
4547 1 3 0.000000000000 0.0 0.0 0.0 # C_3
4548 1 4 0.000000000000 0.0 0.0 0.0 # O_3
4549 1 5 0.000000000000 0.0 0.0 0.0 # O_

Bonds

1 1 17 18
2 1 17 19
3 1 17 20
4 1 49 50
5 1 49 51
6 1 49 52
7 1 55 56
8 1 55 57
9 1 55 58
10 1 78 79
11 1 78 80
12 1 78 81
13 1 84 85
14 1 84 86
15 1 84 87
16 1 127 128
17 1 127 129
18 1 127 130
19 1 140 141
20 1 140 142
21 2 140 143
22 2 143 144
23 1 144 145
24 1 144 146
25 2 144 147
26 2 147 148
27 1 148 149
28 1 148 150
29 2 148 151
30 2 151 152
31 1 152 153
32 1 152 154
33 2 152 155
34 2 155 156
35 1 156 157
36 1 156 158
37 2 156 159
38 3 1 160
39 4 160 140
40 5 159 6
41 1 161 162
42 1 161 163
43 2 161 164
44 2 164 165
45 1 165 166
46 1 165 167
47 2 165 168
48 2 168 169
49 1 169 170
50 1 169 171
51 2 169 172
52 2 172 173
53 1 173 174
54 1 173 175
55 2 173 176
56 2 176 177
57 1 177 178
58 1 177 179
59 2 177 180
60 3 1 181
61 4 181 161
62 5 180 5
63 1 182 183
64 1 182 184
65 2 182 185
66 2 185 186
67 1 186 187
68 1 186 188
69 2 186 189
70 2 189 190
71 1 190 191
72 1 190 192
73 2 190 193
74 2 193 194
75 1 194 195
76 1 194 196
77 2 194 197
78 2 197 198
79 1 198 199
80 1 198 200
81 2 198 201
82 3 1 202
83 4 202 182
84 5 201 23
85 1 203 204
86 1 203 205
87 2 203 206
88 2 206 207
89 1 207 208
90 1 207 209
91 2 207 210
92 2 210 211
93 1 211 212
94 1 211 213
95 2 211 214
96 2 214 215
97 1 215 216
98 1 215 217
99 2 215 218
100 2 218 219
101 1 219 220
102 1 219 221
103 2 219 222
104 3 2 223
105 4 223 203
106 5 222 3
107 1 224 225
108 1 224 226
109 2 224 227
110 2 227 228
111 1 228 229
112 1 228 230
113 2 228 231
114 2 231 232
115 1 232 233
116 1 232 234
117 2 232 235
118 2 235 236
119 1 236 237
120 1 236 238
121 2 236 239
122 2 239 240
123 1 240 241
124 1 240 242
125 2 240 243
126 3 2 244
127 4 244 224
128 5 243 29
129 1 245 246
130 1 245 247
131 2 245 248
132 2 248 249
133 1 249 250
134 1 249 251
135 2 249 252
136 2 252 253
137 1 253 254
138 1 253 255
139 2 253 256
140 2 256 257
141 1 257 258
142 1 257 259
143 2 257 260
144 2 260 261
145 1 261 262
146 1 261 263
147 2 261 264
148 3 2 265
149 4 265 245
150 5 264 24
151 1 266 267
152 1 266 268
153 2 266 269
154 2 269 270
155 1 270 271
156 1 270 272
157 2 270 273
158 2 273 274
159 1 274 275
160 1 274 276
161 2 274 277
162 2 277 278
163 1 278 279
164 1 278 280
165 2 278 281
166 2 281 282
167 1 282 283
168 1 282 284
169 2 282 285
170 3 3 286
171 4 286 266
172 5 285 4
173 1 287 288
174 1 287 289
175 2 287 290
176 2 290 291
177 1 291 292
178 1 291 293
179 2 291 294
180 2 294 295
181 1 295 296
182 1 295 297
183 2 295 298
184 2 298 299
185 1 299 300
186 1 299 301
187 2 299 302
188 2 302 303
189 1 303 304
190 1 303 305
191 2 303 306
192 3 3 307
193 4 307 287
194 5 306 30
195 1 308 309
196 1 308 310
197 2 308 311
198 2 311 312
199 1 312 313
200 1 312 314
201 2 312 315
202 2 315 316
203 1 316 317
204 1 316 318
205 2 316 319
206 2 319 320
207 1 320 321
208 1 320 322
209 2 320 323
210 2 323 324
211 1 324 325
212 1 324 326
213 2 324 327
214 3 3 328
215 4 328 308
216 5 327 25
217 1 329 330
218 1 329 331
219 2 329 332
220 2 332 333
221 1 333 334
222 1 333 335
223 2 333 336
224 2 336 337
225 1 337 338
226 1 337 339
227 2 337 340
228 2 340 341
229 1 341 342
230 1 341 343
231 2 341 344
232 2 344 345
233 1 345 346
234 1 345 347
235 2 345 348
236 3 4 349
237 4 349 329
238 5 348 5
239 1 350 351
240 1 350 352
241 2 350 353
242 2 353 354
243 1 354 355
244 1 354 356
245 2 354 357
246 2 357 358
247 1 358 359
248 1 358 360
249 2 358 361
250 2 361 362
251 1 362 363
252 1 362 364
253 2 362 365
254 2 365 366
255 1 366 367
256 1 366 368
257 2 366 369
258 3 4 370
259 4 370 350
260 5 369 8
261 1 371 372
262 1 371 373
263 2 371 374
264 2 374 375
265 1 375 376
266 1 375 377
267 2 375 378
268 2 378 379
269 1 379 380
270 1 379 381
271 2 379 382
272 2 382 383
273 1 383 384
274 1 383 385
275 2 383 386
276 2 386 387
277 1 387 388
278 1 387 389
279 2 387 390
280 3 4 391
281 4 391 371
282 5 390 31
283 1 392 393
284 1 392 394
285 2 392 395
286 2 395 396
287 1 396 397
288 1 396 398
289 2 396 399
290 2 399 400
291 1 400 401
292 1 400 402
293 2 400 403
294 2 403 404
295 1 404 405
296 1 404 406
297 2 404 407
298 2 407 408
299 1 408 409
300 1 408 410
301 2 408 411
302 3 5 412
303 4 412 392
304 5 411 9
305 1 413 414
306 1 413 415
307 2 413 416
308 2 416 417
309 1 417 418
310 1 417 419
311 2 417 420
312 2 420 421
313 1 421 422
314 1 421 423
315 2 421 424
316 2 424 425
317 1 425 426
318 1 425 427
319 2 425 428
320 2 428 429
321 1 429 430
322 1 429 431
323 2 429 432
324 3 5 433
325 4 433 413
326 5 432 32
327 1 434 435
328 1 434 436
329 2 434 437
330 2 437 438
331 1 438 439
332 1 438 440
333 2 438 441
334 2 441 442
335 1 442 443
336 1 442 444
337 2 442 445
338 2 445 446
339 1 446 447
340 1 446 448
341 2 446 449
342 2 449 450
343 1 450 451
344 1 450 452
345 2 450 453
346 3 6 454
347 4 454 434
348 5 453 33
349 1 455 456
350 1 455 457
351 2 455 458
352 2 458 459
353 1 459 460
354 1 459 461
355 2 459 462
356 2 462 463
357 1 463 464
358 1 463 465
359 2 463 466
360 2 466 467
361 1 467 468
362 1 467 469
363 2 467 470
364 2 470 471
365 1 471 472
366 1 471 473
367 2 471 474
368 3 6 475
369 4 475 455
370 5 474 9
371 1 476 477
372 1 476 478
373 2 476 479
374 2 479 480
375 1 480 481
376 1 480 482
377 2 480 483
378 2 483 484
379 1 484 485
380 1 484 486
381 2 484 487
382 2 487 488
383 1 488 489
384 1 488 490
385 2 488 491
386 2 491 492
387 1 492 493
388 1 492 494
389 2 492 495
390 3 6 496
391 4 496 476
392 5 495 117
393 1 497 498
394 1 497 499
395 2 497 500
396 2 500 501
397 1 501 502
398 1 501 503
399 2 501 504
400 2 504 505
401 1 505 506
402 1 505 507
403 2 505 508
404 2 508 509
405 1 509 510
406 1 509 511
407 2 509 512
408 2 512 513
409 1 513 514
410 1 513 515
411 2 513 516
412 3 7 517
413 4 517 497
414 5 516 8
415 1 518 519
416 1 518 520
417 2 518 521
418 2 521 522
419 1 522 523
420 1 522 524
421 2 522 525
422 2 525 526
423 1 526 527
424 1 526 528
425 2 526 529
426 2 529 530
427 1 530 531
428 1 530 532
429 2 530 533
430 2 533 534
431 1 534 535
432 1 534 536
433 2 534 537
434 3 7 538
435 4 538 518
436 5 537 12
437 1 539 540
438 1 539 541
439 2 539 542
440 2 542 543
441 1 543 544
442 1 543 545
443 2 543 546
444 2 546 547
445 1 547 548
446 1 547 549
447 2 547 550
448 2 550 551
449 1 551 552
450 1 551 553
451 2 551 554
452 2 554 555
453 1 555 556
454 1 555 557
455 2 555 558
456 3 7 559
457 4 559 539
458 5 558 35
459 1 560 561
460 1 560 562
461 2 560 563
462 2 563 564
463 1 564 565
464 1 564 566
465 2 564 567
466 2 567 568
467 1 568 569
468 1 568 570
469 2 568 571
470 2 571 572
471 1 572 573
472 1 572 574
473 2 572 575
474 2 575 576
475 1 576 577
476 1 576 578
477 2 576 579
478 3 7 580
479 4 580 560
480 5 579 119
481 1 581 582
482 1 581 583
483 2 581 584
484 2 584 585
485 1 585 586
486 1 585 587
487 2 585 588
488 2 588 589
489 1 589 590
490 1 589 591
491 2 589 592
492 2 592 593
493 1 593 594
494 1 593 595
495 2 593 596
496 2 596 597
497 1 597 598
498 1 597 599
499 2 597 600
500 3 8 601
501 4 601 581
502 5 600 9
503 1 602 603
504 1 602 604
505 2 602 605
506 2 605 606
507 1 606 607
508 1 606 608
509 2 606 609
510 2 609 610
511 1 610 611
512 1 610 612
513 2 610 613
514 2 613 614
515 1 614 615
516 1 614 616
517 2 614 617
518 2 617 618
519 1 618 619
520 1 618 620
521 2 618 621
522 3 8 622
523 4 622 602
524 5 621 120
525 1 623 624
526 1 623 625
527 2 623 626
528 2 626 627
529 1 627 628
530 1 627 629
531 2 627 630
532 2 630 631
533 1 631 632
534 1 631 633
535 2 631 634
536 2 634 635
537 1 635 636
538 1 635 637
539 2 635 638
540 2 638 639
541 1 639 640
542 1 639 641
543 2 639 642
544 3 9 643
545 4 643 623
546 5 642 37
547 1 644 645
548 1 644 646
549 2 644 647
550 2 647 648
551 1 648 649
552 1 648 650
553 2 648 651
554 2 651 652
555 1 652 653
556 1 652 654
557 2 652 655
558 2 655 656
559 1 656 657
560 1 656 658
561 2 656 659
562 2 659 660
563 1 660 661
564 1 660 662
565 2 660 663
566 3 10 664
567 4 664 644
568 5 663 15
569 1 665 666
570 1 665 667
571 2 665 668
572 2 668 669
573 1 669 670
574 1 669 671
575 2 669 672
576 2 672 673
577 1 673 674
578 1 673 675
579 2 673 676
580 2 676 677
581 1 677 678
582 1 677 679
583 2 677 680
584 2 680 681
585 1 681 682
586 1 681 683
587 2 681 684
588 3 10 685
589 4 685 665
590 5 684 38
591 1 686 687
592 1 686 688
593 2 686 689
594 2 689 690
595 1 690 691
596 1 690 692
597 2 690 693
598 2 693 694
599 1 694 695
600 1 694 696
601 2 694 697
602 2 697 698
603 1 698 699
604 1 698 700
605 2 698 701
606 2 701 702
607 1 702 703
608 1 702 704
609 2 702 705
610 3 10 706
611 4 706 686
612 5 705 14
613 1 707 708
614 1 707 709
615 2 707 710
616 2 710 711
617 1 711 712
618 1 711 713
619 2 711 714
620 2 714 715
621 1 715 716
622 1 715 717
623 2 715 718
624 2 718 719
625 1 719 720
626 1 719 721
627 2 719 722
628 2 722 723
629 1 723 724
630 1 723 725
631 2 723 726
632 3 11 727
633 4 727 707
634 5 726 12
635 1 728 729
636 1 728 730
637 2 728 731
638 2 731 732
639 1 732 733
640 1 732 734
641 2 732 735
642 2 735 736
643 1 736 737
644 1 736 738
645 2 736 739
646 2 739 740
647 1 740 741
648 1 740 742
649 2 740 743
650 2 743 744
651 1 744 745
652 1 744 746
653 2 744 747
654 3 11 748
655 4 748 728
656 5 747 16
657 1 749 750
658 1 749 751
659 2 749 752
660 2 752 753
661 1 753 754
662 1 753 755
663 2 753 756
664 2 756 757
665 1 757 758
666 1 757 759
667 2 757 760
668 2 760 761
669 1 761 762
670 1 761 763
671 2 761 764
672 2 764 765
673 1 765 766
674 1 765 767
675 2 765 768
676 3 11 769
677 4 769 749
678 5 768 39
679 1 770 771
680 1 770 772
681 2 770 773
682 2 773 774
683 1 774 775
684 1 774 776
685 2 774 777
686 2 777 778
687 1 778 779
688 1 778 780
689 2 778 781
690 2 781 782
691 1 782 783
692 1 782 784
693 2 782 785
694 2 785 786
695 1 786 787
696 1 786 788
697 2 786 789
698 3 12 790
699 4 790 770
700 5 789 40
701 1 791 792
702 1 791 793
703 2 791 794
704 2 794 795
705 1 795 796
706 1 795 797
707 2 795 798
708 2 798 799
709 1 799 800
710 1 799 801
711 2 799 802
712 2 802 803
713 1 803 804
714 1 803 805
715 2 803 806
716 2 806 807
717 1 807 808
718 1 807 809
719 2 807 810
720 3 12 811
721 4 811 791
722 5 810 124
723 1 812 813
724 1 812 814
725 2 812 815
726 2 815 816
727 1 816 817
728 1 816 818
729 2 816 819
730 2 819 820
731 1 820 821
732 1 820 822
733 2 820 823
734 2 823 824
735 1 824 825
736 1 824 826
737 2 824 827
738 2 827 828
739 1 828 829
740 1 828 830
741 2 828 831
742 3 13 832
743 4 832 812
744 5 831 14
745 1 833 834
746 1 833 835
747 2 833 836
748 2 836 837
749 1 837 838
750 1 837 839
751 2 837 840
752 2 840 841
753 1 841 842
754 1 841 843
755 2 841 844
756 2 844 845
757 1 845 846
758 1 845 847
759 2 845 848
760 2 848 849
761 1 849 850
762 1 849 851
763 2 849 852
764 3 13 853
765 4 853 833
766 5 852 21
767 1 854 855
768 1 854 856
769 2 854 857
770 2 857 858
771 1 858 859
772 1 858 860
773 2 858 861
774 2 861 862
775 1 862 863
776 1 862 864
777 2 862 865
778 2 865 866
779 1 866 867
780 1 866 868
781 2 866 869
782 2 869 870
783 1 870 871
784 1 870 872
785 2 870 873
786 3 13 874
787 4 874 854
788 5 873 125
789 1 875 876
790 1 875 877
791 2 875 878
792 2 878 879
793 1 879 880
794 1 879 881
795 2 879 882
796 2 882 883
797 1 883 884
798 1 883 885
799 2 883 886
800 2 886 887
801 1 887 888
802 1 887 889
803 2 887 890
804 2 890 891
805 1 891 892
806 1 891 893
807 2 891 894
808 3 14 895
809 4 895 875
810 5 894 22
811 1 896 897
812 1 896 898
813 2 896 899
814 2 899 900
815 1 900 901
816 1 900 902
817 2 900 903
818 2 903 904
819 1 904 905
820 1 904 906
821 2 904 907
822 2 907 908
823 1 908 909
824 1 908 910
825 2 908 911
826 2 911 912
827 1 912 913
828 1 912 914
829 2 912 915
830 3 15 916
831 4 916 896
832 5 915 23
833 1 917 918
834 1 917 919
835 2 917 920
836 2 920 921
837 1 921 922
838 1 921 923
839 2 921 924
840 2 924 925
841 1 925 926
842 1 925 927
843 2 925 928
844 2 928 929
845 1 929 930
846 1 929 931
847 2 929 932
848 2 932 933
849 1 933 934
850 1 933 935
851 2 933 936
852 3 15 937
853 4 937 917
854 5 936 43
855 1 938 939
856 1 938 940
857 2 938 941
858 2 941 942
859 1 942 943
860 1 942 944
861 2 942 945
862 2 945 946
863 1 946 947
864 1 946 948
865 2 946 949
866 2 949 950
867 1 950 951
868 1 950 952
869 2 950 953
870 2 953 954
871 1 954 955
872 1 954 956
873 2 954 957
874 3 15 958
875 4 958 938
876 5 957 22
877 1 959 960
878 1 959 961
879 2 959 962
880 2 962 963
881 1 963 964
882 1 963 965
883 2 963 966
884 2 966 967
885 1 967 968
886 1 967 969
887 2 967 970
888 2 970 971
889 1 971 972
890 1 971 973
891 2 971 974
892 2 974 975
893 1 975 976
894 1 975 977
895 2 975 978
896 3 16 979
897 4 979 959
898 5 978 24
899 1 980 981
900 1 980 982
901 2 980 983
902 2 983 984
903 1 984 985
904 1 984 986
905 2 984 987
906 2 987 988
907 1 988 989
908 1 988 990
909 2 988 991
910 2 991 992
911 1 992 993
912 1 992 994
913 2 992 995
914 2 995 996
915 1 996 997
916 1 996 998
917 2 996 999
918 3 16 1000
919 4 1000 980
920 5 999 131
921 1 1001 1002
922 1 1001 1003
923 2 1001 1004
924 2 1004 1005
925 1 1005 1006
926 1 1005 1007
927 2 1005 1008
928 2 1008 1009
929 1 1009 1010
930 1 1009 1011
931 2 1009 1012
932 2 1012 1013
933 1 1013 1014
934 1 1013 1015
935 2 1013 1016
936 2 1016 1017
937 1 1017 1018
938 1 1017 1019
939 2 1017 1020
940 4 17 1021
941 4 1021 1001
942 5 1020 44
943 1 1022 1023
944 1 1022 1024
945 2 1022 1025
946 2 1025 1026
947 1 1026 1027
948 1 1026 1028
949 2 1026 1029
950 2 1029 1030
951 1 1030 1031
952 1 1030 1032
953 2 1030 1033
954 2 1033 1034
955 1 1034 1035
956 1 1034 1036
957 2 1034 1037
958 2 1037 1038
959 1 1038 1039
960 1 1038 1040
961 2 1038 1041
962 3 21 1042
963 4 1042 1022
964 5 1041 26
965 1 1043 1044
966 1 1043 1045
967 2 1043 1046
968 2 1046 1047
969 1 1047 1048
970 1 1047 1049
971 2 1047 1050
972 2 1050 1051
973 1 1051 1052
974 1 1051 1053
975 2 1051 1054
976 2 1054 1055
977 1 1055 1056
978 1 1055 1057
979 2 1055 1058
980 2 1058 1059
981 1 1059 1060
982 1 1059 1061
983 2 1059 1062
984 3 21 1063
985 4 1063 1043
986 5 1062 133
987 1 1064 1065
988 1 1064 1066
989 2 1064 1067
990 2 1067 1068
991 1 1068 1069
992 1 1068 1070
993 2 1068 1071
994 2 1071 1072
995 1 1072 1073
996 1 1072 1074
997 2 1072 1075
998 2 1075 1076
999 1 1076 1077
1000 1 1076 1078
1001 2 1076 1079
1002 2 1079 1080
1003 1 1080 1081
1004 1 1080 1082
1005 2 1080 1083
1006 3 22 1084
1007 4 1084 1064
1008 5 1083 27
1009 1 1085 1086
1010 1 1085 1087
1011 2 1085 1088
1012 2 1088 1089
1013 1 1089 1090
1014 1 1089 1091
1015 2 1089 1092
1016 2 1092 1093
1017 1 1093 1094
1018 1 1093 1095
1019 2 1093 1096
1020 2 1096 1097
1021 1 1097 1098
1022 1 1097 1099
1023 2 1097 1100
1024 2 1100 1101
1025 1 1101 1102
1026 1 1101 1103
1027 2 1101 1104
1028 3 22 1105
1029 4 1105 1085
1030 5 1104 134
1031 1 1106 1107
1032 1 1106 1108
1033 2 1106 1109
1034 2 1109 1110
1035 1 1110 1111
1036 1 1110 1112
1037 2 1110 1113
1038 2 1113 1114
1039 1 1114 1115
1040 1 1114 1116
1041 2 1114 1117
1042 2 1117 1118
1043 1 1118 1119
1044 1 1118 1120
1045 2 1118 1121
1046 2 1121 1122
1047 1 1122 1123
1048 1 1122 1124
1049 2 1122 1125
1050 3 23 1126
1051 4 1126 1106
1052 5 1125 24
1053 1 1127 1128
1054 1 1127 1129
1055 2 1127 1130
1056 2 1130 1131
1057 1 1131 1132
1058 1 1131 1133
1059 2 1131 1134
1060 2 1134 1135
1061 1 1135 1136
1062 1 1135 1137
1063 2 1135 1138
1064 2 1138 1139
1065 1 1139 1140
1066 1 1139 1141
1067 2 1139 1142
1068 2 1142 1143
1069 1 1143 1144
1070 1 1143 1145
1071 2 1143 1146
1072 3 23 1147
1073 4 1147 1127
1074 5 1146 27
1075 1 1148 1149
1076 1 1148 1150
1077 2 1148 1151
1078 2 1151 1152
1079 1 1152 1153
1080 1 1152 1154
1081 2 1152 1155
1082 2 1155 1156
1083 1 1156 1157
1084 1 1156 1158
1085 2 1156 1159
1086 2 1159 1160
1087 1 1160 1161
1088 1 1160 1162
1089 2 1160 1163
1090 2 1163 1164
1091 1 1164 1165
1092 1 1164 1166
1093 2 1164 1167
1094 3 24 1168
1095 4 1168 1148
1096 5 1167 48
1097 1 1169 1170
1098 1 1169 1171
1099 2 1169 1172
1100 2 1172 1173
1101 1 1173 1174
1102 1 1173 1175
1103 2 1173 1176
1104 2 1176 1177
1105 1 1177 1178
1106 1 1177 1179
1107 2 1177 1180
1108 2 1180 1181
1109 1 1181 1182
1110 1 1181 1183
1111 2 1181 1184
1112 2 1184 1185
1113 1 1185 1186
1114 1 1185 1187
1115 2 1185 1188
1116 3 25 1189
1117 4 1189 1169
1118 5 1188 26
1119 1 1190 1191
1120 1 1190 1192
1121 2 1190 1193
1122 2 1193 1194
1123 1 1194 1195
1124 1 1194 1196
1125 2 1194 1197
1126 2 1197 1198
1127 1 1198 1199
1128 1 1198 1200
1129 2 1198 1201
1130 2 1201 1202
1131 1 1202 1203
1132 1 1202 1204
1133 2 1202 1205
1134 2 1205 1206
1135 1 1206 1207
1136 1 1206 1208
1137 2 1206 1209
1138 3 25 1210
1139 4 1210 1190
1140 2 1209 49
1141 1 1211 1212
1142 1 1211 1213
1143 2 1211 1214
1144 2 1214 1215
1145 1 1215 1216
1146 1 1215 1217
1147 2 1215 1218
1148 2 1218 1219
1149 1 1219 1220
1150 1 1219 1221
1151 2 1219 1222
1152 2 1222 1223
1153 1 1223 1224
1154 1 1223 1225
1155 2 1223 1226
1156 2 1226 1227
1157 1 1227 1228
1158 1 1227 1229
1159 2 1227 1230
1160 3 26 1231
1161 4 1231 1211
1162 5 1230 27
1163 1 1232 1233
1164 1 1232 1234
1165 2 1232 1235
1166 2 1235 1236
1167 1 1236 1237
1168 1 1236 1238
1169 2 1236 1239
1170 2 1239 1240
1171 1 1240 1241
1172 1 1240 1242
1173 2 1240 1243
1174 2 1243 1244
1175 1 1244 1245
1176 1 1244 1246
1177 2 1244 1247
1178 2 1247 1248
1179 1 1248 1249
1180 1 1248 1250
1181 2 1248 1251
1182 3 26 1252
1183 4 1252 1232
1184 5 1251 53
1185 1 1253 1254
1186 1 1253 1255
1187 2 1253 1256
1188 2 1256 1257
1189 1 1257 1258
1190 1 1257 1259
1191 2 1257 1260
1192 2 1260 1261
1193 1 1261 1262
1194 1 1261 1263
1195 2 1261 1264
1196 2 1264 1265
1197 1 1265 1266
1198 1 1265 1267
1199 2 1265 1268
1200 2 1268 1269
1201 1 1269 1270
1202 1 1269 1271
1203 2 1269 1272
1204 3 27 1273
1205 4 1273 1253
1206 5 1272 139
1207 1 1274 1275
1208 1 1274 1276
1209 2 1274 1277
1210 2 1277 1278
1211 1 1278 1279
1212 1 1278 1280
1213 2 1278 1281
1214 2 1281 1282
1215 1 1282 1283
1216 1 1282 1284
1217 2 1282 1285
1218 2 1285 1286
1219 1 1286 1287
1220 1 1286 1288
1221 2 1286 1289
1222 2 1289 1290
1223 1 1290 1291
1224 1 1290 1292
1225 2 1290 1293
1226 3 28 1294
1227 4 1294 1274
1228 2 1293 55
1229 1 1295 1296
1230 1 1295 1297
1231 2 1295 1298
1232 2 1298 1299
1233 1 1299 1300
1234 1 1299 1301
1235 2 1299 1302
1236 2 1302 1303
1237 1 1303 1304
1238 1 1303 1305
1239 2 1303 1306
1240 2 1306 1307
1241 1 1307 1308
1242 1 1307 1309
1243 2 1307 1310
1244 2 1310 1311
1245 1 1311 1312
1246 1 1311 1313
1247 2 1311 1314
1248 3 28 1315
1249 4 1315 1295
1250 5 1314 32
1251 1 1316 1317
1252 1 1316 1318
1253 2 1316 1319
1254 2 1319 1320
1255 1 1320 1321
1256 1 1320 1322
1257 2 1320 1323
1258 2 1323 1324
1259 1 1324 1325
1260 1 1324 1326
1261 2 1324 1327
1262 2 1327 1328
1263 1 1328 1329
1264 1 1328 1330
1265 2 1328 1331
1266 2 1331 1332
1267 1 1332 1333
1268 1 1332 1334
1269 2 1332 1335
1270 3 28 1336
1271 4 1336 1316
1272 5 1335 47
1273 1 1337 1338
1274 1 1337 1339
1275 2 1337 1340
1276 2 1340 1341
1277 1 1341 1342
1278 1 1341 1343
1279 2 1341 1344
1280 2 1344 1345
1281 1 1345 1346
1282 1 1345 1347
1283 2 1345 1348
1284 2 1348 1349
1285 1 1349 1350
1286 1 1349 1351
1287 2 1349 1352
1288 2 1352 1353
1289 1 1353 1354
1290 1 1353 1355
1291 2 1353 1356
1292 3 29 1357
1293 4 1357 1337
1294 5 1356 30
1295 1 1358 1359
1296 1 1358 1360
1297 2 1358 1361
1298 2 1361 1362
1299 1 1362 1363
1300 1 1362 1364
1301 2 1362 1365
1302 2 1365 1366
1303 1 1366 1367
1304 1 1366 1368
1305 2 1366 1369
1306 2 1369 1370
1307 1 1370 1371
1308 1 1370 1372
1309 2 1370 1373
1310 2 1373 1374
1311 1 1374 1375
1312 1 1374 1376
1313 2 1374 1377
1314 3 29 1378
1315 4 1378 1358
1316 5 1377 34
1317 1 1379 1380
1318 1 1379 1381
1319 2 1379 1382
1320 2 1382 1383
1321 1 1383 1384
1322 1 1383 1385
1323 2 1383 1386
1324 2 1386 1387
1325 1 1387 1388
1326 1 1387 1389
1327 2 1387 1390
1328 2 1390 1391
1329 1 1391 1392
1330 1 1391 1393
1331 2 1391 1394
1332 2 1394 1395
1333 1 1395 1396
1334 1 1395 1397
1335 2 1395 1398
1336 3 29 1399
1337 4 1399 1379
1338 5 1398 48
1339 1 1400 1401
1340 1 1400 1402
1341 2 1400 1403
1342 2 1403 1404
1343 1 1404 1405
1344 1 1404 1406
1345 2 1404 1407
1346 2 1407 1408
1347 1 1408 1409
1348 1 1408 1410
1349 2 1408 1411
1350 2 1411 1412
1351 1 1412 1413
1352 1 1412 1414
1353 2 1412 1415
1354 2 1415 1416
1355 1 1416 1417
1356 1 1416 1418
1357 2 1416 1419
1358 3 30 1420
1359 4 1420 1400
1360 5 1419 35
1361 1 1421 1422
1362 1 1421 1423
1363 2 1421 1424
1364 2 1424 1425
1365 1 1425 1426
1366 1 1425 1427
1367 2 1425 1428
1368 2 1428 1429
1369 1 1429 1430
1370 1 1429 1431
1371 2 1429 1432
1372 2 1432 1433
1373 1 1433 1434
1374 1 1433 1435
1375 2 1433 1436
1376 2 1436 1437
1377 1 1437 1438
1378 1 1437 1439
1379 2 1437 1440
1380 3 30 1441
1381 4 1441 1421
1382 5 1440 59
1383 1 1442 1443
1384 1 1442 1444
1385 2 1442 1445
1386 2 1445 1446
1387 1 1446 1447
1388 1 1446 1448
1389 2 1446 1449
1390 2 1449 1450
1391 1 1450 1451
1392 1 1450 1452
1393 2 1450 1453
1394 2 1453 1454
1395 1 1454 1455
1396 1 1454 1456
1397 2 1454 1457
1398 2 1457 1458
1399 1 1458 1459
1400 1 1458 1460
1401 2 1458 1461
1402 3 31 1462
1403 4 1462 1442
1404 5 1461 32
1405 1 1463 1464
1406 1 1463 1465
1407 2 1463 1466
1408 2 1466 1467
1409 1 1467 1468
1410 1 1467 1469
1411 2 1467 1470
1412 2 1470 1471
1413 1 1471 1472
1414 1 1471 1473
1415 2 1471 1474
1416 2 1474 1475
1417 1 1475 1476
1418 1 1475 1477
1419 2 1475 1478
1420 2 1478 1479
1421 1 1479 1480
1422 1 1479 1481
1423 2 1479 1482
1424 3 31 1483
1425 4 1483 1463
1426 5 1482 36
1427 1 1484 1485
1428 1 1484 1486
1429 2 1484 1487
1430 2 1487 1488
1431 1 1488 1489
1432 1 1488 1490
1433 2 1488 1491
1434 2 1491 1492
1435 1 1492 1493
1436 1 1492 1494
1437 2 1492 1495
1438 2 1495 1496
1439 1 1496 1497
1440 1 1496 1498
1441 2 1496 1499
1442 2 1499 1500
1443 1 1500 1501
1444 1 1500 1502
1445 2 1500 1503
1446 3 31 1504
1447 4 1504 1484
1448 5 1503 53
1449 1 1505 1506
1450 1 1505 1507
1451 2 1505 1508
1452 2 1508 1509
1453 1 1509 1510
1454 1 1509 1511
1455 2 1509 1512
1456 2 1512 1513
1457 1 1513 1514
1458 1 1513 1515
1459 2 1513 1516
1460 2 1516 1517
1461 1 1517 1518
1462 1 1517 1519
1463 2 1517 1520
1464 2 1520 1521
1465 1 1521 1522
1466 1 1521 1523
1467 2 1521 1524
1468 3 32 1525
1469 4 1525 1505
1470 5 1524 61
1471 1 1526 1527
1472 1 1526 1528
1473 2 1526 1529
1474 2 1529 1530
1475 1 1530 1531
1476 1 1530 1532
1477 2 1530 1533
1478 2 1533 1534
1479 1 1534 1535
1480 1 1534 1536
1481 2 1534 1537
1482 2 1537 1538
1483 1 1538 1539
1484 1 1538 1540
1485 2 1538 1541
1486 2 1541 1542
1487 1 1542 1543
1488 1 1542 1544
1489 2 1542 1545
1490 3 33 1546
1491 4 1546 1526
1492 5 1545 34
1493 1 1547 1548
1494 1 1547 1549
1495 2 1547 1550
1496 2 1550 1551
1497 1 1551 1552
1498 1 1551 1553
1499 2 1551 1554
1500 2 1554 1555
1501 1 1555 1556
1502 1 1555 1557
1503 2 1555 1558
1504 2 1558 1559
1505 1 1559 1560
1506 1 1559 1561
1507 2 1559 1562
1508 2 1562 1563
1509 1 1563 1564
1510 1 1563 1565
1511 2 1563 1566
1512 3 33 1567
1513 4 1567 1547
1514 5 1566 38
1515 1 1568 1569
1516 1 1568 1570
1517 2 1568 1571
1518 2 1571 1572
1519 1 1572 1573
1520 1 1572 1574
1521 2 1572 1575
1522 2 1575 1576
1523 1 1576 1577
1524 1 1576 1578
1525 2 1576 1579
1526 2 1579 1580
1527 1 1580 1581
1528 1 1580 1582
1529 2 1580 1583
1530 2 1583 1584
1531 1 1584 1585
1532 1 1584 1586
1533 2 1584 1587
1534 3 34 1588
1535 4 1588 1568
1536 5 1587 39
1537 1 1589 1590
1538 1 1589 1591
1539 2 1589 1592
1540 2 1592 1593
1541 1 1593 1594
1542 1 1593 1595
1543 2 1593 1596
1544 2 1596 1597
1545 1 1597 1598
1546 1 1597 1599
1547 2 1597 1600
1548 2 1600 1601
1549 1 1601 1602
1550 1 1601 1603
1551 2 1601 1604
1552 2 1604 1605
1553 1 1605 1606
1554 1 1605 1607
1555 2 1605 1608
1556 3 34 1609
1557 4 1609 1589
1558 5 1608 63
1559 1 1610 1611
1560 1 1610 1612
1561 2 1610 1613
1562 2 1613 1614
1563 1 1614 1615
1564 1 1614 1616
1565 2 1614 1617
1566 2 1617 1618
1567 1 1618 1619
1568 1 1618 1620
1569 2 1618 1621
1570 2 1621 1622
1571 1 1622 1623
1572 1 1622 1624
1573 2 1622 1625
1574 2 1625 1626
1575 1 1626 1627
1576 1 1626 1628
1577 2 1626 1629
1578 3 35 1630
1579 4 1630 1610
1580 5 1629 40
1581 1 1631 1632
1582 1 1631 1633
1583 2 1631 1634
1584 2 1634 1635
1585 1 1635 1636
1586 1 1635 1637
1587 2 1635 1638
1588 2 1638 1639
1589 1 1639 1640
1590 1 1639 1641
1591 2 1639 1642
1592 2 1642 1643
1593 1 1643 1644
1594 1 1643 1645
1595 2 1643 1646
1596 2 1646 1647
1597 1 1647 1648
1598 1 1647 1649
1599 2 1647 1650
1600 3 35 1651
1601 4 1651 1631
1602 5 1650 64
1603 1 1652 1653
1604 1 1652 1654
1605 2 1652 1655
1606 2 1655 1656
1607 1 1656 1657
1608 1 1656 1658
1609 2 1656 1659
1610 2 1659 1660
1611 1 1660 1661
1612 1 1660 1662
1613 2 1660 1663
1614 2 1663 1664
1615 1 1664 1665
1616 1 1664 1666
1617 2 1664 1667
1618 2 1667 1668
1619 1 1668 1669
1620 1 1668 1670
1621 2 1668 1671
1622 3 36 1672
1623 4 1672 1652
1624 5 1671 37
1625 1 1673 1674
1626 1 1673 1675
1627 2 1673 1676
1628 2 1676 1677
1629 1 1677 1678
1630 1 1677 1679
1631 2 1677 1680
1632 2 1680 1681
1633 1 1681 1682
1634 1 1681 1683
1635 2 1681 1684
1636 2 1684 1685
1637 1 1685 1686
1638 1 1685 1687
1639 2 1685 1688
1640 2 1688 1689
1641 1 1689 1690
1642 1 1689 1691
1643 2 1689 1692
1644 3 36 1693
1645 4 1693 1673
1646 5 1692 65
1647 1 1694 1695
1648 1 1694 1696
1649 2 1694 1697
1650 2 1697 1698
1651 1 1698 1699
1652 1 1698 1700
1653 2 1698 1701
1654 2 1701 1702
1655 1 1702 1703
1656 1 1702 1704
1657 2 1702 1705
1658 2 1705 1706
1659 1 1706 1707
1660 1 1706 1708
1661 2 1706 1709
1662 2 1709 1710
1663 1 1710 1711
1664 1 1710 1712
1665 2 1710 1713
1666 3 37 1714
1667 4 1714 1694
1668 5 1713 42
1669 1 1715 1716
1670 1 1715 1717
1671 2 1715 1718
1672 2 1718 1719
1673 1 1719 1720
1674 1 1719 1721
1675 2 1719 1722
1676 2 1722 1723
1677 1 1723 1724
1678 1 1723 1725
1679 2 1723 1726
1680 2 1726 1727
1681 1 1727 1728
1682 1 1727 1729
1683 2 1727 1730
1684 2 1730 1731
1685 1 1731 1732
1686 1 1731 1733
1687 2 1731 1734
1688 3 38 1735
1689 4 1735 1715
1690 5 1734 43
1691 1 1736 1737
1692 1 1736 1738
1693 2 1736 1739
1694 2 1739 1740
1695 1 1740 1741
1696 1 1740 1742
1697 2 1740 1743
1698 2 1743 1744
1699 1 1744 1745
1700 1 1744 1746
1701 2 1744 1747
1702 2 1747 1748
1703 1 1748 1749
1704 1 1748 1750
1705 2 1748 1751
1706 2 1751 1752
1707 1 1752 1753
1708 1 1752 1754
1709 2 1752 1755
1710 3 39 1756
1711 4 1756 1736
1712 5 1755 68
1713 1 1757 1758
1714 1 1757 1759
1715 2 1757 1760
1716 2 1760 1761
1717 1 1761 1762
1718 1 1761 1763
1719 2 1761 1764
1720 2 1764 1765
1721 1 1765 1766
1722 1 1765 1767
1723 2 1765 1768
1724 2 1768 1769
1725 1 1769 1770
1726 1 1769 1771
1727 2 1769 1772
1728 2 1772 1773
1729 1 1773 1774
1730 1 1773 1775
1731 2 1773 1776
1732 3 40 1777
1733 4 1777 1757
1734 5 1776 41
1735 1 1778 1779
1736 1 1778 1780
1737 2 1778 1781
1738 2 1781 1782
1739 1 1782 1783
1740 1 1782 1784
1741 2 1782 1785
1742 2 1785 1786
1743 1 1786 1787
1744 1 1786 1788
1745 2 1786 1789
1746 2 1789 1790
1747 1 1790 1791
1748 1 1790 1792
1749 2 1790 1793
1750 2 1793 1794
1751 1 1794 1795
1752 1 1794 1796
1753 2 1794 1797
1754 3 40 1798
1755 4 1798 1778
1756 5 1797 69
1757 1 1799 1800
1758 1 1799 1801
1759 2 1799 1802
1760 2 1802 1803
1761 1 1803 1804
1762 1 1803 1805
1763 2 1803 1806
1764 2 1806 1807
1765 1 1807 1808
1766 1 1807 1809
1767 2 1807 1810
1768 2 1810 1811
1769 1 1811 1812
1770 1 1811 1813
1771 2 1811 1814
1772 2 1814 1815
1773 1 1815 1816
1774 1 1815 1817
1775 2 1815 1818
1776 3 41 1819
1777 4 1819 1799
1778 5 1818 42
1779 1 1820 1821
1780 1 1820 1822
1781 2 1820 1823
1782 2 1823 1824
1783 1 1824 1825
1784 1 1824 1826
1785 2 1824 1827
1786 2 1827 1828
1787 1 1828 1829
1788 1 1828 1830
1789 2 1828 1831
1790 2 1831 1832
1791 1 1832 1833
1792 1 1832 1834
1793 2 1832 1835
1794 2 1835 1836
1795 1 1836 1837
1796 1 1836 1838
1797 2 1836 1839
1798 3 41 1840
1799 4 1840 1820
1800 5 1839 45
1801 1 1841 1842
1802 1 1841 1843
1803 2 1841 1844
1804 2 1844 1845
1805 1 1845 1846
1806 1 1845 1847
1807 2 1845 1848
1808 2 1848 1849
1809 1 1849 1850
1810 1 1849 1851
1811 2 1849 1852
1812 2 1852 1853
1813 1 1853 1854
1814 1 1853 1855
1815 2 1853 1856
1816 2 1856 1857
1817 1 1857 1858
1818 1 1857 1859
1819 2 1857 1860
1820 3 41 1861
1821 4 1861 1841
1822 5 1860 70
1823 1 1862 1863
1824 1 1862 1864
1825 2 1862 1865
1826 2 1865 1866
1827 1 1866 1867
1828 1 1866 1868
1829 2 1866 1869
1830 2 1869 1870
1831 1 1870 1871
1832 1 1870 1872
1833 2 1870 1873
1834 2 1873 1874
1835 1 1874 1875
1836 1 1874 1876
1837 2 1874 1877
1838 2 1877 1878
1839 1 1878 1879
1840 1 1878 1880
1841 2 1878 1881
1842 3 42 1882
1843 4 1882 1862
1844 5 1881 46
1845 1 1883 1884
1846 1 1883 1885
1847 2 1883 1886
1848 2 1886 1887
1849 1 1887 1888
1850 1 1887 1889
1851 2 1887 1890
1852 2 1890 1891
1853 1 1891 1892
1854 1 1891 1893
1855 2 1891 1894
1856 2 1894 1895
1857 1 1895 1896
1858 1 1895 1897
1859 2 1895 1898
1860 2 1898 1899
1861 1 1899 1900
1862 1 1899 1901
1863 2 1899 1902
1864 3 42 1903
1865 4 1903 1883
1866 5 1902 71
1867 1 1904 1905
1868 1 1904 1906
1869 2 1904 1907
1870 2 1907 1908
1871 1 1908 1909
1872 1 1908 1910
1873 2 1908 1911
1874 2 1911 1912
1875 1 1912 1913
1876 1 1912 1914
1877 2 1912 1915
1878 2 1915 1916
1879 1 1916 1917
1880 1 1916 1918
1881 2 1916 1919
1882 2 1919 1920
1883 1 1920 1921
1884 1 1920 1922
1885 2 1920 1923
1886 3 43 1924
1887 4 1924 1904
1888 5 1923 47
1889 1 1925 1926
1890 1 1925 1927
1891 2 1925 1928
1892 2 1928 1929
1893 1 1929 1930
1894 1 1929 1931
1895 2 1929 1932
1896 2 1932 1933
1897 1 1933 1934
1898 1 1933 1935
1899 2 1933 1936
1900 2 1936 1937
1901 1 1937 1938
1902 1 1937 1939
1903 2 1937 1940
1904 2 1940 1941
1905 1 1941 1942
1906 1 1941 1943
1907 2 1941 1944
1908 3 43 1945
1909 4 1945 1925
1910 5 1944 46
1911 1 1946 1947
1912 1 1946 1948
1913 2 1946 1949
1914 2 1949 1950
1915 1 1950 1951
1916 1 1950 1952
1917 2 1950 1953
1918 2 1953 1954
1919 1 1954 1955
1920 1 1954 1956
1921 2 1954 1957
1922 2 1957 1958
1923 1 1958 1959
1924 1 1958 1960
1925 2 1958 1961
1926 2 1961 1962
1927 1 1962 1963
1928 1 1962 1964
1929 2 1962 1965
1930 3 44 1966
1931 4 1966 1946
1932 5 1965 45
1933 1 1967 1968
1934 1 1967 1969
1935 2 1967 1970
1936 2 1970 1971
1937 1 1971 1972
1938 1 1971 1973
1939 2 1971 1974
1940 2 1974 1975
1941 1 1975 1976
1942 1 1975 1977
1943 2 1975 1978
1944 2 1978 1979
1945 1 1979 1980
1946 1 1979 1981
1947 2 1979 1982
1948 2 1982 1983
1949 1 1983 1984
1950 1 1983 1985
1951 2 1983 1986
1952 3 44 1987
1953 4 1987 1967
1954 5 1986 73
1955 1 1988 1989
1956 1 1988 1990
1957 2 1988 1991
1958 2 1991 1992
1959 1 1992 1993
1960 1 1992 1994
1961 2 1992 1995
1962 2 1995 1996
1963 1 1996 1997
1964 1 1996 1998
1965 2 1996 1999
1966 2 1999 2000
1967 1 2000 2001
1968 1 2000 2002
1969 2 2000 2003
1970 2 2003 2004
1971 1 2004 2005
1972 1 2004 2006
1973 2 2004 2007
1974 3 45 2008
1975 4 2008 1988
1976 5 2007 53
1977 1 2009 2010
1978 1 2009 2011
1979 2 2009 2012
1980 2 2012 2013
1981 1 2013 2014
1982 1 2013 2015
1983 2 2013 2016
1984 2 2016 2017
1985 1 2017 2018
1986 1 2017 2019
1987 2 2017 2020
1988 2 2020 2021
1989 1 2021 2022
1990 1 2021 2023
1991 2 2021 2024
1992 2 2024 2025
1993 1 2025 2026
1994 1 2025 2027
1995 2 2025 2028
1996 3 46 2029
1997 4 2029 2009
1998 5 2028 54
1999 1 2030 2031
2000 1 2030 2032
2001 2 2030 2033
2002 2 2033 2034
2003 1 2034 2035
2004 1 2034 2036
2005 2 2034 2037
2006 2 2037 2038
2007 1 2038 2039
2008 1 2038 2040
2009 2 2038 2041
2010 2 2041 2042
2011 1 2042 2043
2012 1 2042 2044
2013 2 2042 2045
2014 2 2045 2046
2015 1 2046 2047
2016 1 2046 2048
2017 2 2046 2049
2018 3 47 2050
2019 4 2050 2030
2020 5 2049 76
2021 1 2051 2052
2022 1 2051 2053
2023 2 2051 2054
2024 2 2054 2055
2025 1 2055 2056
2026 1 2055 2057
2027 2 2055 2058
2028 2 2058 2059
2029 1 2059 2060
2030 1 2059 2061
2031 2 2059 2062
2032 2 2062 2063
2033 1 2063 2064
2034 1 2063 2065
2035 2 2063 2066
2036 2 2066 2067
2037 1 2067 2068
2038 1 2067 2069
2039 2 2067 2070
2040 3 48 2071
2041 4 2071 2051
2042 5 2070 77
2043 1 2072 2073
2044 1 2072 2074
2045 2 2072 2075
2046 2 2075 2076
2047 1 2076 2077
2048 1 2076 2078
2049 2 2076 2079
2050 2 2079 2080
2051 1 2080 2081
2052 1 2080 2082
2053 2 2080 2083
2054 2 2083 2084
2055 1 2084 2085
2056 1 2084 2086
2057 2 2084 2087
2058 2 2087 2088
2059 1 2088 2089
2060 1 2088 2090
2061 2 2088 2091
2062 3 53 2092
2063 4 2092 2072
2064 5 2091 54
2065 1 2093 2094
2066 1 2093 2095
2067 2 2093 2096
2068 2 2096 2097
2069 1 2097 2098
2070 1 2097 2099
2071 2 2097 2100
2072 2 2100 2101
2073 1 2101 2102
2074 1 2101 2103
2075 2 2101 2104
2076 2 2104 2105
2077 1 2105 2106
2078 1 2105 2107
2079 2 2105 2108
2080 2 2108 2109
2081 1 2109 2110
2082 1 2109 2111
2083 2 2109 2112
2084 3 54 2113
2085 4 2113 2093
2086 5 2112 83
2087 1 2114 2115
2088 1 2114 2116
2089 2 2114 2117
2090 2 2117 2118
2091 1 2118 2119
2092 1 2118 2120
2093 2 2118 2121
2094 2 2121 2122
2095 1 2122 2123
2096 1 2122 2124
2097 2 2122 2125
2098 2 2125 2126
2099 1 2126 2127
2100 1 2126 2128
2101 2 2126 2129
2102 2 2129 2130
2103 1 2130 2131
2104 1 2130 2132
2105 2 2130 2133
2106 3 59 2134
2107 4 2134 2114
2108 5 2133 60
2109 1 2135 2136
2110 1 2135 2137
2111 2 2135 2138
2112 2 2138 2139
2113 1 2139 2140
2114 1 2139 2141
2115 2 2139 2142
2116 2 2142 2143
2117 1 2143 2144
2118 1 2143 2145
2119 2 2143 2146
2120 2 2146 2147
2121 1 2147 2148
2122 1 2147 2149
2123 2 2147 2150
2124 2 2150 2151
2125 1 2151 2152
2126 1 2151 2153
2127 2 2151 2154
2128 3 59 2155
2129 4 2155 2135
2130 5 2154 64
2131 1 2156 2157
2132 1 2156 2158
2133 2 2156 2159
2134 2 2159 2160
2135 1 2160 2161
2136 1 2160 2162
2137 2 2160 2163
2138 2 2163 2164
2139 1 2164 2165
2140 1 2164 2166
2141 2 2164 2167
2142 2 2167 2168
2143 1 2168 2169
2144 1 2168 2170
2145 2 2168 2171
2146 2 2171 2172
2147 1 2172 2173
2148 1 2172 2174
2149 2 2172 2175
2150 3 59 2176
2151 4 2176 2156
2152 5 2175 89
2153 1 2177 2178
2154 1 2177 2179
2155 2 2177 2180
2156 2 2180 2181
2157 1 2181 2182
2158 1 2181 2183
2159 2 2181 2184
2160 2 2184 2185
2161 1 2185 2186
2162 1 2185 2187
2163 2 2185 2188
2164 2 2188 2189
2165 1 2189 2190
2166 1 2189 2191
2167 2 2189 2192
2168 2 2192 2193
2169 1 2193 2194
2170 1 2193 2195
2171 2 2193 2196
2172 3 60 2197
2173 4 2197 2177
2174 5 2196 65
2175 1 2198 2199
2176 1 2198 2200
2177 2 2198 2201
2178 2 2201 2202
2179 1 2202 2203
2180 1 2202 2204
2181 2 2202 2205
2182 2 2205 2206
2183 1 2206 2207
2184 1 2206 2208
2185 2 2206 2209
2186 2 2209 2210
2187 1 2210 2211
2188 1 2210 2212
2189 2 2210 2213
2190 2 2213 2214
2191 1 2214 2215
2192 1 2214 2216
2193 2 2214 2217
2194 3 60 2218
2195 4 2218 2198
2196 5 2217 90
2197 1 2219 2220
2198 1 2219 2221
2199 2 2219 2222
2200 2 2222 2223
2201 1 2223 2224
2202 1 2223 2225
2203 2 2223 2226
2204 2 2226 2227
2205 1 2227 2228
2206 1 2227 2229
2207 2 2227 2230
2208 2 2230 2231
2209 1 2231 2232
2210 1 2231 2233
2211 2 2231 2234
2212 2 2234 2235
2213 1 2235 2236
2214 1 2235 2237
2215 2 2235 2238
2216 3 60 2239
2217 4 2239 2219
2218 5 2238 82
2219 1 2240 2241
2220 1 2240 2242
2221 2 2240 2243
2222 2 2243 2244
2223 1 2244 2245
2224 1 2244 2246
2225 2 2244 2247
2226 2 2247 2248
2227 1 2248 2249
2228 1 2248 2250
2229 2 2248 2251
2230 2 2251 2252
2231 1 2252 2253
2232 1 2252 2254
2233 2 2252 2255
2234 2 2255 2256
2235 1 2256 2257
2236 1 2256 2258
2237 2 2256 2259
2238 3 61 2260
2239 4 2260 2240
2240 5 2259 66
2241 1 2261 2262
2242 1 2261 2263
2243 2 2261 2264
2244 2 2264 2265
2245 1 2265 2266
2246 1 2265 2267
2247 2 2265 2268
2248 2 2268 2269
2249 1 2269 2270
2250 1 2269 2271
2251 2 2269 2272
2252 2 2272 2273
2253 1 2273 2274
2254 1 2273 2275
2255 2 2273 2276
2256 2 2276 2277
2257 1 2277 2278
2258 1 2277 2279
2259 2 2277 2280
2260 3 61 2281
2261 4 2281 2261
2262 5 2280 91
2263 1 2282 2283
2264 1 2282 2284
2265 2 2282 2285
2266 2 2285 2286
2267 1 2286 2287
2268 1 2286 2288
2269 2 2286 2289
2270 2 2289 2290
2271 1 2290 2291
2272 1 2290 2292
2273 2 2290 2293
2274 2 2293 2294
2275 1 2294 2295
2276 1 2294 2296
2277 2 2294 2297
2278 2 2297 2298
2279 1 2298 2299
2280 1 2298 2300
2281 2 2298 2301
2282 3 61 2302
2283 4 2302 2282
2284 5 2301 83
2285 1 2303 2304
2286 1 2303 2305
2287 2 2303 2306
2288 2 2306 2307
2289 1 2307 2308
2290 1 2307 2309
2291 2 2307 2310
2292 2 2310 2311
2293 1 2311 2312
2294 1 2311 2313
2295 2 2311 2314
2296 2 2314 2315
2297 1 2315 2316
2298 1 2315 2317
2299 2 2315 2318
2300 2 2318 2319
2301 1 2319 2320
2302 1 2319 2321
2303 2 2319 2322
2304 3 62 2323
2305 4 2323 2303
2306 5 2322 63
2307 1 2324 2325
2308 1 2324 2326
2309 2 2324 2327
2310 2 2327 2328
2311 1 2328 2329
2312 1 2328 2330
2313 2 2328 2331
2314 2 2331 2332
2315 1 2332 2333
2316 1 2332 2334
2317 2 2332 2335
2318 2 2335 2336
2319 1 2336 2337
2320 1 2336 2338
2321 2 2336 2339
2322 2 2339 2340
2323 1 2340 2341
2324 1 2340 2342
2325 2 2340 2343
2326 3 62 2344
2327 4 2344 2324
2328 5 2343 67
2329 1 2345 2346
2330 1 2345 2347
2331 2 2345 2348
2332 2 2348 2349
2333 1 2349 2350
2334 1 2349 2351
2335 2 2349 2352
2336 2 2352 2353
2337 1 2353 2354
2338 1 2353 2355
2339 2 2353 2356
2340 2 2356 2357
2341 1 2357 2358
2342 1 2357 2359
2343 2 2357 2360
2344 2 2360 2361
2345 1 2361 2362
2346 1 2361 2363
2347 2 2361 2364
2348 3 62 2365
2349 4 2365 2345
2350 5 2364 92
2351 1 2366 2367
2352 1 2366 2368
2353 2 2366 2369
2354 2 2369 2370
2355 1 2370 2371
2356 1 2370 2372
2357 2 2370 2373
2358 2 2373 2374
2359 1 2374 2375
2360 1 2374 2376
2361 2 2374 2377
2362 2 2377 2378
2363 1 2378 2379
2364 1 2378 2380
2365 2 2378 2381
2366 2 2381 2382
2367 1 2382 2383
2368 1 2382 2384
2369 2 2382 2385
2370 3 62 2386
2371 4 2386 2366
2372 5 2385 66
2373 1 2387 2388
2374 1 2387 2389
2375 2 2387 2390
2376 2 2390 2391
2377 1 2391 2392
2378 1 2391 2393
2379 2 2391 2394
2380 2 2394 2395
2381 1 2395 2396
2382 1 2395 2397
2383 2 2395 2398
2384 2 2398 2399
2385 1 2399 2400
2386 1 2399 2401
2387 2 2399 2402
2388 2 2402 2403
2389 1 2403 2404
2390 1 2403 2405
2391 2 2403 2406
2392 3 63 2407
2393 4 2407 2387
2394 5 2406 68
2395 1 2408 2409
2396 1 2408 2410
2397 2 2408 2411
2398 2 2411 2412
2399 1 2412 2413
2400 1 2412 2414
2401 2 2412 2415
2402 2 2415 2416
2403 1 2416 2417
2404 1 2416 2418
2405 2 2416 2419
2406 2 2419 2420
2407 1 2420 2421
2408 1 2420 2422
2409 2 2420 2423
2410 2 2423 2424
2411 1 2424 2425
2412 1 2424 2426
2413 2 2424 2427
2414 3 63 2428
2415 4 2428 2408
2416 5 2427 93
2417 1 2429 2430
2418 1 2429 2431
2419 2 2429 2432
2420 2 2432 2433
2421 1 2433 2434
2422 1 2433 2435
2423 2 2433 2436
2424 2 2436 2437
2425 1 2437 2438
2426 1 2437 2439
2427 2 2437 2440
2428 2 2440 2441
2429 1 2441 2442
2430 1 2441 2443
2431 2 2441 2444
2432 2 2444 2445
2433 1 2445 2446
2434 1 2445 2447
2435 2 2445 2448
2436 3 64 2449
2437 4 2449 2429
2438 5 2448 65
2439 1 2450 2451
2440 1 2450 2452
2441 2 2450 2453
2442 2 2453 2454
2443 1 2454 2455
2444 1 2454 2456
2445 2 2454 2457
2446 2 2457 2458
2447 1 2458 2459
2448 1 2458 2460
2449 2 2458 2461
2450 2 2461 2462
2451 1 2462 2463
2452 1 2462 2464
2453 2 2462 2465
2454 2 2465 2466
2455 1 2466 2467
2456 1 2466 2468
2457 2 2466 2469
2458 3 66 2470
2459 4 2470 2450
2460 5 2469 71
2461 1 2471 2472
2462 1 2471 2473
2463 2 2471 2474
2464 2 2474 2475
2465 1 2475 2476
2466 1 2475 2477
2467 2 2475 2478
2468 2 2478 2479
2469 1 2479 2480
2470 1 2479 2481
2471 2 2479 2482
2472 2 2482 2483
2473 1 2483 2484
2474 1 2483 2485
2475 2 2483 2486
2476 2 2486 2487
2477 1 2487 2488
2478 1 2487 2489
2479 2 2487 2490
2480 3 66 2491
2481 4 2491 2471
2482 5 2490 96
2483 1 2492 2493
2484 1 2492 2494
2485 2 2492 2495
2486 2 2495 2496
2487 1 2496 2497
2488 1 2496 2498
2489 2 2496 2499
2490 2 2499 2500
2491 1 2500 2501
2492 1 2500 2502
2493 2 2500 2503
2494 2 2503 2504
2495 1 2504 2505
2496 1 2504 2506
2497 2 2504 2507
2498 2 2507 2508
2499 1 2508 2509
2500 1 2508 2510
2501 2 2508 2511
2502 3 67 2512
2503 4 2512 2492
2504 5 2511 97
2505 1 2513 2514
2506 1 2513 2515
2507 2 2513 2516
2508 2 2516 2517
2509 1 2517 2518
2510 1 2517 2519
2511 2 2517 2520
2512 2 2520 2521
2513 1 2521 2522
2514 1 2521 2523
2515 2 2521 2524
2516 2 2524 2525
2517 1 2525 2526
2518 1 2525 2527
2519 2 2525 2528
2520 2 2528 2529
2521 1 2529 2530
2522 1 2529 2531
2523 2 2529 2532
2524 3 67 2533
2525 4 2533 2513
2526 5 2532 71
2527 1 2534 2535
2528 1 2534 2536
2529 2 2534 2537
2530 2 2537 2538
2531 1 2538 2539
2532 1 2538 2540
2533 2 2538 2541
2534 2 2541 2542
2535 1 2542 2543
2536 1 2542 2544
2537 2 2542 2545
2538 2 2545 2546
2539 1 2546 2547
2540 1 2546 2548
2541 2 2546 2549
2542 2 2549 2550
2543 1 2550 2551
2544 1 2550 2552
2545 2 2550 2553
2546 3 68 2554
2547 4 2554 2534
2548 5 2553 72
2549 1 2555 2556
2550 1 2555 2557
2551 2 2555 2558
2552 2 2558 2559
2553 1 2559 2560
2554 1 2559 2561
2555 2 2559 2562
2556 2 2562 2563
2557 1 2563 2564
2558 1 2563 2565
2559 2 2563 2566
2560 2 2566 2567
2561 1 2567 2568
2562 1 2567 2569
2563 2 2567 2570
2564 2 2570 2571
2565 1 2571 2572
2566 1 2571 2573
2567 2 2571 2574
2568 3 68 2575
2569 4 2575 2555
2570 5 2574 98
2571 1 2576 2577
2572 1 2576 2578
2573 2 2576 2579
2574 2 2579 2580
2575 1 2580 2581
2576 1 2580 2582
2577 2 2580 2583
2578 2 2583 2584
2579 1 2584 2585
2580 1 2584 2586
2581 2 2584 2587
2582 2 2587 2588
2583 1 2588 2589
2584 1 2588 2590
2585 2 2588 2591
2586 2 2591 2592
2587 1 2592 2593
2588 1 2592 2594
2589 2 2592 2595
2590 3 69 2596
2591 4 2596 2576
2592 5 2595 70
2593 1 2597 2598
2594 1 2597 2599
2595 2 2597 2600
2596 2 2600 2601
2597 1 2601 2602
2598 1 2601 2603
2599 2 2601 2604
2600 2 2604 2605
2601 1 2605 2606
2602 1 2605 2607
2603 2 2605 2608
2604 2 2608 2609
2605 1 2609 2610
2606 1 2609 2611
2607 2 2609 2612
2608 2 2612 2613
2609 1 2613 2614
2610 1 2613 2615
2611 2 2613 2616
2612 3 69 2617
2613 4 2617 2597
2614 5 2616 73
2615 1 2618 2619
2616 1 2618 2620
2617 2 2618 2621
2618 2 2621 2622
2619 1 2622 2623
2620 1 2622 2624
2621 2 2622 2625
2622 2 2625 2626
2623 1 2626 2627
2624 1 2626 2628
2625 2 2626 2629
2626 2 2629 2630
2627 1 2630 2631
2628 1 2630 2632
2629 2 2630 2633
2630 2 2633 2634
2631 1 2634 2635
2632 1 2634 2636
2633 2 2634 2637
2634 3 69 2638
2635 4 2638 2618
2636 5 2637 99
2637 1 2639 2640
2638 1 2639 2641
2639 2 2639 2642
2640 2 2642 2643
2641 1 2643 2644
2642 1 2643 2645
2643 2 2643 2646
2644 2 2646 2647
2645 1 2647 2648
2646 1 2647 2649
2647 2 2647 2650
2648 2 2650 2651
2649 1 2651 2652
2650 1 2651 2653
2651 2 2651 2654
2652 2 2654 2655
2653 1 2655 2656
2654 1 2655 2657
2655 2 2655 2658
2656 3 70 2659
2657 4 2659 2639
2658 5 2658 74
2659 1 2660 2661
2660 1 2660 2662
2661 2 2660 2663
2662 2 2663 2664
2663 1 2664 2665
2664 1 2664 2666
2665 2 2664 2667
2666 2 2667 2668
2667 1 2668 2669
2668 1 2668 2670
2669 2 2668 2671
2670 2 2671 2672
2671 1 2672 2673
2672 1 2672 2674
2673 2 2672 2675
2674 2 2675 2676
2675 1 2676 2677
2676 1 2676 2678
2677 2 2676 2679
2678 3 70 2680
2679 4 2680 2660
2680 5 2679 100
2681 1 2681 2682
2682 1 2681 2683
2683 2 2681 2684
2684 2 2684 2685
2685 1 2685 2686
2686 1 2685 2687
2687 2 2685 2688
2688 2 2688 2689
2689 1 2689 2690
2690 1 2689 2691
2691 2 2689 2692
2692 2 2692 2693
2693 1 2693 2694
2694 1 2693 2695
2695 2 2693 2696
2696 2 2696 2697
2697 1 2697 2698
2698 1 2697 2699
2699 2 2697 2700
2700 3 71 2701
2701 4 2701 2681
2702 5 2700 75
2703 1 2702 2703
2704 1 2702 2704
2705 2 2702 2705
2706 2 2705 2706
2707 1 2706 2707
2708 1 2706 2708
2709 2 2706 2709
2710 2 2709 2710
2711 1 2710 2711
2712 1 2710 2712
2713 2 2710 2713
2714 2 2713 2714
2715 1 2714 2715
2716 1 2714 2716
2717 2 2714 2717
2718 2 2717 2718
2719 1 2718 2719
2720 1 2718 2720
2721 2 2718 2721
2722 3 72 2722
2723 4 2722 2702
2724 5 2721 77
2725 1 2723 2724
2726 1 2723 2725
2727 2 2723 2726
2728 2 2726 2727
2729 1 2727 2728
2730 1 2727 2729
2731 2 2727 2730
2732 2 2730 2731
2733 1 2731 2732
2734 1 2731 2733
2735 2 2731 2734
2736 2 2734 2735
2737 1 2735 2736
2738 1 2735 2737
2739 2 2735 2738
2740 2 2738 2739
2741 1 2739 2740
2742 1 2739 2741
2743 2 2739 2742
2744 3 72 2743
2745 4 2743 2723
2746 5 2742 103
2747 1 2744 2745
2748 1 2744 2746
2749 2 2744 2747
2750 2 2747 2748
2751 1 2748 2749
2752 1 2748 2750
2753 2 2748 2751
2754 2 2751 2752
2755 1 2752 2753
2756 1 2752 2754
2757 2 2752 2755
2758 2 2755 2756
2759 1 2756 2757
2760 1 2756 2758
2761 2 2756 2759
2762 2 2759 2760
2763 1 2760 2761
2764 1 2760 2762
2765 2 2760 2763
2766 3 73 2764
2767 4 2764 2744
2768 5 2763 74
2769 1 2765 2766
2770 1 2765 2767
2771 2 2765 2768
2772 2 2768 2769
2773 1 2769 2770
2774 1 2769 2771
2775 2 2769 2772
2776 2 2772 2773
2777 1 2773 2774
2778 1 2773 2775
2779 2 2773 2776
2780 2 2776 2777
2781 1 2777 2778
2782 1 2777 2779
2783 2 2777 2780
2784 2 2780 2781
2785 1 2781 2782
2786 1 2781 2783
2787 2 2781 2784
2788 3 73 2785
2789 4 2785 2765
2790 5 2784 104
2791 1 2786 2787
2792 1 2786 2788
2793 2 2786 2789
2794 2 2789 2790
2795 1 2790 2791
2796 1 2790 2792
2797 2 2790 2793
2798 2 2793 2794
2799 1 2794 2795
2800 1 2794 2796
2801 2 2794 2797
2802 2 2797 2798
2803 1 2798 2799
2804 1 2798 2800
2805 2 2798 2801
2806 2 2801 2802
2807 1 2802 2803
2808 1 2802 2804
2809 2 2802 2805
2810 3 74 2806
2811 4 2806 2786
2812 5 2805 75
2813 1 2807 2808
2814 1 2807 2809
2815 2 2807 2810
2816 2 2810 2811
2817 1 2811 2812
2818 1 2811 2813
2819 2 2811 2814
2820 2 2814 2815
2821 1 2815 2816
2822 1 2815 2817
2823 2 2815 2818
2824 2 2818 2819
2825 1 2819 2820
2826 1 2819 2821
2827 2 2819 2822
2828 2 2822 2823
2829 1 2823 2824
2830 1 2823 2825
2831 2 2823 2826
2832 3 74 2827
2833 4 2827 2807
2834 5 2826 82
2835 1 2828 2829
2836 1 2828 2830
2837 2 2828 2831
2838 2 2831 2832
2839 1 2832 2833
2840 1 2832 2834
2841 2 2832 2835
2842 2 2835 2836
2843 1 2836 2837
2844 1 2836 2838
2845 2 2836 2839
2846 2 2839 2840
2847 1 2840 2841
2848 1 2840 2842
2849 2 2840 2843
2850 2 2843 2844
2851 1 2844 2845
2852 1 2844 2846
2853 2 2844 2847
2854 3 75 2848
2855 4 2848 2828
2856 5 2847 106
2857 1 2849 2850
2858 1 2849 2851
2859 2 2849 2852
2860 2 2852 2853
2861 1 2853 2854
2862 1 2853 2855
2863 2 2853 2856
2864 2 2856 2857
2865 1 2857 2858
2866 1 2857 2859
2867 2 2857 2860
2868 2 2860 2861
2869 1 2861 2862
2870 1 2861 2863
2871 2 2861 2864
2872 2 2864 2865
2873 1 2865 2866
2874 1 2865 2867
2875 2 2865 2868
2876 3 76 2869
2877 4 2869 2849
2878 5 2868 77
2879 1 2870 2871
2880 1 2870 2872
2881 2 2870 2873
2882 2 2873 2874
2883 1 2874 2875
2884 1 2874 2876
2885 2 2874 2877
2886 2 2877 2878
2887 1 2878 2879
2888 1 2878 2880
2889 2 2878 2881
2890 2 2881 2882
2891 1 2882 2883
2892 1 2882 2884
2893 2 2882 2885
2894 2 2885 2886
2895 1 2886 2887
2896 1 2886 2888
2897 2 2886 2889
2898 3 76 2890
2899 4 2890 2870
2900 5 2889 107
2901 1 2891 2892
2902 1 2891 2893
2903 2 2891 2894
2904 2 2894 2895
2905 1 2895 2896
2906 1 2895 2897
2907 2 2895 2898
2908 2 2898 2899
2909 1 2899 2900
2910 1 2899 2901
2911 2 2899 2902
2912 2 2902 2903
2913 1 2903 2904
2914 1 2903 2905
2915 2 2903 2906
2916 2 2906 2907
2917 1 2907 2908
2918 1 2907 2909
2919 2 2907 2910
2920 3 77 2911
2921 4 2911 2891
2922 2 2910 78
2923 1 2912 2913
2924 1 2912 2914
2925 2 2912 2915
2926 2 2915 2916
2927 1 2916 2917
2928 1 2916 2918
2929 2 2916 2919
2930 2 2919 2920
2931 1 2920 2921
2932 1 2920 2922
2933 2 2920 2923
2934 2 2923 2924
2935 1 2924 2925
2936 1 2924 2926
2937 2 2924 2927
2938 2 2927 2928
2939 1 2928 2929
2940 1 2928 2930
2941 2 2928 2931
2942 3 82 2932
2943 4 2932 2912
2944 5 2931 83
2945 1 2933 2934
2946 1 2933 2935
2947 2 2933 2936
2948 2 2936 2937
2949 1 2937 2938
2950 1 2937 2939
2951 2 2937 2940
2952 2 2940 2941
2953 1 2941 2942
2954 1 2941 2943
2955 2 2941 2944
2956 2 2944 2945
2957 1 2945 2946
2958 1 2945 2947
2959 2 2945 2948
2960 2 2948 2949
2961 1 2949 2950
2962 1 2949 2951
2963 2 2949 2952
2964 3 82 2953
2965 4 2953 2933
2966 5 2952 110
2967 1 2954 2955
2968 1 2954 2956
2969 2 2954 2957
2970 2 2957 2958
2971 1 2958 2959
2972 1 2958 2960
2973 2 2958 2961
2974 2 2961 2962
2975 1 2962 2963
2976 1 2962 2964
2977 2 2962 2965
2978 2 2965 2966
2979 1 2966 2967
2980 1 2966 2968
2981 2 2966 2969
2982 2 2969 2970
2983 1 2970 2971
2984 1 2970 2972
2985 2 2970 2973
2986 3 83 2974
2987 4 2974 2954
2988 5 2973 111
2989 1 2975 2976
2990 1 2975 2977
2991 2 2975 2978
2992 2 2978 2979
2993 1 2979 2980
2994 1 2979 2981
2995 2 2979 2982
2996 2 2982 2983
2997 1 2983 2984
2998 1 2983 2985
2999 2 2983 2986
3000 2 2986 2987
3001 1 2987 2988
3002 1 2987 2989
3003 2 2987 2990
3004 2 2990 2991
3005 1 2991 2992
3006 1 2991 2993
3007 2 2991 2994
3008 4 84 2995
3009 4 2995 2975
3010 5 2994 88
3011 1 2996 2997
3012 1 2996 2998
3013 2 2996 2999
3014 2 2999 3000
3015 1 3000 3001
3016 1 3000 3002
3017 2 3000 3003
3018 2 3003 3004
3019 1 3004 3005
3020 1 3004 3006
3021 2 3004 3007
3022 2 3007 3008
3023 1 3008 3009
3024 1 3008 3010
3025 2 3008 3011
3026 2 3011 3012
3027 1 3012 3013
3028 1 3012 3014
3029 2 3012 3015
3030 3 88 3016
3031 4 3016 2996
3032 5 3015 113
3033 1 3017 3018
3034 1 3017 3019
3035 2 3017 3020
3036 2 3020 3021
3037 1 3021 3022
3038 1 3021 3023
3039 2 3021 3024
3040 2 3024 3025
3041 1 3025 3026
3042 1 3025 3027
3043 2 3025 3028
3044 2 3028 3029
3045 1 3029 3030
3046 1 3029 3031
3047 2 3029 3032
3048 2 3032 3033
3049 1 3033 3034
3050 1 3033 3035
3051 2 3033 3036
3052 3 88 3037
3053 4 3037 3017
3054 5 3036 108
3055 1 3038 3039
3056 1 3038 3040
3057 2 3038 3041
3058 2 3041 3042
3059 1 3042 3043
3060 1 3042 3044
3061 2 3042 3045
3062 2 3045 3046
3063 1 3046 3047
3064 1 3046 3048
3065 2 3046 3049
3066 2 3049 3050
3067 1 3050 3051
3068 1 3050 3052
3069 2 3050 3053
3070 2 3053 3054
3071 1 3054 3055
3072 1 3054 3056
3073 2 3054 3057
3074 3 89 3058
3075 4 3058 3038
3076 5 3057 90
3077 1 3059 3060
3078 1 3059 3061
3079 2 3059 3062
3080 2 3062 3063
3081 1 3063 3064
3082 1 3063 3065
3083 2 3063 3066
3084 2 3066 3067
3085 1 3067 3068
3086 1 3067 3069
3087 2 3067 3070
3088 2 3070 3071
3089 1 3071 3072
3090 1 3071 3073
3091 2 3071 3074
3092 2 3074 3075
3093 1 3075 3076
3094 1 3075 3077
3095 2 3075 3078
3096 3 89 3079
3097 4 3079 3059
3098 5 3078 114
3099 1 3080 3081
3100 1 3080 3082
3101 2 3080 3083
3102 2 3083 3084
3103 1 3084 3085
3104 1 3084 3086
3105 2 3084 3087
3106 2 3087 3088
3107 1 3088 3089
3108 1 3088 3090
3109 2 3088 3091
3110 2 3091 3092
3111 1 3092 3093
3112 1 3092 3094
3113 2 3092 3095
3114 2 3095 3096
3115 1 3096 3097
3116 1 3096 3098
3117 2 3096 3099
3118 3 89 3100
3119 4 3100 3080
3120 5 3099 109
3121 1 3101 3102
3122 1 3101 3103
3123 2 3101 3104
3124 2 3104 3105
3125 1 3105 3106
3126 1 3105 3107
3127 2 3105 3108
3128 2 3108 3109
3129 1 3109 3110
3130 1 3109 3111
3131 2 3109 3112
3132 2 3112 3113
3133 1 3113 3114
3134 1 3113 3115
3135 2 3113 3116
3136 2 3116 3117
3137 1 3117 3118
3138 1 3117 3119
3139 2 3117 3120
3140 3 90 3121
3141 4 3121 3101
3142 5 3120 95
3143 1 3122 3123
3144 1 3122 3124
3145 2 3122 3125
3146 2 3125 3126
3147 1 3126 3127
3148 1 3126 3128
3149 2 3126 3129
3150 2 3129 3130
3151 1 3130 3131
3152 1 3130 3132
3153 2 3130 3133
3154 2 3133 3134
3155 1 3134 3135
3156 1 3134 3136
3157 2 3134 3137
3158 2 3137 3138
3159 1 3138 3139
3160 1 3138 3140
3161 2 3138 3141
3162 3 90 3142
3163 4 3142 3122
3164 5 3141 115
3165 1 3143 3144
3166 1 3143 3145
3167 2 3143 3146
3168 2 3146 3147
3169 1 3147 3148
3170 1 3147 3149
3171 2 3147 3150
3172 2 3150 3151
3173 1 3151 3152
3174 1 3151 3153
3175 2 3151 3154
3176 2 3154 3155
3177 1 3155 3156
3178 1 3155 3157
3179 2 3155 3158
3180 2 3158 3159
3181 1 3159 3160
3182 1 3159 3161
3183 2 3159 3162
3184 3 91 3163
3185 4 3163 3143
3186 5 3162 116
3187 1 3164 3165
3188 1 3164 3166
3189 2 3164 3167
3190 2 3167 3168
3191 1 3168 3169
3192 1 3168 3170
3193 2 3168 3171
3194 2 3171 3172
3195 1 3172 3173
3196 1 3172 3174
3197 2 3172 3175
3198 2 3175 3176
3199 1 3176 3177
3200 1 3176 3178
3201 2 3176 3179
3202 2 3179 3180
3203 1 3180 3181
3204 1 3180 3182
3205 2 3180 3183
3206 3 91 3184
3207 4 3184 3164
3208 5 3183 111
3209 1 3185 3186
3210 1 3185 3187
3211 2 3185 3188
3212 2 3188 3189
3213 1 3189 3190
3214 1 3189 3191
3215 2 3189 3192
3216 2 3192 3193
3217 1 3193 3194
3218 1 3193 3195
3219 2 3193 3196
3220 2 3196 3197
3221 1 3197 3198
3222 1 3197 3199
3223 2 3197 3200
3224 2 3200 3201
3225 1 3201 3202
3226 1 3201 3203
3227 2 3201 3204
3228 3 92 3205
3229 4 3205 3185
3230 5 3204 93
3231 1 3206 3207
3232 1 3206 3208
3233 2 3206 3209
3234 2 3209 3210
3235 1 3210 3211
3236 1 3210 3212
3237 2 3210 3213
3238 2 3213 3214
3239 1 3214 3215
3240 1 3214 3216
3241 2 3214 3217
3242 2 3217 3218
3243 1 3218 3219
3244 1 3218 3220
3245 2 3218 3221
3246 2 3221 3222
3247 1 3222 3223
3248 1 3222 3224
3249 2 3222 3225
3250 3 92 3226
3251 4 3226 3206
3252 5 3225 117
3253 1 3227 3228
3254 1 3227 3229
3255 2 3227 3230
3256 2 3230 3231
3257 1 3231 3232
3258 1 3231 3233
3259 2 3231 3234
3260 2 3234 3235
3261 1 3235 3236
3262 1 3235 3237
3263 2 3235 3238
3264 2 3238 3239
3265 1 3239 3240
3266 1 3239 3241
3267 2 3239 3242
3268 2 3242 3243
3269 1 3243 3244
3270 1 3243 3245
3271 2 3243 3246
3272 3 93 3247
3273 4 3247 3227
3274 5 3246 94
3275 1 3248 3249
3276 1 3248 3250
3277 2 3248 3251
3278 2 3251 3252
3279 1 3252 3253
3280 1 3252 3254
3281 2 3252 3255
3282 2 3255 3256
3283 1 3256 3257
3284 1 3256 3258
3285 2 3256 3259
3286 2 3259 3260
3287 1 3260 3261
3288 1 3260 3262
3289 2 3260 3263
3290 2 3263 3264
3291 1 3264 3265
3292 1 3264 3266
3293 2 3264 3267
3294 3 93 3268
3295 4 3268 3248
3296 5 3267 118
3297 1 3269 3270
3298 1 3269 3271
3299 2 3269 3272
3300 2 3272 3273
3301 1 3273 3274
3302 1 3273 3275
3303 2 3273 3276
3304 2 3276 3277
3305 1 3277 3278
3306 1 3277 3279
3307 2 3277 3280
3308 2 3280 3281
3309 1 3281 3282
3310 1 3281 3283
3311 2 3281 3284
3312 2 3284 3285
3313 1 3285 3286
3314 1 3285 3287
3315 2 3285 3288
3316 3 94 3289
3317 4 3289 3269
3318 5 3288 95
3319 1 3290 3291
3320 1 3290 3292
3321 2 3290 3293
3322 2 3293 3294
3323 1 3294 3295
3324 1 3294 3296
3325 2 3294 3297
3326 2 3297 3298
3327 1 3298 3299
3328 1 3298 3300
3329 2 3298 3301
3330 2 3301 3302
3331 1 3302 3303
3332 1 3302 3304
3333 2 3302 3305
3334 2 3305 3306
3335 1 3306 3307
3336 1 3306 3308
3337 2 3306 3309
3338 3 94 3310
3339 4 3310 3290
3340 5 3309 99
3341 1 3311 3312
3342 1 3311 3313
3343 2 3311 3314
3344 2 3314 3315
3345 1 3315 3316
3346 1 3315 3317
3347 2 3315 3318
3348 2 3318 3319
3349 1 3319 3320
3350 1 3319 3321
3351 2 3319 3322
3352 2 3322 3323
3353 1 3323 3324
3354 1 3323 3325
3355 2 3323 3326
3356 2 3326 3327
3357 1 3327 3328
3358 1 3327 3329
3359 2 3327 3330
3360 3 94 3331
3361 4 3331 3311
3362 5 3330 119
3363 1 3332 3333
3364 1 3332 3334
3365 2 3332 3335
3366 2 3335 3336
3367 1 3336 3337
3368 1 3336 3338
3369 2 3336 3339
3370 2 3339 3340
3371 1 3340 3341
3372 1 3340 3342
3373 2 3340 3343
3374 2 3343 3344
3375 1 3344 3345
3376 1 3344 3346
3377 2 3344 3347
3378 2 3347 3348
3379 1 3348 3349
3380 1 3348 3350
3381 2 3348 3351
3382 3 95 3352
3383 4 3352 3332
3384 5 3351 100
3385 1 3353 3354
3386 1 3353 3355
3387 2 3353 3356
3388 2 3356 3357
3389 1 3357 3358
3390 1 3357 3359
3391 2 3357 3360
3392 2 3360 3361
3393 1 3361 3362
3394 1 3361 3363
3395 2 3361 3364
3396 2 3364 3365
3397 1 3365 3366
3398 1 3365 3367
3399 2 3365 3368
3400 2 3368 3369
3401 1 3369 3370
3402 1 3369 3371
3403 2 3369 3372
3404 3 96 3373
3405 4 3373 3353
3406 5 3372 101
3407 1 3374 3375
3408 1 3374 3376
3409 2 3374 3377
3410 2 3377 3378
3411 1 3378 3379
3412 1 3378 3380
3413 2 3378 3381
3414 2 3381 3382
3415 1 3382 3383
3416 1 3382 3384
3417 2 3382 3385
3418 2 3385 3386
3419 1 3386 3387
3420 1 3386 3388
3421 2 3386 3389
3422 2 3389 3390
3423 1 3390 3391
3424 1 3390 3392
3425 2 3390 3393
3426 3 96 3394
3427 4 3394 3374
3428 5 3393 121
3429 1 3395 3396
3430 1 3395 3397
3431 2 3395 3398
3432 2 3398 3399
3433 1 3399 3400
3434 1 3399 3401
3435 2 3399 3402
3436 2 3402 3403
3437 1 3403 3404
3438 1 3403 3405
3439 2 3403 3406
3440 2 3406 3407
3441 1 3407 3408
3442 1 3407 3409
3443 2 3407 3410
3444 2 3410 3411
3445 1 3411 3412
3446 1 3411 3413
3447 2 3411 3414
3448 3 97 3415
3449 4 3415 3395
3450 5 3414 102
3451 1 3416 3417
3452 1 3416 3418
3453 2 3416 3419
3454 2 3419 3420
3455 1 3420 3421
3456 1 3420 3422
3457 2 3420 3423
3458 2 3423 3424
3459 1 3424 3425
3460 1 3424 3426
3461 2 3424 3427
3462 2 3427 3428
3463 1 3428 3429
3464 1 3428 3430
3465 2 3428 3431
3466 2 3431 3432
3467 1 3432 3433
3468 1 3432 3434
3469 2 3432 3435
3470 3 97 3436
3471 4 3436 3416
3472 5 3435 122
3473 1 3437 3438
3474 1 3437 3439
3475 2 3437 3440
3476 2 3440 3441
3477 1 3441 3442
3478 1 3441 3443
3479 2 3441 3444
3480 2 3444 3445
3481 1 3445 3446
3482 1 3445 3447
3483 2 3445 3448
3484 2 3448 3449
3485 1 3449 3450
3486 1 3449 3451
3487 2 3449 3452
3488 2 3452 3453
3489 1 3453 3454
3490 1 3453 3455
3491 2 3453 3456
3492 3 97 3457
3493 4 3457 3437
3494 5 3456 101
3495 1 3458 3459
3496 1 3458 3460
3497 2 3458 3461
3498 2 3461 3462
3499 1 3462 3463
3500 1 3462 3464
3501 2 3462 3465
3502 2 3465 3466
3503 1 3466 3467
3504 1 3466 3468
3505 2 3466 3469
3506 2 3469 3470
3507 1 3470 3471
3508 1 3470 3472
3509 2 3470 3473
3510 2 3473 3474
3511 1 3474 3475
3512 1 3474 3476
3513 2 3474 3477
3514 3 98 3478
3515 4 3478 3458
3516 5 3477 99
3517 1 3479 3480
3518 1 3479 3481
3519 2 3479 3482
3520 2 3482 3483
3521 1 3483 3484
3522 1 3483 3485
3523 2 3483 3486
3524 2 3486 3487
3525 1 3487 3488
3526 1 3487 3489
3527 2 3487 3490
3528 2 3490 3491
3529 1 3491 3492
3530 1 3491 3493
3531 2 3491 3494
3532 2 3494 3495
3533 1 3495 3496
3534 1 3495 3497
3535 2 3495 3498
3536 3 98 3499
3537 4 3499 3479
3538 5 3498 123
3539 1 3500 3501
3540 1 3500 3502
3541 2 3500 3503
3542 2 3503 3504
3543 1 3504 3505
3544 1 3504 3506
3545 2 3504 3507
3546 2 3507 3508
3547 1 3508 3509
3548 1 3508 3510
3549 2 3508 3511
3550 2 3511 3512
3551 1 3512 3513
3552 1 3512 3514
3553 2 3512 3515
3554 2 3515 3516
3555 1 3516 3517
3556 1 3516 3518
3557 2 3516 3519
3558 3 99 3520
3559 4 3520 3500
3560 5 3519 104
3561 1 3521 3522
3562 1 3521 3523
3563 2 3521 3524
3564 2 3524 3525
3565 1 3525 3526
3566 1 3525 3527
3567 2 3525 3528
3568 2 3528 3529
3569 1 3529 3530
3570 1 3529 3531
3571 2 3529 3532
3572 2 3532 3533
3573 1 3533 3534
3574 1 3533 3535
3575 2 3533 3536
3576 2 3536 3537
3577 1 3537 3538
3578 1 3537 3539
3579 2 3537 3540
3580 3 100 3541
3581 4 3541 3521
3582 5 3540 101
3583 1 3542 3543
3584 1 3542 3544
3585 2 3542 3545
3586 2 3545 3546
3587 1 3546 3547
3588 1 3546 3548
3589 2 3546 3549
3590 2 3549 3550
3591 1 3550 3551
3592 1 3550 3552
3593 2 3550 3553
3594 2 3553 3554
3595 1 3554 3555
3596 1 3554 3556
3597 2 3554 3557
3598 2 3557 3558
3599 1 3558 3559
3600 1 3558 3560
3601 2 3558 3561
3602 3 100 3562
3603 4 3562 3542
3604 5 3561 105
3605 1 3563 3564
3606 1 3563 3565
3607 2 3563 3566
3608 2 3566 3567
3609 1 3567 3568
3610 1 3567 3569
3611 2 3567 3570
3612 2 3570 3571
3613 1 3571 3572
3614 1 3571 3573
3615 2 3571 3574
3616 2 3574 3575
3617 1 3575 3576
3618 1 3575 3577
3619 2 3575 3578
3620 2 3578 3579
3621 1 3579 3580
3622 1 3579 3581
3623 2 3579 3582
3624 3 101 3583
3625 4 3583 3563
3626 5 3582 126
3627 1 3584 3585
3628 1 3584 3586
3629 2 3584 3587
3630 2 3587 3588
3631 1 3588 3589
3632 1 3588 3590
3633 2 3588 3591
3634 2 3591 3592
3635 1 3592 3593
3636 1 3592 3594
3637 2 3592 3595
3638 2 3595 3596
3639 1 3596 3597
3640 1 3596 3598
3641 2 3596 3599
3642 2 3599 3600
3643 1 3600 3601
3644 1 3600 3602
3645 2 3600 3603
3646 3 102 3604
3647 4 3604 3584
3648 5 3603 103
3649 1 3605 3606
3650 1 3605 3607
3651 2 3605 3608
3652 2 3608 3609
3653 1 3609 3610
3654 1 3609 3611
3655 2 3609 3612
3656 2 3612 3613
3657 1 3613 3614
3658 1 3613 3615
3659 2 3613 3616
3660 2 3616 3617
3661 1 3617 3618
3662 1 3617 3619
3663 2 3617 3620
3664 2 3620 3621
3665 1 3621 3622
3666 1 3621 3623
3667 2 3621 3624
3668 3 102 3625
3669 4 3625 3605
3670 5 3624 106
3671 1 3626 3627
3672 1 3626 3628
3673 2 3626 3629
3674 2 3629 3630
3675 1 3630 3631
3676 1 3630 3632
3677 2 3630 3633
3678 2 3633 3634
3679 1 3634 3635
3680 1 3634 3636
3681 2 3634 3637
3682 2 3637 3638
3683 1 3638 3639
3684 1 3638 3640
3685 2 3638 3641
3686 2 3641 3642
3687 1 3642 3643
3688 1 3642 3644
3689 2 3642 3645
3690 3 103 3646
3691 4 3646 3626
3692 5 3645 108
3693 1 3647 3648
3694 1 3647 3649
3695 2 3647 3650
3696 2 3650 3651
3697 1 3651 3652
3698 1 3651 3653
3699 2 3651 3654
3700 2 3654 3655
3701 1 3655 3656
3702 1 3655 3657
3703 2 3655 3658
3704 2 3658 3659
3705 1 3659 3660
3706 1 3659 3661
3707 2 3659 3662
3708 2 3662 3663
3709 1 3663 3664
3710 1 3663 3665
3711 2 3663 3666
3712 3 103 3667
3713 4 3667 3647
3714 5 3666 131
3715 1 3668 3669
3716 1 3668 3670
3717 2 3668 3671
3718 2 3671 3672
3719 1 3672 3673
3720 1 3672 3674
3721 2 3672 3675
3722 2 3675 3676
3723 1 3676 3677
3724 1 3676 3678
3725 2 3676 3679
3726 2 3679 3680
3727 1 3680 3681
3728 1 3680 3682
3729 2 3680 3683
3730 2 3683 3684
3731 1 3684 3685
3732 1 3684 3686
3733 2 3684 3687
3734 3 104 3688
3735 4 3688 3668
3736 5 3687 132
3737 1 3689 3690
3738 1 3689 3691
3739 2 3689 3692
3740 2 3692 3693
3741 1 3693 3694
3742 1 3693 3695
3743 2 3693 3696
3744 2 3696 3697
3745 1 3697 3698
3746 1 3697 3699
3747 2 3697 3700
3748 2 3700 3701
3749 1 3701 3702
3750 1 3701 3703
3751 2 3701 3704
3752 2 3704 3705
3753 1 3705 3706
3754 1 3705 3707
3755 2 3705 3708
3756 3 105 3709
3757 4 3709 3689
3758 5 3708 106
3759 1 3710 3711
3760 1 3710 3712
3761 2 3710 3713
3762 2 3713 3714
3763 1 3714 3715
3764 1 3714 3716
3765 2 3714 3717
3766 2 3717 3718
3767 1 3718 3719
3768 1 3718 3720
3769 2 3718 3721
3770 2 3721 3722
3771 1 3722 3723
3772 1 3722 3724
3773 2 3722 3725
3774 2 3725 3726
3775 1 3726 3727
3776 1 3726 3728
3777 2 3726 3729
3778 3 105 3730
3779 4 3730 3710
3780 5 3729 110
3781 1 3731 3732
3782 1 3731 3733
3783 2 3731 3734
3784 2 3734 3735
3785 1 3735 3736
3786 1 3735 3737
3787 2 3735 3738
3788 2 3738 3739
3789 1 3739 3740
3790 1 3739 3741
3791 2 3739 3742
3792 2 3742 3743
3793 1 3743 3744
3794 1 3743 3745
3795 2 3743 3746
3796 2 3746 3747
3797 1 3747 3748
3798 1 3747 3749
3799 2 3747 3750
3800 3 105 3751
3801 4 3751 3731
3802 5 3750 133
3803 1 3752 3753
3804 1 3752 3754
3805 2 3752 3755
3806 2 3755 3756
3807 1 3756 3757
3808 1 3756 3758
3809 2 3756 3759
3810 2 3759 3760
3811 1 3760 3761
3812 1 3760 3762
3813 2 3760 3763
3814 2 3763 3764
3815 1 3764 3765
3816 1 3764 3766
3817 2 3764 3767
3818 2 3767 3768
3819 1 3768 3769
3820 1 3768 3770
3821 2 3768 3771
3822 3 106 3772
3823 4 3772 3752
3824 5 3771 134
3825 1 3773 3774
3826 1 3773 3775
3827 2 3773 3776
3828 2 3776 3777
3829 1 3777 3778
3830 1 3777 3779
3831 2 3777 3780
3832 2 3780 3781
3833 1 3781 3782
3834 1 3781 3783
3835 2 3781 3784
3836 2 3784 3785
3837 1 3785 3786
3838 1 3785 3787
3839 2 3785 3788
3840 2 3788 3789
3841 1 3789 3790
3842 1 3789 3791
3843 2 3789 3792
3844 3 107 3793
3845 4 3793 3773
3846 5 3792 108
3847 1 3794 3795
3848 1 3794 3796
3849 2 3794 3797
3850 2 3797 3798
3851 1 3798 3799
3852 1 3798 3800
3853 2 3798 3801
3854 2 3801 3802
3855 1 3802 3803
3856 1 3802 3804
3857 2 3802 3805
3858 2 3805 3806
3859 1 3806 3807
3860 1 3806 3808
3861 2 3806 3809
3862 2 3809 3810
3863 1 3810 3811
3864 1 3810 3812
3865 2 3810 3813
3866 3 107 3814
3867 4 3814 3794
3868 5 3813 135
3869 1 3815 3816
3870 1 3815 3817
3871 2 3815 3818
3872 2 3818 3819
3873 1 3819 3820
3874 1 3819 3821
3875 2 3819 3822
3876 2 3822 3823
3877 1 3823 3824
3878 1 3823 3825
3879 2 3823 3826
3880 2 3826 3827
3881 1 3827 3828
3882 1 3827 3829
3883 2 3827 3830
3884 2 3830 3831
3885 1 3831 3832
3886 1 3831 3833
3887 2 3831 3834
3888 3 107 3835
3889 4 3835 3815
3890 5 3834 111
3891 1 3836 3837
3892 1 3836 3838
3893 2 3836 3839
3894 2 3839 3840
3895 1 3840 3841
3896 1 3840 3842
3897 2 3840 3843
3898 2 3843 3844
3899 1 3844 3845
3900 1 3844 3846
3901 2 3844 3847
3902 2 3847 3848
3903 1 3848 3849
3904 1 3848 3850
3905 2 3848 3851
3906 2 3851 3852
3907 1 3852 3853
3908 1 3852 3854
3909 2 3852 3855
3910 3 108 3856
3911 4 3856 3836
3912 5 3855 136
3913 1 3857 3858
3914 1 3857 3859
3915 2 3857 3860
3916 2 3860 3861
3917 1 3861 3862
3918 1 3861 3863
3919 2 3861 3864
3920 2 3864 3865
3921 1 3865 3866
3922 1 3865 3867
3923 2 3865 3868
3924 2 3868 3869
3925 1 3869 3870
3926 1 3869 3871
3927 2 3869 3872
3928 2 3872 3873
3929 1 3873 3874
3930 1 3873 3875
3931 2 3873 3876
3932 3 109 3877
3933 4 3877 3857
3934 5 3876 110
3935 1 3878 3879
3936 1 3878 3880
3937 2 3878 3881
3938 2 3881 3882
3939 1 3882 3883
3940 1 3882 3884
3941 2 3882 3885
3942 2 3885 3886
3943 1 3886 3887
3944 1 3886 3888
3945 2 3886 3889
3946 2 3889 3890
3947 1 3890 3891
3948 1 3890 3892
3949 2 3890 3893
3950 2 3893 3894
3951 1 3894 3895
3952 1 3894 3896
3953 2 3894 3897
3954 3 109 3898
3955 4 3898 3878
3956 5 3897 137
3957 1 3899 3900
3958 1 3899 3901
3959 2 3899 3902
3960 2 3902 3903
3961 1 3903 3904
3962 1 3903 3905
3963 2 3903 3906
3964 2 3906 3907
3965 1 3907 3908
3966 1 3907 3909
3967 2 3907 3910
3968 2 3910 3911
3969 1 3911 3912
3970 1 3911 3913
3971 2 3911 3914
3972 2 3914 3915
3973 1 3915 3916
3974 1 3915 3917
3975 2 3915 3918
3976 3 110 3919
3977 4 3919 3899
3978 5 3918 138
3979 1 3920 3921
3980 1 3920 3922
3981 2 3920 3923
3982 2 3923 3924
3983 1 3924 3925
3984 1 3924 3926
3985 2 3924 3927
3986 2 3927 3928
3987 1 3928 3929
3988 1 3928 3930
3989 2 3928 3931
3990 2 3931 3932
3991 1 3932 3933
3992 1 3932 3934
3993 2 3932 3935
3994 2 3935 3936
3995 1 3936 3937
3996 1 3936 3938
3997 2 3936 3939
3998 3 112 3940
3999 4 3940 3920
4000 5 3939 113
4001 1 3941 3942
4002 1 3941 3943
4003 2 3941 3944
4004 2 3944 3945
4005 1 3945 3946
4006 1 3945 3947
4007 2 3945 3948
4008 2 3948 3949
4009 1 3949 3950
4010 1 3949 3951
4011 2 3949 3952
4012 2 3952 3953
4013 1 3953 3954
4014 1 3953 3955
4015 2 3953 3956
4016 2 3956 3957
4017 1 3957 3958
4018 1 3957 3959
4019 2 3957 3960
4020 3 112 3961
4021 4 3961 3941
4022 5 3960 116
4023 1 3962 3963
4024 1 3962 3964
4025 2 3962 3965
4026 2 3965 3966
4027 1 3966 3967
4028 1 3966 3968
4029 2 3966 3969
4030 2 3969 3970
4031 1 3970 3971
4032 1 3970 3972
4033 2 3970 3973
4034 2 3973 3974
4035 1 3974 3975
4036 1 3974 3976
4037 2 3974 3977
4038 2 3977 3978
4039 1 3978 3979
4040 1 3978 3980
4041 2 3978 3981
4042 3 112 3982
4043 4 3982 3962
4044 5 3981 135
4045 1 3983 3984
4046 1 3983 3985
4047 2 3983 3986
4048 2 3986 3987
4049 1 3987 3988
4050 1 3987 3989
4051 2 3987 3990
4052 2 3990 3991
4053 1 3991 3992
4054 1 3991 3993
4055 2 3991 3994
4056 2 3994 3995
4057 1 3995 3996
4058 1 3995 3997
4059 2 3995 3998
4060 2 3998 3999
4061 1 3999 4000
4062 1 3999 4001
4063 2 3999 4002
4064 3 113 4003
4065 4 4003 3983
4066 5 4002 118
4067 1 4004 4005
4068 1 4004 4006
4069 2 4004 4007
4070 2 4007 4008
4071 1 4008 4009
4072 1 4008 4010
4073 2 4008 4011
4074 2 4011 4012
4075 1 4012 4013
4076 1 4012 4014
4077 2 4012 4015
4078 2 4015 4016
4079 1 4016 4017
4080 1 4016 4018
4081 2 4016 4019
4082 2 4019 4020
4083 1 4020 4021
4084 1 4020 4022
4085 2 4020 4023
4086 3 113 4024
4087 4 4024 4004
4088 5 4023 136
4089 1 4025 4026
4090 1 4025 4027
4091 2 4025 4028
4092 2 4028 4029
4093 1 4029 4030
4094 1 4029 4031
4095 2 4029 4032
4096 2 4032 4033
4097 1 4033 4034
4098 1 4033 4035
4099 2 4033 4036
4100 2 4036 4037
4101 1 4037 4038
4102 1 4037 4039
4103 2 4037 4040
4104 2 4040 4041
4105 1 4041 4042
4106 1 4041 4043
4107 2 4041 4044
4108 3 114 4045
4109 4 4045 4025
4110 5 4044 115
4111 1 4046 4047
4112 1 4046 4048
4113 2 4046 4049
4114 2 4049 4050
4115 1 4050 4051
4116 1 4050 4052
4117 2 4050 4053
4118 2 4053 4054
4119 1 4054 4055
4120 1 4054 4056
4121 2 4054 4057
4122 2 4057 4058
4123 1 4058 4059
4124 1 4058 4060
4125 2 4058 4061
4126 2 4061 4062
4127 1 4062 4063
4128 1 4062 4064
4129 2 4062 4065
4130 3 114 4066
4131 4 4066 4046
4132 5 4065 119
4133 1 4067 4068
4134 1 4067 4069
4135 2 4067 4070
4136 2 4070 4071
4137 1 4071 4072
4138 1 4071 4073
4139 2 4071 4074
4140 2 4074 4075
4141 1 4075 4076
4142 1 4075 4077
4143 2 4075 4078
4144 2 4078 4079
4145 1 4079 4080
4146 1 4079 4081
4147 2 4079 4082
4148 2 4082 4083
4149 1 4083 4084
4150 1 4083 4085
4151 2 4083 4086
4152 3 115 4087
4153 4 4087 4067
4154 5 4086 116
4155 1 4088 4089
4156 1 4088 4090
4157 2 4088 4091
4158 2 4091 4092
4159 1 4092 4093
4160 1 4092 4094
4161 2 4092 4095
4162 2 4095 4096
4163 1 4096 4097
4164 1 4096 4098
4165 2 4096 4099
4166 2 4099 4100
4167 1 4100 4101
4168 1 4100 4102
4169 2 4100 4103
4170 2 4103 4104
4171 1 4104 4105
4172 1 4104 4106
4173 2 4104 4107
4174 3 115 4108
4175 4 4108 4088
4176 5 4107 120
4177 1 4109 4110
4178 1 4109 4111
4179 2 4109 4112
4180 2 4112 4113
4181 1 4113 4114
4182 1 4113 4115
4183 2 4113 4116
4184 2 4116 4117
4185 1 4117 4118
4186 1 4117 4119
4187 2 4117 4120
4188 2 4120 4121
4189 1 4121 4122
4190 1 4121 4123
4191 2 4121 4124
4192 2 4124 4125
4193 1 4125 4126
4194 1 4125 4127
4195 2 4125 4128
4196 3 116 4129
4197 4 4129 4109
4198 5 4128 139
4199 1 4130 4131
4200 1 4130 4132
4201 2 4130 4133
4202 2 4133 4134
4203 1 4134 4135
4204 1 4134 4136
4205 2 4134 4137
4206 2 4137 4138
4207 1 4138 4139
4208 1 4138 4140
4209 2 4138 4141
4210 2 4141 4142
4211 1 4142 4143
4212 1 4142 4144
4213 2 4142 4145
4214 2 4145 4146
4215 1 4146 4147
4216 1 4146 4148
4217 2 4146 4149
4218 3 117 4150
4219 4 4150 4130
4220 5 4149 122
4221 1 4151 4152
4222 1 4151 4153
4223 2 4151 4154
4224 2 4154 4155
4225 1 4155 4156
4226 1 4155 4157
4227 2 4155 4158
4228 2 4158 4159
4229 1 4159 4160
4230 1 4159 4161
4231 2 4159 4162
4232 2 4162 4163
4233 1 4163 4164
4234 1 4163 4165
4235 2 4163 4166
4236 2 4166 4167
4237 1 4167 4168
4238 1 4167 4169
4239 2 4167 4170
4240 3 117 4171
4241 4 4171 4151
4242 5 4170 121
4243 1 4172 4173
4244 1 4172 4174
4245 2 4172 4175
4246 2 4175 4176
4247 1 4176 4177
4248 1 4176 4178
4249 2 4176 4179
4250 2 4179 4180
4251 1 4180 4181
4252 1 4180 4182
4253 2 4180 4183
4254 2 4183 4184
4255 1 4184 4185
4256 1 4184 4186
4257 2 4184 4187
4258 2 4187 4188
4259 1 4188 4189
4260 1 4188 4190
4261 2 4188 4191
4262 3 118 4192
4263 4 4192 4172
4264 5 4191 123
4265 1 4193 4194
4266 1 4193 4195
4267 2 4193 4196
4268 2 4196 4197
4269 1 4197 4198
4270 1 4197 4199
4271 2 4197 4200
4272 2 4200 4201
4273 1 4201 4202
4274 1 4201 4203
4275 2 4201 4204
4276 2 4204 4205
4277 1 4205 4206
4278 1 4205 4207
4279 2 4205 4208
4280 2 4208 4209
4281 1 4209 4210
4282 1 4209 4211
4283 2 4209 4212
4284 3 119 4213
4285 4 4213 4193
4286 5 4212 124
4287 1 4214 4215
4288 1 4214 4216
4289 2 4214 4217
4290 2 4217 4218
4291 1 4218 4219
4292 1 4218 4220
4293 2 4218 4221
4294 2 4221 4222
4295 1 4222 4223
4296 1 4222 4224
4297 2 4222 4225
4298 2 4225 4226
4299 1 4226 4227
4300 1 4226 4228
4301 2 4226 4229
4302 2 4229 4230
4303 1 4230 4231
4304 1 4230 4232
4305 2 4230 4233
4306 3 120 4234
4307 4 4234 4214
4308 5 4233 125
4309 1 4235 4236
4310 1 4235 4237
4311 2 4235 4238
4312 2 4238 4239
4313 1 4239 4240
4314 1 4239 4241
4315 2 4239 4242
4316 2 4242 4243
4317 1 4243 4244
4318 1 4243 4245
4319 2 4243 4246
4320 2 4246 4247
4321 1 4247 4248
4322 1 4247 4249
4323 2 4247 4250
4324 2 4250 4251
4325 1 4251 4252
4326 1 4251 4253
4327 2 4251 4254
4328 3 121 4255
4329 4 4255 4235
4330 5 4254 126
4331 1 4256 4257
4332 1 4256 4258
4333 2 4256 4259
4334 2 4259 4260
4335 1 4260 4261
4336 1 4260 4262
4337 2 4260 4263
4338 2 4263 4264
4339 1 4264 4265
4340 1 4264 4266
4341 2 4264 4267
4342 2 4267 4268
4343 1 4268 4269
4344 1 4268 4270
4345 2 4268 4271
4346 2 4271 4272
4347 1 4272 4273
4348 1 4272 4274
4349 2 4272 4275
4350 3 122 4276
4351 4 4276 4256
4352 5 4275 123
4353 1 4277 4278
4354 1 4277 4279
4355 2 4277 4280
4356 2 4280 4281
4357 1 4281 4282
4358 1 4281 4283
4359 2 4281 4284
4360 2 4284 4285
4361 1 4285 4286
4362 1 4285 4287
4363 2 4285 4288
4364 2 4288 4289
4365 1 4289 4290
4366 1 4289 4291
4367 2 4289 4292
4368 2 4292 4293
4369 1 4293 4294
4370 1 4293 4295
4371 2 4293 4296
4372 3 122 4297
4373 4 4297 4277
4374 2 4296 127
4375 1 4298 4299
4376 1 4298 4300
4377 2 4298 4301
4378 2 4301 4302
4379 1 4302 4303
4380 1 4302 4304
4381 2 4302 4305
4382 2 4305 4306
4383 1 4306 4307
4384 1 4306 4308
4385 2 4306 4309
4386 2 4309 4310
4387 1 4310 4311
4388 1 4310 4312
4389 2 4310 4313
4390 2 4313 4314
4391 1 4314 4315
4392 1 4314 4316
4393 2 4314 4317
4394 3 123 4318
4395 4 4318 4298
4396 5 4317 124
4397 1 4319 4320
4398 1 4319 4321
4399 2 4319 4322
4400 2 4322 4323
4401 1 4323 4324
4402 1 4323 4325
4403 2 4323 4326
4404 2 4326 4327
4405 1 4327 4328
4406 1 4327 4329
4407 2 4327 4330
4408 2 4330 4331
4409 1 4331 4332
4410 1 4331 4333
4411 2 4331 4334
4412 2 4334 4335
4413 1 4335 4336
4414 1 4335 4337
4415 2 4335 4338
4416 3 124 4339
4417 4 4339 4319
4418 5 4338 132
4419 1 4340 4341
4420 1 4340 4342
4421 2 4340 4343
4422 2 4343 4344
4423 1 4344 4345
4424 1 4344 4346
4425 2 4344 4347
4426 2 4347 4348
4427 1 4348 4349
4428 1 4348 4350
4429 2 4348 4351
4430 2 4351 4352
4431 1 4352 4353
4432 1 4352 4354
4433 2 4352 4355
4434 2 4355 4356
4435 1 4356 4357
4436 1 4356 4358
4437 2 4356 4359
4438 3 125 4360
4439 4 4360 4340
4440 5 4359 126
4441 1 4361 4362
4442 1 4361 4363
4443 2 4361 4364
4444 2 4364 4365
4445 1 4365 4366
4446 1 4365 4367
4447 2 4365 4368
4448 2 4368 4369
4449 1 4369 4370
4450 1 4369 4371
4451 2 4369 4372
4452 2 4372 4373
4453 1 4373 4374
4454 1 4373 4375
4455 2 4373 4376
4456 2 4376 4377
4457 1 4377 4378
4458 1 4377 4379
4459 2 4377 4380
4460 3 125 4381
4461 4 4381 4361
4462 5 4380 133
4463 1 4382 4383
4464 1 4382 4384
4465 2 4382 4385
4466 2 4385 4386
4467 1 4386 4387
4468 1 4386 4388
4469 2 4386 4389
4470 2 4389 4390
4471 1 4390 4391
4472 1 4390 4392
4473 2 4390 4393
4474 2 4393 4394
4475 1 4394 4395
4476 1 4394 4396
4477 2 4394 4397
4478 2 4397 4398
4479 1 4398 4399
4480 1 4398 4400
4481 2 4398 4401
4482 3 126 4402
4483 4 4402 4382
4484 5 4401 134
4485 1 4403 4404
4486 1 4403 4405
4487 2 4403 4406
4488 2 4406 4407
4489 1 4407 4408
4490 1 4407 4409
4491 2 4407 4410
4492 2 4410 4411
4493 1 4411 4412
4494 1 4411 4413
4495 2 4411 4414
4496 2 4414 4415
4497 1 4415 4416
4498 1 4415 4417
4499 2 4415 4418
4500 2 4418 4419
4501 1 4419 4420
4502 1 4419 4421
4503 2 4419 4422
4504 3 131 4423
4505 4 4423 4403
4506 5 4422 132
4507 1 4424 4425
4508 1 4424 4426
4509 2 4424 4427
4510 2 4427 4428
4511 1 4428 4429
4512 1 4428 4430
4513 2 4428 4431
4514 2 4431 4432
4515 1 4432 4433
4516 1 4432 4434
4517 2 4432 4435
4518 2 4435 4436
4519 1 4436 4437
4520 1 4436 4438
4521 2 4436 4439
4522 2 4439 4440
4523 1 4440 4441
4524 1 4440 4442
4525 2 4440 4443
4526 3 131 4444
4527 4 4444 4424
4528 5 4443 136
4529 1 4445 4446
4530 1 4445 4447
4531 2 4445 4448
4532 2 4448 4449
4533 1 4449 4450
4534 1 4449 4451
4535 2 4449 4452
4536 2 4452 4453
4537 1 4453 4454
4538 1 4453 4455
4539 2 4453 4456
4540 2 4456 4457
4541 1 4457 4458
4542 1 4457 4459
4543 2 4457 4460
4544 2 4460 4461
4545 1 4461 4462
4546 1 4461 4463
4547 2 4461 4464
4548 3 132 4465
4549 4 4465 4445
4550 5 4464 137
4551 1 4466 4467
4552 1 4466 4468
4553 2 4466 4469
4554 2 4469 4470
4555 1 4470 4471
4556 1 4470 4472
4557 2 4470 4473
4558 2 4473 4474
4559 1 4474 4475
4560 1 4474 4476
4561 2 4474 4477
4562 2 4477 4478
4563 1 4478 4479
4564 1 4478 4480
4565 2 4478 4481
4566 2 4481 4482
4567 1 4482 4483
4568 1 4482 4484
4569 2 4482 4485
4570 3 133 4486
4571 4 4486 4466
4572 5 4485 138
4573 1 4487 4488
4574 1 4487 4489
4575 2 4487 4490
4576 2 4490 4491
4577 1 4491 4492
4578 1 4491 4493
4579 2 4491 4494
4580 2 4494 4495
4581 1 4495 4496
4582 1 4495 4497
4583 2 4495 4498
4584 2 4498 4499
4585 1 4499 4500
4586 1 4499 4501
4587 2 4499 4502
4588 2 4502 4503
4589 1 4503 4504
4590 1 4503 4505
4591 2 4503 4506
4592 3 135 4507
4593 4 4507 4487
4594 5 4506 136
4595 1 4508 4509
4596 1 4508 4510
4597 2 4508 4511
4598 2 4511 4512
4599 1 4512 4513
4600 1 4512 4514
4601 2 4512 4515
4602 2 4515 4516
4603 1 4516 4517
4604 1 4516 4518
4605 2 4516 4519
4606 2 4519 4520
4607 1 4520 4521
4608 1 4520 4522
4609 2 4520 4523
4610 2 4523 4524
4611 1 4524 4525
4612 1 4524 4526
4613 2 4524 4527
4614 3 137 4528
4615 4 4528 4508
4616 5 4527 138
4617 1 4529 4530
4618 1 4529 4531
4619 2 4529 4532
4620 2 4532 4533
4621 1 4533 4534
4622 1 4533 4535
4623 2 4533 4536
4624 2 4536 4537
4625 1 4537 4538
4626 1 4537 4539
4627 2 4537 4540
4628 2 4540 4541
4629 1 4541 4542
4630 1 4541 4543
4631 2 4541 4544
4632 2 4544 4545
4633 1 4545 4546
4634 1 4545 4547
4635 2 4545 4548
4636 3 138 4549
4637 4 4549 4529
4638 5 4548 139

Angles

1 1 160 1 181
2 1 160 1 202
3 1 181 1 202
4 1 223 2 244
5 1 223 2 265
6 1 244 2 265
7 2 222 3 286
8 2 222 3 307
9 2 222 3 328
10 1 286 3 307
11 1 286 3 328
12 1 307 3 328
13 2 285 4 349
14 2 285 4 370
15 2 285 4 391
16 1 349 4 370
17 1 349 4 391
18 1 370 4 391
19 3 180 5 348
20 2 180 5 412
21 2 180 5 433
22 2 348 5 412
23 2 348 5 433
24 1 412 5 433
25 2 159 6 454
26 2 159 6 475
27 2 159 6 496
28 1 454 6 475
29 1 454 6 496
30 1 475 6 496
31 1 517 7 538
32 1 517 7 559
33 1 517 7 580
34 1 538 7 559
35 1 538 7 580
36 1 559 7 580
37 3 369 8 516
38 2 369 8 601
39 2 369 8 622
40 2 516 8 601
41 2 516 8 622
42 1 601 8 622
43 3 411 9 474
44 3 411 9 600
45 2 411 9 643
46 3 474 9 600
47 2 474 9 643
48 2 600 9 643
49 1 664 10 685
50 1 664 10 706
51 1 685 10 706
52 1 727 11 748
53 1 727 11 769
54 1 748 11 769
55 3 537 12 726
56 2 537 12 790
57 2 537 12 811
58 2 726 12 790
59 2 726 12 811
60 1 790 12 811
61 1 832 13 853
62 1 832 13 874
63 1 853 13 874
64 3 705 14 831
65 2 705 14 895
66 2 831 14 895
67 2 663 15 916
68 2 663 15 937
69 2 663 15 958
70 1 916 15 937
71 1 916 15 958
72 1 937 15 958
73 2 747 16 979
74 2 747 16 1000
75 1 979 16 1000
76 4 18 17 19
77 4 18 17 20
78 5 18 17 1021
79 4 19 17 20
80 5 19 17 1021
81 5 20 17 1021
82 2 852 21 1042
83 2 852 21 1063
84 1 1042 21 1063
85 3 894 22 957
86 2 894 22 1084
87 2 894 22 1105
88 2 957 22 1084
89 2 957 22 1105
90 1 1084 22 1105
91 3 201 23 915
92 2 201 23 1126
93 2 201 23 1147
94 2 915 23 1126
95 2 915 23 1147
96 1 1126 23 1147
97 3 264 24 978
98 3 264 24 1125
99 2 264 24 1168
100 3 978 24 1125
101 2 978 24 1168
102 2 1125 24 1168
103 2 327 25 1189
104 2 327 25 1210
105 1 1189 25 1210
106 3 1041 26 1188
107 2 1041 26 1231
108 2 1041 26 1252
109 2 1188 26 1231
110 2 1188 26 1252
111 1 1231 26 1252
112 3 1083 27 1146
113 3 1083 27 1230
114 2 1083 27 1273
115 3 1146 27 1230
116 2 1146 27 1273
117 2 1230 27 1273
118 1 1294 28 1315
119 1 1294 28 1336
120 1 1315 28 1336
121 2 243 29 1357
122 2 243 29 1378
123 2 243 29 1399
124 1 1357 29 1378
125 1 1357 29 1399
126 1 1378 29 1399
127 3 306 30 1356
128 2 306 30 1420
129 2 306 30 1441
130 2 1356 30 1420
131 2 1356 30 1441
132 1 1420 30 1441
133 2 390 31 1462
134 2 390 31 1483
135 2 390 31 1504
136 1 1462 31 1483
137 1 1462 31 1504
138 1 1483 31 1504
139 3 432 32 1314
140 3 432 32 1461
141 2 432 32 1525
142 3 1314 32 1461
143 2 1314 32 1525
144 2 1461 32 1525
145 2 453 33 1546
146 2 453 33 1567
147 1 1546 33 1567
148 3 1377 34 1545
149 2 1377 34 1588
150 2 1377 34 1609
151 2 1545 34 1588
152 2 1545 34 1609
153 1 1588 34 1609
154 3 558 35 1419
155 2 558 35 1630
156 2 558 35 1651
157 2 1419 35 1630
158 2 1419 35 1651
159 1 1630 35 1651
160 2 1482 36 1672
161 2 1482 36 1693
162 1 1672 36 1693
163 3 642 37 1671
164 2 642 37 1714
165 2 1671 37 1714
166 3 684 38 1566
167 2 684 38 1735
168 2 1566 38 1735
169 3 768 39 1587
170 2 768 39 1756
171 2 1587 39 1756
172 3 789 40 1629
173 2 789 40 1777
174 2 789 40 1798
175 2 1629 40 1777
176 2 1629 40 1798
177 1 1777 40 1798
178 2 1776 41 1819
179 2 1776 41 1840
180 2 1776 41 1861
181 1 1819 41 1840
182 1 1819 41 1861
183 1 1840 41 1861
184 3 1713 42 1818
185 2 1713 42 1882
186 2 1713 42 1903
187 2 1818 42 1882
188 2 1818 42 1903
189 1 1882 42 1903
190 3 936 43 1734
191 2 936 43 1924
192 2 936 43 1945
193 2 1734 43 1924
194 2 1734 43 1945
195 1 1924 43 1945
196 2 1020 44 1966
197 2 1020 44 1987
198 1 1966 44 1987
199 3 1839 45 1965
200 2 1839 45 2008
201 2 1965 45 2008
202 3 1881 46 1944
203 2 1881 46 2029
204 2 1944 46 2029
205 3 1335 47 1923
206 2 1335 47 2050
207 2 1923 47 2050
208 3 1167 48 1398
209 2 1167 48 2071
210 2 1398 48 2071
211 4 50 49 51
212 4 50 49 52
213 6 50 49 1209
214 4 51 49 52
215 6 51 49 1209
216 6 52 49 1209
217 3 1251 53 1503
218 3 1251 53 2007
219 2 1251 53 2092
220 3 1503 53 2007
221 2 1503 53 2092
222 2 2007 53 2092
223 3 2028 54 2091
224 2 2028 54 2113
225 2 2091 54 2113
226 4 56 55 57
227 4 56 55 58
228 6 56 55 1293
229 4 57 55 58
230 6 57 55 1293
231 6 58 55 1293
232 2 1440 59 2134
233 2 1440 59 2155
234 2 1440 59 2176
235 1 2134 59 2155
236 1 2134 59 2176
237 1 2155 59 2176
238 2 2133 60 2197
239 2 2133 60 2218
240 2 2133 60 2239
241 1 2197 60 2218
242 1 2197 60 2239
243 1 2218 60 2239
244 2 1524 61 2260
245 2 1524 61 2281
246 2 1524 61 2302
247 1 2260 61 2281
248 1 2260 61 2302
249 1 2281 61 2302
250 1 2323 62 2344
251 1 2323 62 2365
252 1 2323 62 2386
253 1 2344 62 2365
254 1 2344 62 2386
255 1 2365 62 2386
256 3 1608 63 2322
257 2 1608 63 2407
258 2 1608 63 2428
259 2 2322 63 2407
260 2 2322 63 2428
261 1 2407 63 2428
262 3 1650 64 2154
263 2 1650 64 2449
264 2 2154 64 2449
265 3 1692 65 2196
266 3 1692 65 2448
267 3 2196 65 2448
268 3 2259 66 2385
269 2 2259 66 2470
270 2 2259 66 2491
271 2 2385 66 2470
272 2 2385 66 2491
273 1 2470 66 2491
274 2 2343 67 2512
275 2 2343 67 2533
276 1 2512 67 2533
277 3 1755 68 2406
278 2 1755 68 2554
279 2 1755 68 2575
280 2 2406 68 2554
281 2 2406 68 2575
282 1 2554 68 2575
283 2 1797 69 2596
284 2 1797 69 2617
285 2 1797 69 2638
286 1 2596 69 2617
287 1 2596 69 2638
288 1 2617 69 2638
289 3 1860 70 2595
290 2 1860 70 2659
291 2 1860 70 2680
292 2 2595 70 2659
293 2 2595 70 2680
294 1 2659 70 2680
295 3 1902 71 2469
296 3 1902 71 2532
297 2 1902 71 2701
298 3 2469 71 2532
299 2 2469 71 2701
300 2 2532 71 2701
301 2 2553 72 2722
302 2 2553 72 2743
303 1 2722 72 2743
304 3 1986 73 2616
305 2 1986 73 2764
306 2 1986 73 2785
307 2 2616 73 2764
308 2 2616 73 2785
309 1 2764 73 2785
310 3 2658 74 2763
311 2 2658 74 2806
312 2 2658 74 2827
313 2 2763 74 2806
314 2 2763 74 2827
315 1 2806 74 2827
316 3 2700 75 2805
317 2 2700 75 2848
318 2 2805 75 2848
319 2 2049 76 2869
320 2 2049 76 2890
321 1 2869 76 2890
322 3 2070 77 2721
323 3 2070 77 2868
324 2 2070 77 2911
325 3 2721 77 2868
326 2 2721 77 2911
327 2 2868 77 2911
328 4 79 78 80
329 4 79 78 81
330 6 79 78 2910
331 4 80 78 81
332 6 80 78 2910
333 6 81 78 2910
334 3 2238 82 2826
335 2 2238 82 2932
336 2 2238 82 2953
337 2 2826 82 2932
338 2 2826 82 2953
339 1 2932 82 2953
340 3 2112 83 2301
341 3 2112 83 2931
342 2 2112 83 2974
343 3 2301 83 2931
344 2 2301 83 2974
345 2 2931 83 2974
346 4 85 84 86
347 4 85 84 87
348 5 85 84 2995
349 4 86 84 87
350 5 86 84 2995
351 5 87 84 2995
352 2 2994 88 3016
353 2 2994 88 3037
354 1 3016 88 3037
355 2 2175 89 3058
356 2 2175 89 3079
357 2 2175 89 3100
358 1 3058 89 3079
359 1 3058 89 3100
360 1 3079 89 3100
361 3 2217 90 3057
362 2 2217 90 3121
363 2 2217 90 3142
364 2 3057 90 3121
365 2 3057 90 3142
366 1 3121 90 3142
367 2 2280 91 3163
368 2 2280 91 3184
369 1 3163 91 3184
370 2 2364 92 3205
371 2 2364 92 3226
372 1 3205 92 3226
373 3 2427 93 3204
374 2 2427 93 3247
375 2 2427 93 3268
376 2 3204 93 3247
377 2 3204 93 3268
378 1 3247 93 3268
379 2 3246 94 3289
380 2 3246 94 3310
381 2 3246 94 3331
382 1 3289 94 3310
383 1 3289 94 3331
384 1 3310 94 3331
385 3 3120 95 3288
386 2 3120 95 3352
387 2 3288 95 3352
388 2 2490 96 3373
389 2 2490 96 3394
390 1 3373 96 3394
391 2 2511 97 3415
392 2 2511 97 3436
393 2 2511 97 3457
394 1 3415 97 3436
395 1 3415 97 3457
396 1 3436 97 3457
397 2 2574 98 3478
398 2 2574 98 3499
399 1 3478 98 3499
400 3 2637 99 3309
401 3 2637 99 3477
402 2 2637 99 3520
403 3 3309 99 3477
404 2 3309 99 3520
405 2 3477 99 3520
406 3 2679 100 3351
407 2 2679 100 3541
408 2 2679 100 3562
409 2 3351 100 3541
410 2 3351 100 3562
411 1 3541 100 3562
412 3 3372 101 3456
413 3 3372 101 3540
414 2 3372 101 3583
415 3 3456 101 3540
416 2 3456 101 3583
417 2 3540 101 3583
418 2 3414 102 3604
419 2 3414 102 3625
420 1 3604 102 3625
421 3 2742 103 3603
422 2 2742 103 3646
423 2 2742 103 3667
424 2 3603 103 3646
425 2 3603 103 3667
426 1 3646 103 3667
427 3 2784 104 3519
428 2 2784 104 3688
429 2 3519 104 3688
430 2 3561 105 3709
431 2 3561 105 3730
432 2 3561 105 3751
433 1 3709 105 3730
434 1 3709 105 3751
435 1 3730 105 3751
436 3 2847 106 3624
437 3 2847 106 3708
438 2 2847 106 3772
439 3 3624 106 3708
440 2 3624 106 3772
441 2 3708 106 3772
442 2 2889 107 3793
443 2 2889 107 3814
444 2 2889 107 3835
445 1 3793 107 3814
446 1 3793 107 3835
447 1 3814 107 3835
448 3 3036 108 3645
449 3 3036 108 3792
450 2 3036 108 3856
451 3 3645 108 3792
452 2 3645 108 3856
453 2 3792 108 3856
454 2 3099 109 3877
455 2 3099 109 3898
456 1 3877 109 3898
457 3 2952 110 3729
458 3 2952 110 3876
459 2 2952 110 3919
460 3 3729 110 3876
461 2 3729 110 3919
462 2 3876 110 3919
463 3 2973 111 3183
464 3 2973 111 3834
465 3 3183 111 3834
466 1 3940 112 3961
467 1 3940 112 3982
468 1 3961 112 3982
469 3 3015 113 3939
470 2 3015 113 4003
471 2 3015 113 4024
472 2 3939 113 4003
473 2 3939 113 4024
474 1 4003 113 4024
475 2 3078 114 4045
476 2 3078 114 4066
477 1 4045 114 4066
478 3 3141 115 4044
479 2 3141 115 4087
480 2 3141 115 4108
481 2 4044 115 4087
482 2 4044 115 4108
483 1 4087 115 4108
484 3 3162 116 3960
485 3 3162 116 4086
486 2 3162 116 4129
487 3 3960 116 4086
488 2 3960 116 4129
489 2 4086 116 4129
490 3 495 117 3225
491 2 495 117 4150
492 2 495 117 4171
493 2 3225 117 4150
494 2 3225 117 4171
495 1 4150 117 4171
496 3 3267 118 4002
497 2 3267 118 4192
498 2 4002 118 4192
499 3 579 119 3330
500 3 579 119 4065
501 2 579 119 4213
502 3 3330 119 4065
503 2 3330 119 4213
504 2 4065 119 4213
505 3 621 120 4107
506 2 621 120 4234
507 2 4107 120 4234
508 3 3393 121 4170
509 2 3393 121 4255
510 2 4170 121 4255
511 3 3435 122 4149
512 2 3435 122 4276
513 2 3435 122 4297
514 2 4149 122 4276
515 2 4149 122 4297
516 1 4276 122 4297
517 3 3498 123 4191
518 3 3498 123 4275
519 2 3498 123 4318
520 3 4191 123 4275
521 2 4191 123 4318
522 2 4275 123 4318
523 3 810 124 4212
524 3 810 124 4317
525 2 810 124 4339
526 3 4212 124 4317
527 2 4212 124 4339
528 2 4317 124 4339
529 3 873 125 4233
530 2 873 125 4360
531 2 873 125 4381
532 2 4233 125 4360
533 2 4233 125 4381
534 1 4360 125 4381
535 3 3582 126 4254
536 3 3582 126 4359
537 2 3582 126 4402
538 3 4254 126 4359
539 2 4254 126 4402
540 2 4359 126 4402
541 4 128 127 129
542 4 128 127 130
543 6 128 127 4296
544 4 129 127 130
545 6 129 127 4296
546 6 130 127 4296
547 3 999 131 3666
548 2 999 131 4423
549 2 999 131 4444
550 2 3666 131 4423
551 2 3666 131 4444
552 1 4423 131 4444
553 3 3687 132 4338
554 3 3687 132 4422
555 2 3687 132 4465
556 3 4338 132 4422
557 2 4338 132 4465
558 2 4422 132 4465
559 3 1062 133 3750
560 3 1062 133 4380
561 2 1062 133 4486
562 3 3750 133 4380
563 2 3750 133 4486
564 2 4380 133 4486
565 3 1104 134 3771
566 3 1104 134 4401
567 3 3771 134 4401
568 3 3813 135 3981
569 2 3813 135 4507
570 2 3981 135 4507
571 3 3855 136 4023
572 3 3855 136 4443
573 3 3855 136 4506
574 3 4023 136 4443
575 3 4023 136 4506
576 3 4443 136 4506
577 3 3897 137 4464
578 2 3897 137 4528
579 2 4464 137 4528
580 3 3918 138 4485
581 3 3918 138 4527
582 2 3918 138 4549
583 3 4485 138 4527
584 2 4485 138 4549
585 2 4527 138 4549
586 3 1272 139 4128
587 3 1272 139 4548
588 3 4128 139 4548
589 4 141 140 142
590 6 141 140 143
591 5 141 140 160
592 6 142 140 143
593 5 142 140 160
594 7 143 140 160
595 8 140 143 144
596 6 143 144 145
597 6 143 144 146
598 9 143 144 147
599 4 145 144 146
600 6 145 144 147
601 6 146 144 147
602 8 144 147 148
603 6 147 148 149
604 6 147 148 150
605 9 147 148 151
606 4 149 148 150
607 6 149 148 151
608 6 150 148 151
609 8 148 151 152
610 6 151 152 153
611 6 151 152 154
612 9 151 152 155
613 4 153 152 154
614 6 153 152 155
615 6 154 152 155
616 8 152 155 156
617 6 155 156 157
618 6 155 156 158
619 9 155 156 159
620 4 157 156 158
621 6 157 156 159
622 6 158 156 159
623 10 156 159 6
624 11 1 160 140
625 4 162 161 163
626 6 162 161 164
627 5 162 161 181
628 6 163 161 164
629 5 163 161 181
630 7 164 161 181
631 8 161 164 165
632 6 164 165 166
633 6 164 165 167
634 9 164 165 168
635 4 166 165 167
636 6 166 165 168
637 6 167 165 168
638 8 165 168 169
639 6 168 169 170
640 6 168 169 171
641 9 168 169 172
642 4 170 169 171
643 6 170 169 172
644 6 171 169 172
645 8 169 172 173
646 6 172 173 174
647 6 172 173 175
648 9 172 173 176
649 4 174 173 175
650 6 174 173 176
651 6 175 173 176
652 8 173 176 177
653 6 176 177 178
654 6 176 177 179
655 9 176 177 180
656 4 178 177 179
657 6 178 177 180
658 6 179 177 180
659 10 177 180 5
660 11 1 181 161
661 4 183 182 184
662 6 183 182 185
663 5 183 182 202
664 6 184 182 185
665 5 184 182 202
666 7 185 182 202
667 8 182 185 186
668 6 185 186 187
669 6 185 186 188
670 9 185 186 189
671 4 187 186 188
672 6 187 186 189
673 6 188 186 189
674 8 186 189 190
675 6 189 190 191
676 6 189 190 192
677 9 189 190 193
678 4 191 190 192
679 6 191 190 193
680 6 192 190 193
681 8 190 193 194
682 6 193 194 195
683 6 193 194 196
684 9 193 194 197
685 4 195 194 196
686 6 195 194 197
687 6 196 194 197
688 8 194 197 198
689 6 197 198 199
690 6 197 198 200
691 9 197 198 201
692 4 199 198 200
693 6 199 198 201
694 6 200 198 201
695 10 198 201 23
696 11 1 202 182
697 4 204 203 205
698 6 204 203 206
699 5 204 203 223
700 6 205 203 206
701 5 205 203 223
702 7 206 203 223
703 8 203 206 207
704 6 206 207 208
705 6 206 207 209
706 9 206 207 210
707 4 208 207 209
708 6 208 207 210
709 6 209 207 210
710 8 207 210 211
711 6 210 211 212
712 6 210 211 213
713 9 210 211 214
714 4 212 211 213
715 6 212 211 214
716 6 213 211 214
717 8 211 214 215
718 6 214 215 216
719 6 214 215 217
720 9 214 215 218
721 4 216 215 217
722 6 216 215 218
723 6 217 215 218
724 8 215 218 219
725 6 218 219 220
726 6 218 219 221
727 9 218 219 222
728 4 220 219 221
729 6 220 219 222
730 6 221 219 222
731 10 219 222 3
732 11 2 223 203
733 4 225 224 226
734 6 225 224 227
735 5 225 224 244
736 6 226 224 227
737 5 226 224 244
738 7 227 224 244
739 8 224 227 228
740 6 227 228 229
741 6 227 228 230
742 9 227 228 231
743 4 229 228 230
744 6 229 228 231
745 6 230 228 231
746 8 228 231 232
747 6 231 232 233
748 6 231 232 234
749 9 231 232 235
750 4 233 232 234
751 6 233 232 235
752 6 234 232 235
753 8 232 235 236
754 6 235 236 237
755 6 235 236 238
756 9 235 236 239
757 4 237 236 238
758 6 237 236 239
759 6 238 236 239
760 8 236 239 240
761 6 239 240 241
762 6 239 240 242
763 9 239 240 243
764 4 241 240 242
765 6 241 240 243
766 6 242 240 243
767 10 240 243 29
768 11 2 244 224
769 4 246 245 247
770 6 246 245 248
771 5 246 245 265
772 6 247 245 248
773 5 247 245 265
774 7 248 245 265
775 8 245 248 249
776 6 248 249 250
777 6 248 249 251
778 9 248 249 252
779 4 250 249 251
780 6 250 249 252
781 6 251 249 252
782 8 249 252 253
783 6 252 253 254
784 6 252 253 255
785 9 252 253 256
786 4 254 253 255
787 6 254 253 256
788 6 255 253 256
789 8 253 256 257
790 6 256 257 258
791 6 256 257 259
792 9 256 257 260
793 4 258 257 259
794 6 258 257 260
795 6 259 257 260
796 8 257 260 261
797 6 260 261 262
798 6 260 261 263
799 9 260 261 264
800 4 262 261 263
801 6 262 261 264
802 6 263 261 264
803 10 261 264 24
804 11 2 265 245
805 4 267 266 268
806 6 267 266 269
807 5 267 266 286
808 6 268 266 269
809 5 268 266 286
810 7 269 266 286
811 8 266 269 270
812 6 269 270 271
813 6 269 270 272
814 9 269 270 273
815 4 271 270 272
816 6 271 270 273
817 6 272 270 273
818 8 270 273 274
819 6 273 274 275
820 6 273 274 276
821 9 273 274 277
822 4 275 274 276
823 6 275 274 277
824 6 276 274 277
825 8 274 277 278
826 6 277 278 279
827 6 277 278 280
828 9 277 278 281
829 4 279 278 280
830 6 279 278 281
831 6 280 278 281
832 8 278 281 282
833 6 281 282 283
834 6 281 282 284
835 9 281 282 285
836 4 283 282 284
837 6 283 282 285
838 6 284 282 285
839 10 282 285 4
840 11 3 286 266
841 4 288 287 289
842 6 288 287 290
843 5 288 287 307
844 6 289 287 290
845 5 289 287 307
846 7 290 287 307
847 8 287 290 291
848 6 290 291 292
849 6 290 291 293
850 9 290 291 294
851 4 292 291 293
852 6 292 291 294
853 6 293 291 294
854 8 291 294 295
855 6 294 295 296
856 6 294 295 297
857 9 294 295 298
858 4 296 295 297
859 6 296 295 298
860 6 297 295 298
861 8 295 298 299
862 6 298 299 300
863 6 298 299 301
864 9 298 299 302
865 4 300 299 301
866 6 300 299 302
867 6 301 299 302
868 8 299 302 303
869 6 302 303 304
870 6 302 303 305
871 9 302 303 306
872 4 304 303 305
873 6 304 303 306
874 6 305 303 306
875 10 303 306 30
876 11 3 307 287
877 4 309 308 310
878 6 309 308 311
879 5 309 308 328
880 6 310 308 311
881 5 310 308 328
882 7 311 308 328
883 8 308 311 312
884 6 311 312 313
885 6 311 312 314
886 9 311 312 315
887 4 313 312 314
888 6 313 312 315
889 6 314 312 315
890 8 312 315 316
891 6 315 316 317
892 6 315 316 318
893 9 315 316 319
894 4 317 316 318
895 6 317 316 319
896 6 318 316 319
897 8 316 319 320
898 6 319 320 321
899 6 319 320 322
900 9 319 320 323
901 4 321 320 322
902 6 321 320 323
903 6 322 320 323
904 8 320 323 324
905 6 323 324 325
906 6 323 324 326
907 9 323 324 327
908 4 325 324 326
909 6 325 324 327
910 6 326 324 327
911 10 324 327 25
912 11 3 328 308
913 4 330 329 331
914 6 330 329 332
915 5 330 329 349
916 6 331 329 332
917 5 331 329 349
918 7 332 329 349
919 8 329 332 333
920 6 332 333 334
921 6 332 333 335
922 9 332 333 336
923 4 334 333 335
924 6 334 333 336
925 6 335 333 336
926 8 333 336 337
927 6 336 337 338
928 6 336 337 339
929 9 336 337 340
930 4 338 337 339
931 6 338 337 340
932 6 339 337 340
933 8 337 340 341
934 6 340 341 342
935 6 340 341 343
936 9 340 341 344
937 4 342 341 343
938 6 342 341 344
939 6 343 341 344
940 8 341 344 345
941 6 344 345 346
942 6 344 345 347
943 9 344 345 348
944 4 346 345 347
945 6 346 345 348
946 6 347 345 348
947 10 345 348 5
948 11 4 349 329
949 4 351 350 352
950 6 351 350 353
951 5 351 350 370
952 6 352 350 353
953 5 352 350 370
954 7 353 350 370
955 8 350 353 354
956 6 353 354 355
957 6 353 354 356
958 9 353 354 357
959 4 355 354 356
960 6 355 354 357
961 6 356 354 357
962 8 354 357 358
963 6 357 358 359
964 6 357 358 360
965 9 357 358 361
966 4 359 358 360
967 6 359 358 361
968 6 360 358 361
969 8 358 361 362
970 6 361 362 363
971 6 361 362 364
972 9 361 362 365
973 4 363 362 364
974 6 363 362 365
975 6 364 362 365
976 8 362 365 366
977 6 365 366 367
978 6 365 366 368
979 9 365 366 369
980 4 367 366 368
981 6 367 366 369
982 6 368 366 369
983 10 366 369 8
984 11 4 370 350
985 4 372 371 373
986 6 372 371 374
987 5 372 371 391
988 6 373 371 374
989 5 373 371 391
990 7 374 371 391
991 8 371 374 375
992 6 374 375 376
993 6 374 375 377
994 9 374 375 378
995 4 376 375 377
996 6 376 375 378
997 6 377 375 378
998 8 375 378 379
999 6 378 379 380
1000 6 378 379 381
1001 9 378 379 382
1002 4 380 379 381
1003 6 380 379 382
1004 6 381 379 382
1005 8 379 382 383
1006 6 382 383 384
1007 6 382 383 385
1008 9 382 383 386
1009 4 384 383 385
1010 6 384 383 386
1011 6 385 383 386
1012 8 383 386 387
1013 6 386 387 388
1014 6 386 387 389
1015 9 386 387 390
1016 4 388 387 389
1017 6 388 387 390
1018 6 389 387 390
1019 10 387 390 31
1020 11 4 391 371
1021 4 393 392 394
1022 6 393 392 395
1023 5 393 392 412
1024 6 394 392 395
1025 5 394 392 412
1026 7 395 392 412
1027 8 392 395 396
1028 6 395 396 397
1029 6 395 396 398
1030 9 395 396 399
1031 4 397 396 398
1032 6 397 396 399
1033 6 398 396 399
1034 8 396 399 400
1035 6 399 400 401
1036 6 399 400 402
1037 9 399 400 403
1038 4 401 400 402
1039 6 401 400 403
1040 6 402 400 403
1041 8 400 403 404
1042 6 403 404 405
1043 6 403 404 406
1044 9 403 404 407
1045 4 405 404 406
1046 6 405 404 407
1047 6 406 404 407
1048 8 404 407 408
1049 6 407 408 409
1050 6 407 408 410
1051 9 407 408 411
1052 4 409 408 410
1053 6 409 408 411
1054 6 410 408 411
1055 10 408 411 9
1056 11 5 412 392
1057 4 414 413 415
1058 6 414 413 416
1059 5 414 413 433
1060 6 415 413 416
1061 5 415 413 433
1062 7 416 413 433
1063 8 413 416 417
1064 6 416 417 418
1065 6 416 417 419
1066 9 416 417 420
1067 4 418 417 419
1068 6 418 417 420
1069 6 419 417 420
1070 8 417 420 421
1071 6 420 421 422
1072 6 420 421 423
1073 9 420 421 424
1074 4 422 421 423
1075 6 422 421 424
1076 6 423 421 424
1077 8 421 424 425
1078 6 424 425 426
1079 6 424 425 427
1080 9 424 425 428
1081 4 426 425 427
1082 6 426 425 428
1083 6 427 425 428
1084 8 425 428 429
1085 6 428 429 430
1086 6 428 429 431
1087 9 428 429 432
1088 4 430 429 431
1089 6 430 429 432
1090 6 431 429 432
1091 10 429 432 32
1092 11 5 433 413
1093 4 435 434 436
1094 6 435 434 437
1095 5 435 434 454
1096 6 436 434 437
1097 5 436 434 454
1098 7 437 434 454
1099 8 434 437 438
1100 6 437 438 439
1101 6 437 438 440
1102 9 437 438 441
1103 4 439 438 440
1104 6 439 438 441
1105 6 440 438 441
1106 8 438 441 442
1107 6 441 442 443
1108 6 441 442 444
1109 9 441 442 445
1110 4 443 442 444
1111 6 443 442 445
1112 6 444 442 445
1113 8 442 445 446
1114 6 445 446 447
1115 6 445 446 448
1116 9 445 446 449
1117 4 447 446 448
1118 6 447 446 449
1119 6 448 446 449
1120 8 446 449 450
1121 6 449 450 451
1122 6 449 450 452
1123 9 449 450 453
1124 4 451 450 452
1125 6 451 450 453
1126 6 452 450 453
1127 10 450 453 33
1128 11 6 454 434
1129 4 456 455 457
1130 6 456 455 458
1131 5 456 455 475
1132 6 457 455 458
1133 5 457 455 475
1134 7 458 455 475
1135 8 455 458 459
1136 6 458 459 460
1137 6 458 459 461
1138 9 458 459 462
1139 4 460 459 461
1140 6 460 459 462
1141 6 461 459 462
1142 8 459 462 463
1143 6 462 463 464
1144 6 462 463 465
1145 9 462 463 466
1146 4 464 463 465
1147 6 464 463 466
1148 6 465 463 466
1149 8 463 466 467
1150 6 466 467 468
1151 6 466 467 469
1152 9 466 467 470
1153 4 468 467 469
1154 6 468 467 470
1155 6 469 467 470
1156 8 467 470 471
1157 6 470 471 472
1158 6 470 471 473
1159 9 470 471 474
1160 4 472 471 473
1161 6 472 471 474
1162 6 473 471 474
1163 10 471 474 9
1164 11 6 475 455
1165 4 477 476 478
1166 6 477 476 479
1167 5 477 476 496
1168 6 478 476 479
1169 5 478 476 496
1170 7 479 476 496
1171 8 476 479 480
1172 6 479 480 481
1173 6 479 480 482
1174 9 479 480 483
1175 4 481 480 482
1176 6 481 480 483
1177 6 482 480 483
1178 8 480 483 484
1179 6 483 484 485
1180 6 483 484 486
1181 9 483 484 487
1182 4 485 484 486
1183 6 485 484 487
1184 6 486 484 487
1185 8 484 487 488
1186 6 487 488 489
1187 6 487 488 490
1188 9 487 488 491
1189 4 489 488 490
1190 6 489 488 491
1191 6 490 488 491
1192 8 488 491 492
1193 6 491 492 493
1194 6 491 492 494
1195 9 491 492 495
1196 4 493 492 494
1197 6 493 492 495
1198 6 494 492 495
1199 10 492 495 117
1200 11 6 496 476
1201 4 498 497 499
1202 6 498 497 500
1203 5 498 497 517
1204 6 499 497 500
1205 5 499 497 517
1206 7 500 497 517
1207 8 497 500 501
1208 6 500 501 502
1209 6 500 501 503
1210 9 500 501 504
1211 4 502 501 503
1212 6 502 501 504
1213 6 503 501 504
1214 8 501 504 505
1215 6 504 505 506
1216 6 504 505 507
1217 9 504 505 508
1218 4 506 505 507
1219 6 506 505 508
1220 6 507 505 508
1221 8 505 508 509
1222 6 508 509 510
1223 6 508 509 511
1224 9 508 509 512
1225 4 510 509 511
1226 6 510 509 512
1227 6 511 509 512
1228 8 509 512 513
1229 6 512 513 514
1230 6 512 513 515
1231 9 512 513 516
1232 4 514 513 515
1233 6 514 513 516
1234 6 515 513 516
1235 10 513 516 8
1236 11 7 517 497
1237 4 519 518 520
1238 6 519 518 521
1239 5 519 518 538
1240 6 520 518 521
1241 5 520 518 538
1242 7 521 518 538
1243 8 518 521 522
1244 6 521 522 523
1245 6 521 522 524
1246 9 521 522 525
1247 4 523 522 524
1248 6 523 522 525
1249 6 524 522 525
1250 8 522 525 526
1251 6 525 526 527
1252 6 525 526 528
1253 9 525 526 529
1254 4 527 526 528
1255 6 527 526 529
1256 6 528 526 529
1257 8 526 529 530
1258 6 529 530 531
1259 6 529 530 532
1260 9 529 530 533
1261 4 531 530 532
1262 6 531 530 533
1263 6 532 530 533
1264 8 530 533 534
1265 6 533 534 535
1266 6 533 534 536
1267 9 533 534 537
1268 4 535 534 536
1269 6 535 534 537
1270 6 536 534 537
1271 10 534 537 12
1272 11 7 538 518
1273 4 540 539 541
1274 6 540 539 542
1275 5 540 539 559
1276 6 541 539 542
1277 5 541 539 559
1278 7 542 539 559
1279 8 539 542 543
1280 6 542 543 544
1281 6 542 543 545
1282 9 542 543 546
1283 4 544 543 545
1284 6 544 543 546
1285 6 545 543 546
1286 8 543 546 547
1287 6 546 547 548
1288 6 546 547 549
1289 9 546 547 550
1290 4 548 547 549
1291 6 548 547 550
1292 6 549 547 550
1293 8 547 550 551
1294 6 550 551 552
1295 6 550 551 553
1296 9 550 551 554
1297 4 552 551 553
1298 6 552 551 554
1299 6 553 551 554
1300 8 551 554 555
1301 6 554 555 556
1302 6 554 555 557
1303 9 554 555 558
1304 4 556 555 557
1305 6 556 555 558
1306 6 557 555 558
1307 10 555 558 35
1308 11 7 559 539
1309 4 561 560 562
1310 6 561 560 563
1311 5 561 560 580
1312 6 562 560 563
1313 5 562 560 580
1314 7 563 560 580
1315 8 560 563 564
1316 6 563 564 565
1317 6 563 564 566
1318 9 563 564 567
1319 4 565 564 566
1320 6 565 564 567
1321 6 566 564 567
1322 8 564 567 568
1323 6 567 568 569
1324 6 567 568 570
1325 9 567 568 571
1326 4 569 568 570
1327 6 569 568 571
1328 6 570 568 571
1329 8 568 571 572
1330 6 571 572 573
1331 6 571 572 574
1332 9 571 572 575
1333 4 573 572 574
1334 6 573 572 575
1335 6 574 572 575
1336 8 572 575 576
1337 6 575 576 577
1338 6 575 576 578
1339 9 575 576 579
1340 4 577 576 578
1341 6 577 576 579
1342 6 578 576 579
1343 10 576 579 119
1344 11 7 580 560
1345 4 582 581 583
1346 6 582 581 584
1347 5 582 581 601
1348 6 583 581 584
1349 5 583 581 601
1350 7 584 581 601
1351 8 581 584 585
1352 6 584 585 586
1353 6 584 585 587
1354 9 584 585 588
1355 4 586 585 587
1356 6 586 585 588
1357 6 587 585 588
1358 8 585 588 589
1359 6 588 589 590
1360 6 588 589 591
1361 9 588 589 592
1362 4 590 589 591
1363 6 590 589 592
1364 6 591 589 592
1365 8 589 592 593
1366 6 592 593 594
1367 6 592 593 595
1368 9 592 593 596
1369 4 594 593 595
1370 6 594 593 596
1371 6 595 593 596
1372 8 593 596 597
1373 6 596 597 598
1374 6 596 597 599
1375 9 596 597 600
1376 4 598 597 599
1377 6 598 597 600
1378 6 599 597 600
1379 10 597 600 9
1380 11 8 601 581
1381 4 603 602 604
1382 6 603 602 605
1383 5 603 602 622
1384 6 604 602 605
1385 5 604 602 622
1386 7 605 602 622
1387 8 602 605 606
1388 6 605 606 607
1389 6 605 606 608
1390 9 605 606 609
1391 4 607 606 608
1392 6 607 606 609
1393 6 608 606 609
1394 8 606 609 610
1395 6 609 610 611
1396 6 609 610 612
1397 9 609 610 613
1398 4 611 610 612
1399 6 611 610 613
1400 6 612 610 613
1401 8 610 613 614
1402 6 613 614 615
1403 6 613 614 616
1404 9 613 614 617
1405 4 615 614 616
1406 6 615 614 617
1407 6 616 614 617
1408 8 614 617 618
1409 6 617 618 619
1410 6 617 618 620
1411 9 617 618 621
1412 4 619 618 620
1413 6 619 618 621
1414 6 620 618 621
1415 10 618 621 120
1416 11 8 622 602
1417 4 624 623 625
1418 6 624 623 626
1419 5 624 623 643
1420 6 625 623 626
1421 5 625 623 643
1422 7 626 623 643
1423 8 623 626 627
1424 6 626 627 628
1425 6 626 627 629
1426 9 626 627 630
1427 4 628 627 629
1428 6 628 627 630
1429 6 629 627 630
1430 8 627 630 631
1431 6 630 631 632
1432 6 630 631 633
1433 9 630 631 634
1434 4 632 631 633
1435 6 632 631 634
1436 6 633 631 634
1437 8 631 634 635
1438 6 634 635 636
1439 6 634 635 637
1440 9 634 635 638
1441 4 636 635 637
1442 6 636 635 638
1443 6 637 635 638
1444 8 635 638 639
1445 6 638 639 640
1446 6 638 639 641
1447 9 638 639 642
1448 4 640 639 641
1449 6 640 639 642
1450 6 641 639 642
1451 10 639 642 37
1452 11 9 643 623
1453 4 645 644 646
1454 6 645 644 647
1455 5 645 644 664
1456 6 646 644 647
1457 5 646 644 664
1458 7 647 644 664
1459 8 644 647 648
1460 6 647 648 649
1461 6 647 648 650
1462 9 647 648 651
1463 4 649 648 650
1464 6 649 648 651
1465 6 650 648 651
1466 8 648 651 652
1467 6 651 652 653
1468 6 651 652 654
1469 9 651 652 655
1470 4 653 652 654
1471 6 653 652 655
1472 6 654 652 655
1473 8 652 655 656
1474 6 655 656 657
1475 6 655 656 658
1476 9 655 656 659
1477 4 657 656 658
1478 6 657 656 659
1479 6 658 656 659
1480 8 656 659 660
1481 6 659 660 661
1482 6 659 660 662
1483 9 659 660 663
1484 4 661 660 662
1485 6 661 660 663
1486 6 662 660 663
1487 10 660 663 15
1488 11 10 664 644
1489 4 666 665 667
1490 6 666 665 668
1491 5 666 665 685
1492 6 667 665 668
1493 5 667 665 685
1494 7 668 665 685
1495 8 665 668 669
1496 6 668 669 670
1497 6 668 669 671
1498 9 668 669 672
1499 4 670 669 671
1500 6 670 669 672
1501 6 671 669 672
1502 8 669 672 673
1503 6 672 673 674
1504 6 672 673 675
1505 9 672 673 676
1506 4 674 673 675
1507 6 674 673 676
1508 6 675 673 676
1509 8 673 676 677
1510 6 676 677 678
1511 6 676 677 679
1512 9 676 677 680
1513 4 678 677 679
1514 6 678 677 680
1515 6 679 677 680
1516 8 677 680 681
1517 6 680 681 682
1518 6 680 681 683
1519 9 680 681 684
1520 4 682 681 683
1521 6 682 681 684
1522 6 683 681 684
1523 10 681 684 38
1524 11 10 685 665
1525 4 687 686 688
1526 6 687 686 689
1527 5 687 686 706
1528 6 688 686 689
1529 5 688 686 706
1530 7 689 686 706
1531 8 686 689 690
1532 6 689 690 691
1533 6 689 690 692
1534 9 689 690 693
1535 4 691 690 692
1536 6 691 690 693
1537 6 692 690 693
1538 8 690 693 694
1539 6 693 694 695
1540 6 693 694 696
1541 9 693 694 697
1542 4 695 694 696
1543 6 695 694 697
1544 6 696 694 697
1545 8 694 697 698
1546 6 697 698 699
1547 6 697 698 700
1548 9 697 698 701
1549 4 699 698 700
1550 6 699 698 701
1551 6 700 698 701
1552 8 698 701 702
1553 6 701 702 703
1554 6 701 702 704
1555 9 701 702 705
1556 4 703 702 704
1557 6 703 702 705
1558 6 704 702 705
1559 10 702 705 14
1560 11 10 706 686
1561 4 708 707 709
1562 6 708 707 710
1563 5 708 707 727
1564 6 709 707 710
1565 5 709 707 727
1566 7 710 707 727
1567 8 707 710 711
1568 6 710 711 712
1569 6 710 711 713
1570 9 710 711 714
1571 4 712 711 713
1572 6 712 711 714
1573 6 713 711 714
1574 8 711 714 715
1575 6 714 715 716
1576 6 714 715 717
1577 9 714 715 718
1578 4 716 715 717
1579 6 716 715 718
1580 6 717 715 718
1581 8 715 718 719
1582 6 718 719 720
1583 6 718 719 721
1584 9 718 719 722
1585 4 720 719 721
1586 6 720 719 722
1587 6 721 719 722
1588 8 719 722 723
1589 6 722 723 724
1590 6 722 723 725
1591 9 722 723 726
1592 4 724 723 725
1593 6 724 723 726
1594 6 725 723 726
1595 10 723 726 12
1596 11 11 727 707
1597 4 729 728 730
1598 6 729 728 731
1599 5 729 728 748
1600 6 730 728 731
1601 5 730 728 748
1602 7 731 728 748
1603 8 728 731 732
1604 6 731 732 733
1605 6 731 732 734
1606 9 731 732 735
1607 4 733 732 734
1608 6 733 732 735
1609 6 734 732 735
1610 8 732 735 736
1611 6 735 736 737
1612 6 735 736 738
1613 9 735 736 739
1614 4 737 736 738
1615 6 737 736 739
1616 6 738 736 739
1617 8 736 739 740
1618 6 739 740 741
1619 6 739 740 742
1620 9 739 740 743
1621 4 741 740 742
1622 6 741 740 743
1623 6 742 740 743
1624 8 740 743 744
1625 6 743 744 745
1626 6 743 744 746
1627 9 743 744 747
1628 4 745 744 746
1629 6 745 744 747
1630 6 746 744 747
1631 10 744 747 16
1632 11 11 748 728
1633 4 750 749 751
1634 6 750 749 752
1635 5 750 749 769
1636 6 751 749 752
1637 5 751 749 769
1638 7 752 749 769
1639 8 749 752 753
1640 6 752 753 754
1641 6 752 753 755
1642 9 752 753 756
1643 4 754 753 755
1644 6 754 753 756
1645 6 755 753 756
1646 8 753 756 757
1647 6 756 757 758
1648 6 756 757 759
1649 9 756 757 760
1650 4 758 757 759
1651 6 758 757 760
1652 6 759 757 760
1653 8 757 760 761
1654 6 760 761 762
1655 6 760 761 763
1656 9 760 761 764
1657 4 762 761 763
1658 6 762 761 764
1659 6 763 761 764
1660 8 761 764 765
1661 6 764 765 766
1662 6 764 765 767
1663 9 764 765 768
1664 4 766 765 767
1665 6 766 765 768
1666 6 767 765 768
1667 10 765 768 39
1668 11 11 769 749
1669 4 771 770 772
1670 6 771 770 773
1671 5 771 770 790
1672 6 772 770 773
1673 5 772 770 790
1674 7 773 770 790
1675 8 770 773 774
1676 6 773 774 775
1677 6 773 774 776
1678 9 773 774 777
1679 4 775 774 776
1680 6 775 774 777
1681 6 776 774 777
1682 8 774 777 778
1683 6 777 778 779
1684 6 777 778 780
1685 9 777 778 781
1686 4 779 778 780
1687 6 779 778 781
1688 6 780 778 781
1689 8 778 781 782
1690 6 781 782 783
1691 6 781 782 784
1692 9 781 782 785
1693 4 783 782 784
1694 6 783 782 785
1695 6 784 782 785
1696 8 782 785 786
1697 6 785 786 787
1698 6 785 786 788
1699 9 785 786 789
1700 4 787 786 788
1701 6 787 786 789
1702 6 788 786 789
1703 10 786 789 40
1704 11 12 790 770
1705 4 792 791 793
1706 6 792 791 794
1707 5 792 791 811
1708 6 793 791 794
1709 5 793 791 811
1710 7 794 791 811
1711 8 791 794 795
1712 6 794 795 796
1713 6 794 795 797
1714 9 794 795 798
1715 4 796 795 797
1716 6 796 795 798
1717 6 797 795 798
1718 8 795 798 799
1719 6 798 799 800
1720 6 798 799 801
1721 9 798 799 802
1722 4 800 799 801
1723 6 800 799 802
1724 6 801 799 802
1725 8 799 802 803
1726 6 802 803 804
1727 6 802 803 805
1728 9 802 803 806
1729 4 804 803 805
1730 6 804 803 806
1731 6 805 803 806
1732 8 803 806 807
1733 6 806 807 808
1734 6 806 807 809
1735 9 806 807 810
1736 4 808 807 809
1737 6 808 807 810
1738 6 809 807 810
1739 10 807 810 124
1740 11 12 811 791
1741 4 813 812 814
1742 6 813 812 815
1743 5 813 812 832
1744 6 814 812 815
1745 5 814 812 832
1746 7 815 812 832
1747 8 812 815 816
1748 6 815 816 817
1749 6 815 816 818
1750 9 815 816 819
1751 4 817 816 818
1752 6 817 816 819
1753 6 818 816 819
1754 8 816 819 820
1755 6 819 820 821
1756 6 819 820 822
1757 9 819 820 823
1758 4 821 820 822
1759 6 821 820 823
1760 6 822 820 823
1761 8 820 823 824
1762 6 823 824 825
1763 6 823 824 826
1764 9 823 824 827
1765 4 825 824 826
1766 6 825 824 827
1767 6 826 824 827
1768 8 824 827 828
1769 6 827 828 829
1770 6 827 828 830
1771 9 827 828 831
1772 4 829 828 830
1773 6 829 828 831
1774 6 830 828 831
1775 10 828 831 14
1776 11 13 832 812
1777 4 834 833 835
1778 6 834 833 836
1779 5 834 833 853
1780 6 835 833 836
1781 5 835 833 853
1782 7 836 833 853
1783 8 833 836 837
1784 6 836 837 838
1785 6 836 837 839
1786 9 836 837 840
1787 4 838 837 839
1788 6 838 837 840
1789 6 839 837 840
1790 8 837 840 841
1791 6 840 841 842
1792 6 840 841 843
1793 9 840 841 844
1794 4 842 841 843
1795 6 842 841 844
1796 6 843 841 844
1797 8 841 844 845
1798 6 844 845 846
1799 6 844 845 847
1800 9 844 845 848
1801 4 846 845 847
1802 6 846 845 848
1803 6 847 845 848
1804 8 845 848 849
1805 6 848 849 850
1806 6 848 849 851
1807 9 848 849 852
1808 4 850 849 851
1809 6 850 849 852
1810 6 851 849 852
1811 10 849 852 21
1812 11 13 853 833
1813 4 855 854 856
1814 6 855 854 857
1815 5 855 854 874
1816 6 856 854 857
1817 5 856 854 874
1818 7 857 854 874
1819 8 854 857 858
1820 6 857 858 859
1821 6 857 858 860
1822 9 857 858 861
1823 4 859 858 860
1824 6 859 858 861
1825 6 860 858 861
1826 8 858 861 862
1827 6 861 862 863
1828 6 861 862 864
1829 9 861 862 865
1830 4 863 862 864
1831 6 863 862 865
1832 6 864 862 865
1833 8 862 865 866
1834 6 865 866 867
1835 6 865 866 868
1836 9 865 866 869
1837 4 867 866 868
1838 6 867 866 869
1839 6 868 866 869
1840 8 866 869 870
1841 6 869 870 871
1842 6 869 870 872
1843 9 869 870 873
1844 4 871 870 872
1845 6 871 870 873
1846 6 872 870 873
1847 10 870 873 125
1848 11 13 874 854
1849 4 876 875 877
1850 6 876 875 878
1851 5 876 875 895
1852 6 877 875 878
1853 5 877 875 895
1854 7 878 875 895
1855 8 875 878 879
1856 6 878 879 880
1857 6 878 879 881
1858 9 878 879 882
1859 4 880 879 881
1860 6 880 879 882
1861 6 881 879 882
1862 8 879 882 883
1863 6 882 883 884
1864 6 882 883 885
1865 9 882 883 886
1866 4 884 883 885
1867 6 884 883 886
1868 6 885 883 886
1869 8 883 886 887
1870 6 886 887 888
1871 6 886 887 889
1872 9 886 887 890
1873 4 888 887 889
1874 6 888 887 890
1875 6 889 887 890
1876 8 887 890 891
1877 6 890 891 892
1878 6 890 891 893
1879 9 890 891 894
1880 4 892 891 893
1881 6 892 891 894
1882 6 893 891 894
1883 10 891 894 22
1884 11 14 895 875
1885 4 897 896 898
1886 6 897 896 899
1887 5 897 896 916
1888 6 898 896 899
1889 5 898 896 916
1890 7 899 896 916
1891 8 896 899 900
1892 6 899 900 901
1893 6 899 900 902
1894 9 899 900 903
1895 4 901 900 902
1896 6 901 900 903
1897 6 902 900 903
1898 8 900 903 904
1899 6 903 904 905
1900 6 903 904 906
1901 9 903 904 907
1902 4 905 904 906
1903 6 905 904 907
1904 6 906 904 907
1905 8 904 907 908
1906 6 907 908 909
1907 6 907 908 910
1908 9 907 908 911
1909 4 909 908 910
1910 6 909 908 911
1911 6 910 908 911
1912 8 908 911 912
1913 6 911 912 913
1914 6 911 912 914
1915 9 911 912 915
1916 4 913 912 914
1917 6 913 912 915
1918 6 914 912 915
1919 10 912 915 23
1920 11 15 916 896
1921 4 918 917 919
1922 6 918 917 920
1923 5 918 917 937
1924 6 919 917 920
1925 5 919 917 937
1926 7 920 917 937
1927 8 917 920 921
1928 6 920 921 922
1929 6 920 921 923
1930 9 920 921 924
1931 4 922 921 923
1932 6 922 921 924
1933 6 923 921 924
1934 8 921 924 925
1935 6 924 925 926
1936 6 924 925 927
1937 9 924 925 928
1938 4 926 925 927
1939 6 926 925 928
1940 6 927 925 928
1941 8 925 928 929
1942 6 928 929 930
1943 6 928 929 931
1944 9 928 929 932
1945 4 930 929 931
1946 6 930 929 932
1947 6 931 929 932
1948 8 929 932 933
1949 6 932 933 934
1950 6 932 933 935
1951 9 932 933 936
1952 4 934 933 935
1953 6 934 933 936
1954 6 935 933 936
1955 10 933 936 43
1956 11 15 937 917
1957 4 939 938 940
1958 6 939 938 941
1959 5 939 938 958
1960 6 940 938 941
1961 5 940 938 958
1962 7 941 938 958
1963 8 938 941 942
1964 6 941 942 943
1965 6 941 942 944
1966 9 941 942 945
1967 4 943 942 944
1968 6 943 942 945
1969 6 944 942 945
1970 8 942 945 946
1971 6 945 946 947
1972 6 945 946 948
1973 9 945 946 949
1974 4 947 946 948
1975 6 947 946 949
1976 6 948 946 949
1977 8 946 949 950
1978 6 949 950 951
1979 6 949 950 952
1980 9 949 950 953
1981 4 951 950 952
1982 6 951 950 953
1983 6 952 950 953
1984 8 950 953 954
1985 6 953 954 955
1986 6 953 954 956
1987 9 953 954 957
1988 4 955 954 956
1989 6 955 954 957
1990 6 956 954 957
1991 10 954 957 22
1992 11 15 958 938
1993 4 960 959 961
1994 6 960 959 962
1995 5 960 959 979
1996 6 961 959 962
1997 5 961 959 979
1998 7 962 959 979
1999 8 959 962 963
2000 6 962 963 964
2001 6 962 963 965
2002 9 962 963 966
2003 4 964 963 965
2004 6 964 963 966
2005 6 965 963 966
2006 8 963 966 967
2007 6 966 967 968
2008 6 966 967 969
2009 9 966 967 970
2010 4 968 967 969
2011 6 968 967 970
2012 6 969 967 970
2013 8 967 970 971
2014 6 970 971 972
2015 6 970 971 973
2016 9 970 971 974
2017 4 972 971 973
2018 6 972 971 974
2019 6 973 971 974
2020 8 971 974 975
2021 6 974 975 976
2022 6 974 975 977
2023 9 974 975 978
2024 4 976 975 977
2025 6 976 975 978
2026 6 977 975 978
2027 10 975 978 24
2028 11 16 979 959
2029 4 981 980 982
2030 6 981 980 983
2031 5 981 980 1000
2032 6 982 980 983
2033 5 982 980 1000
2034 7 983 980 1000
2035 8 980 983 984
2036 6 983 984 985
2037 6 983 984 986
2038 9 983 984 987
2039 4 985 984 986
2040 6 985 984 987
2041 6 986 984 987
2042 8 984 987 988
2043 6 987 988 989
2044 6 987 988 990
2045 9 987 988 991
2046 4 989 988 990
2047 6 989 988 991
2048 6 990 988 991
2049 8 988 991 992
2050 6 991 992 993
2051 6 991 992 994
2052 9 991 992 995
2053 4 993 992 994
2054 6 993 992 995
2055 6 994 992 995
2056 8 992 995 996
2057 6 995 996 997
2058 6 995 996 998
2059 9 995 996 999
2060 4 997 996 998
2061 6 997 996 999
2062 6 998 996 999
2063 10 996 999 131
2064 11 16 1000 980
2065 4 1002 1001 1003
2066 6 1002 1001 1004
2067 5 1002 1001 1021
2068 6 1003 1001 1004
2069 5 1003 1001 1021
2070 7 1004 1001 1021
2071 8 1001 1004 1005
2072 6 1004 1005 1006
2073 6 1004 1005 1007
2074 9 1004 1005 1008
2075 4 1006 1005 1007
2076 6 1006 1005 1008
2077 6 1007 1005 1008
2078 8 1005 1008 1009
2079 6 1008 1009 1010
2080 6 1008 1009 1011
2081 9 1008 1009 1012
2082 4 1010 1009 1011
2083 6 1010 1009 1012
2084 6 1011 1009 1012
2085 8 1009 1012 1013
2086 6 1012 1013 1014
2087 6 1012 1013 1015
2088 9 1012 1013 1016
2089 4 1014 1013 1015
2090 6 1014 1013 1016
2091 6 1015 1013 1016
2092 8 1013 1016 1017
2093 6 1016 1017 1018
2094 6 1016 1017 1019
2095 9 1016 1017 1020
2096 4 1018 1017 1019
2097 6 1018 1017 1020
2098 6 1019 1017 1020
2099 10 1017 1020 44
2100 12 17 1021 1001
2101 4 1023 1022 1024
2102 6 1023 1022 1025
2103 5 1023 1022 1042
2104 6 1024 1022 1025
2105 5 1024 1022 1042
2106 7 1025 1022 1042
2107 8 1022 1025 1026
2108 6 1025 1026 1027
2109 6 1025 1026 1028
2110 9 1025 1026 1029
2111 4 1027 1026 1028
2112 6 1027 1026 1029
2113 6 1028 1026 1029
2114 8 1026 1029 1030
2115 6 1029 1030 1031
2116 6 1029 1030 1032
2117 9 1029 1030 1033
2118 4 1031 1030 1032
2119 6 1031 1030 1033
2120 6 1032 1030 1033
2121 8 1030 1033 1034
2122 6 1033 1034 1035
2123 6 1033 1034 1036
2124 9 1033 1034 1037
2125 4 1035 1034 1036
2126 6 1035 1034 1037
2127 6 1036 1034 1037
2128 8 1034 1037 1038
2129 6 1037 1038 1039
2130 6 1037 1038 1040
2131 9 1037 1038 1041
2132 4 1039 1038 1040
2133 6 1039 1038 1041
2134 6 1040 1038 1041
2135 10 1038 1041 26
2136 11 21 1042 1022
2137 4 1044 1043 1045
2138 6 1044 1043 1046
2139 5 1044 1043 1063
2140 6 1045 1043 1046
2141 5 1045 1043 1063
2142 7 1046 1043 1063
2143 8 1043 1046 1047
2144 6 1046 1047 1048
2145 6 1046 1047 1049
2146 9 1046 1047 1050
2147 4 1048 1047 1049
2148 6 1048 1047 1050
2149 6 1049 1047 1050
2150 8 1047 1050 1051
2151 6 1050 1051 1052
2152 6 1050 1051 1053
2153 9 1050 1051 1054
2154 4 1052 1051 1053
2155 6 1052 1051 1054
2156 6 1053 1051 1054
2157 8 1051 1054 1055
2158 6 1054 1055 1056
2159 6 1054 1055 1057
2160 9 1054 1055 1058
2161 4 1056 1055 1057
2162 6 1056 1055 1058
2163 6 1057 1055 1058
2164 8 1055 1058 1059
2165 6 1058 1059 1060
2166 6 1058 1059 1061
2167 9 1058 1059 1062
2168 4 1060 1059 1061
2169 6 1060 1059 1062
2170 6 1061 1059 1062
2171 10 1059 1062 133
2172 11 21 1063 1043
2173 4 1065 1064 1066
2174 6 1065 1064 1067
2175 5 1065 1064 1084
2176 6 1066 1064 1067
2177 5 1066 1064 1084
2178 7 1067 1064 1084
2179 8 1064 1067 1068
2180 6 1067 1068 1069
2181 6 1067 1068 1070
2182 9 1067 1068 1071
2183 4 1069 1068 1070
2184 6 1069 1068 1071
2185 6 1070 1068 1071
2186 8 1068 1071 1072
2187 6 1071 1072 1073
2188 6 1071 1072 1074
2189 9 1071 1072 1075
2190 4 1073 1072 1074
2191 6 1073 1072 1075
2192 6 1074 1072 1075
2193 8 1072 1075 1076
2194 6 1075 1076 1077
2195 6 1075 1076 1078
2196 9 1075 1076 1079
2197 4 1077 1076 1078
2198 6 1077 1076 1079
2199 6 1078 1076 1079
2200 8 1076 1079 1080
2201 6 1079 1080 1081
2202 6 1079 1080 1082
2203 9 1079 1080 1083
2204 4 1081 1080 1082
2205 6 1081 1080 1083
2206 6 1082 1080 1083
2207 10 1080 1083 27
2208 11 22 1084 1064
2209 4 1086 1085 1087
2210 6 1086 1085 1088
2211 5 1086 1085 1105
2212 6 1087 1085 1088
2213 5 1087 1085 1105
2214 7 1088 1085 1105
2215 8 1085 1088 1089
2216 6 1088 1089 1090
2217 6 1088 1089 1091
2218 9 1088 1089 1092
2219 4 1090 1089 1091
2220 6 1090 1089 1092
2221 6 1091 1089 1092
2222 8 1089 1092 1093
2223 6 1092 1093 1094
2224 6 1092 1093 1095
2225 9 1092 1093 1096
2226 4 1094 1093 1095
2227 6 1094 1093 1096
2228 6 1095 1093 1096
2229 8 1093 1096 1097
2230 6 1096 1097 1098
2231 6 1096 1097 1099
2232 9 1096 1097 1100
2233 4 1098 1097 1099
2234 6 1098 1097 1100
2235 6 1099 1097 1100
2236 8 1097 1100 1101
2237 6 1100 1101 1102
2238 6 1100 1101 1103
2239 9 1100 1101 1104
2240 4 1102 1101 1103
2241 6 1102 1101 1104
2242 6 1103 1101 1104
2243 10 1101 1104 134
2244 11 22 1105 1085
2245 4 1107 1106 1108
2246 6 1107 1106 1109
2247 5 1107 1106 1126
2248 6 1108 1106 1109
2249 5 1108 1106 1126
2250 7 1109 1106 1126
2251 8 1106 1109 1110
2252 6 1109 1110 1111
2253 6 1109 1110 1112
2254 9 1109 1110 1113
2255 4 1111 1110 1112
2256 6 1111 1110 1113
2257 6 1112 1110 1113
2258 8 1110 1113 1114
2259 6 1113 1114 1115
2260 6 1113 1114 1116
2261 9 1113 1114 1117
2262 4 1115 1114 1116
2263 6 1115 1114 1117
2264 6 1116 1114 1117
2265 8 1114 1117 1118
2266 6 1117 1118 1119
2267 6 1117 1118 1120
2268 9 1117 1118 1121
2269 4 1119 1118 1120
2270 6 1119 1118 1121
2271 6 1120 1118 1121
2272 8 1118 1121 1122
2273 6 1121 1122 1123
2274 6 1121 1122 1124
2275 9 1121 1122 1125
2276 4 1123 1122 1124
2277 6 1123 1122 1125
2278 6 1124 1122 1125
2279 10 1122 1125 24
2280 11 23 1126 1106
2281 4 1128 1127 1129
2282 6 1128 1127 1130
2283 5 1128 1127 1147
2284 6 1129 1127 1130
2285 5 1129 1127 1147
2286 7 1130 1127 1147
2287 8 1127 1130 1131
2288 6 1130 1131 1132
2289 6 1130 1131 1133
2290 9 1130 1131 1134
2291 4 1132 1131 1133
2292 6 1132 1131 1134
2293 6 1133 1131 1134
2294 8 1131 1134 1135
2295 6 1134 1135 1136
2296 6 1134 1135 1137
2297 9 1134 1135 1138
2298 4 1136 1135 1137
2299 6 1136 1135 1138
2300 6 1137 1135 1138
2301 8 1135 1138 1139
2302 6 1138 1139 1140
2303 6 1138 1139 1141
2304 9 1138 1139 1142
2305 4 1140 1139 1141
2306 6 1140 1139 1142
2307 6 1141 1139 1142
2308 8 1139 1142 1143
2309 6 1142 1143 1144
2310 6 1142 1143 1145
2311 9 1142 1143 1146
2312 4 1144 1143 1145
2313 6 1144 1143 1146
2314 6 1145 1143 1146
2315 10 1143 1146 27
2316 11 23 1147 1127
2317 4 1149 1148 1150
2318 6 1149 1148 1151
2319 5 1149 1148 1168
2320 6 1150 1148 1151
2321 5 1150 1148 1168
2322 7 1151 1148 1168
2323 8 1148 1151 1152
2324 6 1151 1152 1153
2325 6 1151 1152 1154
2326 9 1151 1152 1155
2327 4 1153 1152 1154
2328 6 1153 1152 1155
2329 6 1154 1152 1155
2330 8 1152 1155 1156
2331 6 1155 1156 1157
2332 6 1155 1156 1158
2333 9 1155 1156 1159
2334 4 1157 1156 1158
2335 6 1157 1156 1159
2336 6 1158 1156 1159
2337 8 1156 1159 1160
2338 6 1159 1160 1161
2339 6 1159 1160 1162
2340 9 1159 1160 1163
2341 4 1161 1160 1162
2342 6 1161 1160 1163
2343 6 1162 1160 1163
2344 8 1160 1163 1164
2345 6 1163 1164 1165
2346 6 1163 1164 1166
2347 9 1163 1164 1167
2348 4 1165 1164 1166
2349 6 1165 1164 1167
2350 6 1166 1164 1167
2351 10 1164 1167 48
2352 11 24 1168 1148
2353 4 1170 1169 1171
2354 6 1170 1169 1172
2355 5 1170 1169 1189
2356 6 1171 1169 1172
2357 5 1171 1169 1189
2358 7 1172 1169 1189
2359 8 1169 1172 1173
2360 6 1172 1173 1174
2361 6 1172 1173 1175
2362 9 1172 1173 1176
2363 4 1174 1173 1175
2364 6 1174 1173 1176
2365 6 1175 1173 1176
2366 8 1173 1176 1177
2367 6 1176 1177 1178
2368 6 1176 1177 1179
2369 9 1176 1177 1180
2370 4 1178 1177 1179
2371 6 1178 1177 1180
2372 6 1179 1177 1180
2373 8 1177 1180 1181
2374 6 1180 1181 1182
2375 6 1180 1181 1183
2376 9 1180 1181 1184
2377 4 1182 1181 1183
2378 6 1182 1181 1184
2379 6 1183 1181 1184
2380 8 1181 1184 1185
2381 6 1184 1185 1186
2382 6 1184 1185 1187
2383 9 1184 1185 1188
2384 4 1186 1185 1187
2385 6 1186 1185 1188
2386 6 1187 1185 1188
2387 10 1185 1188 26
2388 11 25 1189 1169
2389 4 1191 1190 1192
2390 6 1191 1190 1193
2391 5 1191 1190 1210
2392 6 1192 1190 1193
2393 5 1192 1190 1210
2394 7 1193 1190 1210
2395 8 1190 1193 1194
2396 6 1193 1194 1195
2397 6 1193 1194 1196
2398 9 1193 1194 1197
2399 4 1195 1194 1196
2400 6 1195 1194 1197
2401 6 1196 1194 1197
2402 8 1194 1197 1198
2403 6 1197 1198 1199
2404 6 1197 1198 1200
2405 9 1197 1198 1201
2406 4 1199 1198 1200
2407 6 1199 1198 1201
2408 6 1200 1198 1201
2409 8 1198 1201 1202
2410 6 1201 1202 1203
2411 6 1201 1202 1204
2412 9 1201 1202 1205
2413 4 1203 1202 1204
2414 6 1203 1202 1205
2415 6 1204 1202 1205
2416 8 1202 1205 1206
2417 6 1205 1206 1207
2418 6 1205 1206 1208
2419 9 1205 1206 1209
2420 4 1207 1206 1208
2421 6 1207 1206 1209
2422 6 1208 1206 1209
2423 8 1206 1209 49
2424 11 25 1210 1190
2425 4 1212 1211 1213
2426 6 1212 1211 1214
2427 5 1212 1211 1231
2428 6 1213 1211 1214
2429 5 1213 1211 1231
2430 7 1214 1211 1231
2431 8 1211 1214 1215
2432 6 1214 1215 1216
2433 6 1214 1215 1217
2434 9 1214 1215 1218
2435 4 1216 1215 1217
2436 6 1216 1215 1218
2437 6 1217 1215 1218
2438 8 1215 1218 1219
2439 6 1218 1219 1220
2440 6 1218 1219 1221
2441 9 1218 1219 1222
2442 4 1220 1219 1221
2443 6 1220 1219 1222
2444 6 1221 1219 1222
2445 8 1219 1222 1223
2446 6 1222 1223 1224
2447 6 1222 1223 1225
2448 9 1222 1223 1226
2449 4 1224 1223 1225
2450 6 1224 1223 1226
2451 6 1225 1223 1226
2452 8 1223 1226 1227
2453 6 1226 1227 1228
2454 6 1226 1227 1229
2455 9 1226 1227 1230
2456 4 1228 1227 1229
2457 6 1228 1227 1230
2458 6 1229 1227 1230
2459 10 1227 1230 27
2460 11 26 1231 1211
2461 4 1233 1232 1234
2462 6 1233 1232 1235
2463 5 1233 1232 1252
2464 6 1234 1232 1235
2465 5 1234 1232 1252
2466 7 1235 1232 1252
2467 8 1232 1235 1236
2468 6 1235 1236 1237
2469 6 1235 1236 1238
2470 9 1235 1236 1239
2471 4 1237 1236 1238
2472 6 1237 1236 1239
2473 6 1238 1236 1239
2474 8 1236 1239 1240
2475 6 1239 1240 1241
2476 6 1239 1240 1242
2477 9 1239 1240 1243
2478 4 1241 1240 1242
2479 6 1241 1240 1243
2480 6 1242 1240 1243
2481 8 1240 1243 1244
2482 6 1243 1244 1245
2483 6 1243 1244 1246
2484 9 1243 1244 1247
2485 4 1245 1244 1246
2486 6 1245 1244 1247
2487 6 1246 1244 1247
2488 8 1244 1247 1248
2489 6 1247 1248 1249
2490 6 1247 1248 1250
2491 9 1247 1248 1251
2492 4 1249 1248 1250
2493 6 1249 1248 1251
2494 6 1250 1248 1251
2495 10 1248 1251 53
2496 11 26 1252 1232
2497 4 1254 1253 1255
2498 6 1254 1253 1256
2499 5 1254 1253 1273
2500 6 1255 1253 1256
2501 5 1255 1253 1273
2502 7 1256 1253 1273
2503 8 1253 1256 1257
2504 6 1256 1257 1258
2505 6 1256 1257 1259
2506 9 1256 1257 1260
2507 4 1258 1257 1259
2508 6 1258 1257 1260
2509 6 1259 1257 1260
2510 8 1257 1260 1261
2511 6 1260 1261 1262
2512 6 1260 1261 1263
2513 9 1260 1261 1264
2514 4 1262 1261 1263
2515 6 1262 1261 1264
2516 6 1263 1261 1264
2517 8 1261 1264 1265
2518 6 1264 1265 1266
2519 6 1264 1265 1267
2520 9 1264 1265 1268
2521 4 1266 1265 1267
2522 6 1266 1265 1268
2523 6 1267 1265 1268
2524 8 1265 1268 1269
2525 6 1268 1269 1270
2526 6 1268 1269 1271
2527 9 1268 1269 1272
2528 4 1270 1269 1271
2529 6 1270 1269 1272
2530 6 1271 1269 1272
2531 10 1269 1272 139
2532 11 27 1273 1253
2533 4 1275 1274 1276
2534 6 1275 1274 1277
2535 5 1275 1274 1294
2536 6 1276 1274 1277
2537 5 1276 1274 1294
2538 7 1277 1274 1294
2539 8 1274 1277 1278
2540 6 1277 1278 1279
2541 6 1277 1278 1280
2542 9 1277 1278 1281
2543 4 1279 1278 1280
2544 6 1279 1278 1281
2545 6 1280 1278 1281
2546 8 1278 1281 1282
2547 6 1281 1282 1283
2548 6 1281 1282 1284
2549 9 1281 1282 1285
2550 4 1283 1282 1284
2551 6 1283 1282 1285
2552 6 1284 1282 1285
2553 8 1282 1285 1286
2554 6 1285 1286 1287
2555 6 1285 1286 1288
2556 9 1285 1286 1289
2557 4 1287 1286 1288
2558 6 1287 1286 1289
2559 6 1288 1286 1289
2560 8 1286 1289 1290
2561 6 1289 1290 1291
2562 6 1289 1290 1292
2563 9 1289 1290 1293
2564 4 1291 1290 1292
2565 6 1291 1290 1293
2566 6 1292 1290 1293
2567 8 1290 1293 55
2568 11 28 1294 1274
2569 4 1296 1295 1297
2570 6 1296 1295 1298
2571 5 1296 1295 1315
2572 6 1297 1295 1298
2573 5 1297 1295 1315
2574 7 1298 1295 1315
2575 8 1295 1298 1299
2576 6 1298 1299 1300
2577 6 1298 1299 1301
2578 9 1298 1299 1302
2579 4 1300 1299 1301
2580 6 1300 1299 1302
2581 6 1301 1299 1302
2582 8 1299 1302 1303
2583 6 1302 1303 1304
2584 6 1302 1303 1305
2585 9 1302 1303 1306
2586 4 1304 1303 1305
2587 6 1304 1303 1306
2588 6 1305 1303 1306
2589 8 1303 1306 1307
2590 6 1306 1307 1308
2591 6 1306 1307 1309
2592 9 1306 1307 1310
2593 4 1308 1307 1309
2594 6 1308 1307 1310
2595 6 1309 1307 1310
2596 8 1307 1310 1311
2597 6 1310 1311 1312
2598 6 1310 1311 1313
2599 9 1310 1311 1314
2600 4 1312 1311 1313
2601 6 1312 1311 1314
2602 6 1313 1311 1314
2603 10 1311 1314 32
2604 11 28 1315 1295
2605 4 1317 1316 1318
2606 6 1317 1316 1319
2607 5 1317 1316 1336
2608 6 1318 1316 1319
2609 5 1318 1316 1336
2610 7 1319 1316 1336
2611 8 1316 1319 1320
2612 6 1319 1320 1321
2613 6 1319 1320 1322
2614 9 1319 1320 1323
2615 4 1321 1320 1322
2616 6 1321 1320 1323
2617 6 1322 1320 1323
2618 8 1320 1323 1324
2619 6 1323 1324 1325
2620 6 1323 1324 1326
2621 9 1323 1324 1327
2622 4 1325 1324 1326
2623 6 1325 1324 1327
2624 6 1326 1324 1327
2625 8 1324 1327 1328
2626 6 1327 1328 1329
2627 6 1327 1328 1330
2628 9 1327 1328 1331
2629 4 1329 1328 1330
2630 6 1329 1328 1331
2631 6 1330 1328 1331
2632 8 1328 1331 1332
2633 6 1331 1332 1333
2634 6 1331 1332 1334
2635 9 1331 1332 1335
2636 4 1333 1332 1334
2637 6 1333 1332 1335
2638 6 1334 1332 1335
2639 10 1332 1335 47
2640 11 28 1336 1316
2641 4 1338 1337 1339
2642 6 1338 1337 1340
2643 5 1338 1337 1357
2644 6 1339 1337 1340
2645 5 1339 1337 1357
2646 7 1340 1337 1357
2647 8 1337 1340 1341
2648 6 1340 1341 1342
2649 6 1340 1341 1343
2650 9 1340 1341 1344
2651 4 1342 1341 1343
2652 6 1342 1341 1344
2653 6 1343 1341 1344
2654 8 1341 1344 1345
2655 6 1344 1345 1346
2656 6 1344 1345 1347
2657 9 1344 1345 1348
2658 4 1346 1345 1347
2659 6 1346 1345 1348
2660 6 1347 1345 1348
2661 8 1345 1348 1349
2662 6 1348 1349 1350
2663 6 1348 1349 1351
2664 9 1348 1349 1352
2665 4 1350 1349 1351
2666 6 1350 1349 1352
2667 6 1351 1349 1352
2668 8 1349 1352 1353
2669 6 1352 1353 1354
2670 6 1352 1353 1355
2671 9 1352 1353 1356
2672 4 1354 1353 1355
2673 6 1354 1353 1356
2674 6 1355 1353 1356
2675 10 1353 1356 30
2676 11 29 1357 1337
2677 4 1359 1358 1360
2678 6 1359 1358 1361
2679 5 1359 1358 1378
2680 6 1360 1358 1361
2681 5 1360 1358 1378
2682 7 1361 1358 1378
2683 8 1358 1361 1362
2684 6 1361 1362 1363
2685 6 1361 1362 1364
2686 9 1361 1362 1365
2687 4 1363 1362 1364
2688 6 1363 1362 1365
2689 6 1364 1362 1365
2690 8 1362 1365 1366
2691 6 1365 1366 1367
2692 6 1365 1366 1368
2693 9 1365 1366 1369
2694 4 1367 1366 1368
2695 6 1367 1366 1369
2696 6 1368 1366 1369
2697 8 1366 1369 1370
2698 6 1369 1370 1371
2699 6 1369 1370 1372
2700 9 1369 1370 1373
2701 4 1371 1370 1372
2702 6 1371 1370 1373
2703 6 1372 1370 1373
2704 8 1370 1373 1374
2705 6 1373 1374 1375
2706 6 1373 1374 1376
2707 9 1373 1374 1377
2708 4 1375 1374 1376
2709 6 1375 1374 1377
2710 6 1376 1374 1377
2711 10 1374 1377 34
2712 11 29 1378 1358
2713 4 1380 1379 1381
2714 6 1380 1379 1382
2715 5 1380 1379 1399
2716 6 1381 1379 1382
2717 5 1381 1379 1399
2718 7 1382 1379 1399
2719 8 1379 1382 1383
2720 6 1382 1383 1384
2721 6 1382 1383 1385
2722 9 1382 1383 1386
2723 4 1384 1383 1385
2724 6 1384 1383 1386
2725 6 1385 1383 1386
2726 8 1383 1386 1387
2727 6 1386 1387 1388
2728 6 1386 1387 1389
2729 9 1386 1387 1390
2730 4 1388 1387 1389
2731 6 1388 1387 1390
2732 6 1389 1387 1390
2733 8 1387 1390 1391
2734 6 1390 1391 1392
2735 6 1390 1391 1393
2736 9 1390 1391 1394
2737 4 1392 1391 1393
2738 6 1392 1391 1394
2739 6 1393 1391 1394
2740 8 1391 1394 1395
2741 6 1394 1395 1396
2742 6 1394 1395 1397
2743 9 1394 1395 1398
2744 4 1396 1395 1397
2745 6 1396 1395 1398
2746 6 1397 1395 1398
2747 10 1395 1398 48
2748 11 29 1399 1379
2749 4 1401 1400 1402
2750 6 1401 1400 1403
2751 5 1401 1400 1420
2752 6 1402 1400 1403
2753 5 1402 1400 1420
2754 7 1403 1400 1420
2755 8 1400 1403 1404
2756 6 1403 1404 1405
2757 6 1403 1404 1406
2758 9 1403 1404 1407
2759 4 1405 1404 1406
2760 6 1405 1404 1407
2761 6 1406 1404 1407
2762 8 1404 1407 1408
2763 6 1407 1408 1409
2764 6 1407 1408 1410
2765 9 1407 1408 1411
2766 4 1409 1408 1410
2767 6 1409 1408 1411
2768 6 1410 1408 1411
2769 8 1408 1411 1412
2770 6 1411 1412 1413
2771 6 1411 1412 1414
2772 9 1411 1412 1415
2773 4 1413 1412 1414
2774 6 1413 1412 1415
2775 6 1414 1412 1415
2776 8 1412 1415 1416
2777 6 1415 1416 1417
2778 6 1415 1416 1418
2779 9 1415 1416 1419
2780 4 1417 1416 1418
2781 6 1417 1416 1419
2782 6 1418 1416 1419
2783 10 1416 1419 35
2784 11 30 1420 1400
2785 4 1422 1421 1423
2786 6 1422 1421 1424
2787 5 1422 1421 1441
2788 6 1423 1421 1424
2789 5 1423 1421 1441
2790 7 1424 1421 1441
2791 8 1421 1424 1425
2792 6 1424 1425 1426
2793 6 1424 1425 1427
2794 9 1424 1425 1428
2795 4 1426 1425 1427
2796 6 1426 1425 1428
2797 6 1427 1425 1428
2798 8 1425 1428 1429
2799 6 1428 1429 1430
2800 6 1428 1429 1431
2801 9 1428 1429 1432
2802 4 1430 1429 1431
2803 6 1430 1429 1432
2804 6 1431 1429 1432
2805 8 1429 1432 1433
2806 6 1432 1433 1434
2807 6 1432 1433 1435
2808 9 1432 1433 1436
2809 4 1434 1433 1435
2810 6 1434 1433 1436
2811 6 1435 1433 1436
2812 8 1433 1436 1437
2813 6 1436 1437 1438
2814 6 1436 1437 1439
2815 9 1436 1437 1440
2816 4 1438 1437 1439
2817 6 1438 1437 1440
2818 6 1439 1437 1440
2819 10 1437 1440 59
2820 11 30 1441 1421
2821 4 1443 1442 1444
2822 6 1443 1442 1445
2823 5 1443 1442 1462
2824 6 1444 1442 1445
2825 5 1444 1442 1462
2826 7 1445 1442 1462
2827 8 1442 1445 1446
2828 6 1445 1446 1447
2829 6 1445 1446 1448
2830 9 1445 1446 1449
2831 4 1447 1446 1448
2832 6 1447 1446 1449
2833 6 1448 1446 1449
2834 8 1446 1449 1450
2835 6 1449 1450 1451
2836 6 1449 1450 1452
2837 9 1449 1450 1453
2838 4 1451 1450 1452
2839 6 1451 1450 1453
2840 6 1452 1450 1453
2841 8 1450 1453 1454
2842 6 1453 1454 1455
2843 6 1453 1454 1456
2844 9 1453 1454 1457
2845 4 1455 1454 1456
2846 6 1455 1454 1457
2847 6 1456 1454 1457
2848 8 1454 1457 1458
2849 6 1457 1458 1459
2850 6 1457 1458 1460
2851 9 1457 1458 1461
2852 4 1459 1458 1460
2853 6 1459 1458 1461
2854 6 1460 1458 1461
2855 10 1458 1461 32
2856 11 31 1462 1442
2857 4 1464 1463 1465
2858 6 1464 1463 1466
2859 5 1464 1463 1483
2860 6 1465 1463 1466
2861 5 1465 1463 1483
2862 7 1466 1463 1483
2863 8 1463 1466 1467
2864 6 1466 1467 1468
2865 6 1466 1467 1469
2866 9 1466 1467 1470
2867 4 1468 1467 1469
2868 6 1468 1467 1470
2869 6 1469 1467 1470
2870 8 1467 1470 1471
2871 6 1470 1471 1472
2872 6 1470 1471 1473
2873 9 1470 1471 1474
2874 4 1472 1471 1473
2875 6 1472 1471 1474
2876 6 1473 1471 1474
2877 8 1471 1474 1475
2878 6 1474 1475 1476
2879 6 1474 1475 1477
2880 9 1474 1475 1478
2881 4 1476 1475 1477
2882 6 1476 1475 1478
2883 6 1477 1475 1478
2884 8 1475 1478 1479
2885 6 1478 1479 1480
2886 6 1478 1479 1481
2887 9 1478 1479 1482
2888 4 1480 1479 1481
2889 6 1480 1479 1482
2890 6 1481 1479 1482
2891 10 1479 1482 36
2892 11 31 1483 1463
2893 4 1485 1484 1486
2894 6 1485 1484 1487
2895 5 1485 1484 1504
2896 6 1486 1484 1487
2897 5 1486 1484 1504
2898 7 1487 1484 1504
2899 8 1484 1487 1488
2900 6 1487 1488 1489
2901 6 1487 1488 1490
2902 9 1487 1488 1491
2903 4 1489 1488 1490
2904 6 1489 1488 1491
2905 6 1490 1488 1491
2906 8 1488 1491 1492
2907 6 1491 1492 1493
2908 6 1491 1492 1494
2909 9 1491 1492 1495
2910 4 1493 1492 1494
2911 6 1493 1492 1495
2912 6 1494 1492 1495
2913 8 1492 1495 1496
2914 6 1495 1496 1497
2915 6 1495 1496 1498
2916 9 1495 1496 1499
2917 4 1497 1496 1498
2918 6 1497 1496 1499
2919 6 1498 1496 1499
2920 8 1496 1499 1500
2921 6 1499 1500 1501
2922 6 1499 1500 1502
2923 9 1499 1500 1503
2924 4 1501 1500 1502
2925 6 1501 1500 1503
2926 6 1502 1500 1503
2927 10 1500 1503 53
2928 11 31 1504 1484
2929 4 1506 1505 1507
2930 6 1506 1505 1508
2931 5 1506 1505 1525
2932 6 1507 1505 1508
2933 5 1507 1505 1525
2934 7 1508 1505 1525
2935 8 1505 1508 1509
2936 6 1508 1509 1510
2937 6 1508 1509 1511
2938 9 1508 1509 1512
2939 4 1510 1509 1511
2940 6 1510 1509 1512
2941 6 1511 1509 1512
2942 8 1509 1512 1513
2943 6 1512 1513 1514
2944 6 1512 1513 1515
2945 9 1512 1513 1516
2946 4 1514 1513 1515
2947 6 1514 1513 1516
2948 6 1515 1513 1516
2949 8 1513 1516 1517
2950 6 1516 1517 1518
2951 6 1516 1517 1519
2952 9 1516 1517 1520
2953 4 1518 1517 1519
2954 6 1518 1517 1520
2955 6 1519 1517 1520
2956 8 1517 1520 1521
2957 6 1520 1521 1522
2958 6 1520 1521 1523
2959 9 1520 1521 1524
2960 4 1522 1521 1523
2961 6 1522 1521 1524
2962 6 1523 1521 1524
2963 10 1521 1524 61
2964 11 32 1525 1505
2965 4 1527 1526 1528
2966 6 1527 1526 1529
2967 5 1527 1526 1546
2968 6 1528 1526 1529
2969 5 1528 1526 1546
2970 7 1529 1526 1546
2971 8 1526 1529 1530
2972 6 1529 1530 1531
2973 6 1529 1530 1532
2974 9 1529 1530 1533
2975 4 1531 1530 1532
2976 6 1531 1530 1533
2977 6 1532 1530 1533
2978 8 1530 1533 1534
2979 6 1533 1534 1535
2980 6 1533 1534 1536
2981 9 1533 1534 1537
2982 4 1535 1534 1536
2983 6 1535 1534 1537
2984 6 1536 1534 1537
2985 8 1534 1537 1538
2986 6 1537 1538 1539
2987 6 1537 1538 1540
2988 9 1537 1538 1541
2989 4 1539 1538 1540
2990 6 1539 1538 1541
2991 6 1540 1538 1541
2992 8 1538 1541 1542
2993 6 1541 1542 1543
2994 6 1541 1542 1544
2995 9 1541 1542 1545
2996 4 1543 1542 1544
2997 6 1543 1542 1545
2998 6 1544 1542 1545
2999 10 1542 1545 34
3000 11 33 1546 1526
3001 4 1548 1547 1549
3002 6 1548 1547 1550
3003 5 1548 1547 1567
3004 6 1549 1547 1550
3005 5 1549 1547 1567
3006 7 1550 1547 1567
3007 8 1547 1550 1551
3008 6 1550 1551 1552
3009 6 1550 1551 1553
3010 9 1550 1551 1554
3011 4 1552 1551 1553
3012 6 1552 1551 1554
3013 6 1553 1551 1554
3014 8 1551 1554 1555
3015 6 1554 1555 1556
3016 6 1554 1555 1557
3017 9 1554 1555 1558
3018 4 1556 1555 1557
3019 6 1556 1555 1558
3020 6 1557 1555 1558
3021 8 1555 1558 1559
3022 6 1558 1559 1560
3023 6 1558 1559 1561
3024 9 1558 1559 1562
3025 4 1560 1559 1561
3026 6 1560 1559 1562
3027 6 1561 1559 1562
3028 8 1559 1562 1563
3029 6 1562 1563 1564
3030 6 1562 1563 1565
3031 9 1562 1563 1566
3032 4 1564 1563 1565
3033 6 1564 1563 1566
3034 6 1565 1563 1566
3035 10 1563 1566 38
3036 11 33 1567 1547
3037 4 1569 1568 1570
3038 6 1569 1568 1571
3039 5 1569 1568 1588
3040 6 1570 1568 1571
3041 5 1570 1568 1588
3042 7 1571 1568 1588
3043 8 1568 1571 1572
3044 6 1571 1572 1573
3045 6 1571 1572 1574
3046 9 1571 1572 1575
3047 4 1573 1572 1574
3048 6 1573 1572 1575
3049 6 1574 1572 1575
3050 8 1572 1575 1576
3051 6 1575 1576 1577
3052 6 1575 1576 1578
3053 9 1575 1576 1579
3054 4 1577 1576 1578
3055 6 1577 1576 1579
3056 6 1578 1576 1579
3057 8 1576 1579 1580
3058 6 1579 1580 1581
3059 6 1579 1580 1582
3060 9 1579 1580 1583
3061 4 1581 1580 1582
3062 6 1581 1580 1583
3063 6 1582 1580 1583
3064 8 1580 1583 1584
3065 6 1583 1584 1585
3066 6 1583 1584 1586
3067 9 1583 1584 1587
3068 4 1585 1584 1586
3069 6 1585 1584 1587
3070 6 1586 1584 1587
3071 10 1584 1587 39
3072 11 34 1588 1568
3073 4 1590 1589 1591
3074 6 1590 1589 1592
3075 5 1590 1589 1609
3076 6 1591 1589 1592
3077 5 1591 1589 1609
3078 7 1592 1589 1609
3079 8 1589 1592 1593
3080 6 1592 1593 1594
3081 6 1592 1593 1595
3082 9 1592 1593 1596
3083 4 1594 1593 1595
3084 6 1594 1593 1596
3085 6 1595 1593 1596
3086 8 1593 1596 1597
3087 6 1596 1597 1598
3088 6 1596 1597 1599
3089 9 1596 1597 1600
3090 4 1598 1597 1599
3091 6 1598 1597 1600
3092 6 1599 1597 1600
3093 8 1597 1600 1601
3094 6 1600 1601 1602
3095 6 1600 1601 1603
3096 9 1600 1601 1604
3097 4 1602 1601 1603
3098 6 1602 1601 1604
3099 6 1603 1601 1604
3100 8 1601 1604 1605
3101 6 1604 1605 1606
3102 6 1604 1605 1607
3103 9 1604 1605 1608
3104 4 1606 1605 1607
3105 6 1606 1605 1608
3106 6 1607 1605 1608
3107 10 1605 1608 63
3108 11 34 1609 1589
3109 4 1611 1610 1612
3110 6 1611 1610 1613
3111 5 1611 1610 1630
3112 6 1612 1610 1613
3113 5 1612 1610 1630
3114 7 1613 1610 1630
3115 8 1610 1613 1614
3116 6 1613 1614 1615
3117 6 1613 1614 1616
3118 9 1613 1614 1617
3119 4 1615 1614 1616
3120 6 1615 1614 1617
3121 6 1616 1614 1617
3122 8 1614 1617 1618
3123 6 1617 1618 1619
3124 6 1617 1618 1620
3125 9 1617 1618 1621
3126 4 1619 1618 1620
3127 6 1619 1618 1621
3128 6 1620 1618 1621
3129 8 1618 1621 1622
3130 6 1621 1622 1623
3131 6 1621 1622 1624
3132 9 1621 1622 1625
3133 4 1623 1622 1624
3134 6 1623 1622 1625
3135 6 1624 1622 1625
3136 8 1622 1625 1626
3137 6 1625 1626 1627
3138 6 1625 1626 1628
3139 9 1625 1626 1629
3140 4 1627 1626 1628
3141 6 1627 1626 1629
3142 6 1628 1626 1629
3143 10 1626 1629 40
3144 11 35 1630 1610
3145 4 1632 1631 1633
3146 6 1632 1631 1634
3147 5 1632 1631 1651
3148 6 1633 1631 1634
3149 5 1633 1631 1651
3150 7 1634 1631 1651
3151 8 1631 1634 1635
3152 6 1634 1635 1636
3153 6 1634 1635 1637
3154 9 1634 1635 1638
3155 4 1636 1635 1637
3156 6 1636 1635 1638
3157 6 1637 1635 1638
3158 8 1635 1638 1639
3159 6 1638 1639 1640
3160 6 1638 1639 1641
3161 9 1638 1639 1642
3162 4 1640 1639 1641
3163 6 1640 1639 1642
3164 6 1641 1639 1642
3165 8 1639 1642 1643
3166 6 1642 1643 1644
3167 6 1642 1643 1645
3168 9 1642 1643 1646
3169 4 1644 1643 1645
3170 6 1644 1643 1646
3171 6 1645 1643 1646
3172 8 1643 1646 1647
3173 6 1646 1647 1648
3174 6 1646 1647 1649
3175 9 1646 1647 1650
3176 4 1648 1647 1649
3177 6 1648 1647 1650
3178 6 1649 1647 1650
3179 10 1647 1650 64
3180 11 35 1651 1631
3181 4 1653 1652 1654
3182 6 1653 1652 1655
3183 5 1653 1652 1672
3184 6 1654 1652 1655
3185 5 1654 1652 1672
3186 7 1655 1652 1672
3187 8 1652 1655 1656
3188 6 1655 1656 1657
3189 6 1655 1656 1658
3190 9 1655 1656 1659
3191 4 1657 1656 1658
3192 6 1657 1656 1659
3193 6 1658 1656 1659
3194 8 1656 1659 1660
3195 6 1659 1660 1661
3196 6 1659 1660 1662
3197 9 1659 1660 1663
3198 4 1661 1660 1662
3199 6 1661 1660 1663
3200 6 1662 1660 1663
3201 8 1660 1663 1664
3202 6 1663 1664 1665
3203 6 1663 1664 1666
3204 9 1663 1664 1667
3205 4 1665 1664 1666
3206 6 1665 1664 1667
3207 6 1666 1664 1667
3208 8 1664 1667 1668
3209 6 1667 1668 1669
3210 6 1667 1668 1670
3211 9 1667 1668 1671
3212 4 1669 1668 1670
3213 6 1669 1668 1671
3214 6 1670 1668 1671
3215 10 1668 1671 37
3216 11 36 1672 1652
3217 4 1674 1673 1675
3218 6 1674 1673 1676
3219 5 1674 1673 1693
3220 6 1675 1673 1676
3221 5 1675 1673 1693
3222 7 1676 1673 1693
3223 8 1673 1676 1677
3224 6 1676 1677 1678
3225 6 1676 1677 1679
3226 9 1676 1677 1680
3227 4 1678 1677 1679
3228 6 1678 1677 1680
3229 6 1679 1677 1680
3230 8 1677 1680 1681
3231 6 1680 1681 1682
3232 6 1680 1681 1683
3233 9 1680 1681 1684
3234 4 1682 1681 1683
3235 6 1682 1681 1684
3236 6 1683 1681 1684
3237 8 1681 1684 1685
3238 6 1684 1685 1686
3239 6 1684 1685 1687
3240 9 1684 1685 1688
3241 4 1686 1685 1687
3242 6 1686 1685 1688
3243 6 1687 1685 1688
3244 8 1685 1688 1689
3245 6 1688 1689 1690
3246 6 1688 1689 1691
3247 9 1688 1689 1692
3248 4 1690 1689 1691
3249 6 1690 1689 1692
3250 6 1691 1689 1692
3251 10 1689 1692 65
3252 11 36 1693 1673
3253 4 1695 1694 1696
3254 6 1695 1694 1697
3255 5 1695 1694 1714
3256 6 1696 1694 1697
3257 5 1696 1694 1714
3258 7 1697 1694 1714
3259 8 1694 1697 1698
3260 6 1697 1698 1699
3261 6 1697 1698 1700
3262 9 1697 1698 1701
3263 4 1699 1698 1700
3264 6 1699 1698 1701
3265 6 1700 1698 1701
3266 8 1698 1701 1702
3267 6 1701 1702 1703
3268 6 1701 1702 1704
3269 9 1701 1702 1705
3270 4 1703 1702 1704
3271 6 1703 1702 1705
3272 6 1704 1702 1705
3273 8 1702 1705 1706
3274 6 1705 1706 1707
3275 6 1705 1706 1708
3276 9 1705 1706 1709
3277 4 1707 1706 1708
3278 6 1707 1706 1709
3279 6 1708 1706 1709
3280 8 1706 1709 1710
3281 6 1709 1710 1711
3282 6 1709 1710 1712
3283 9 1709 1710 1713
3284 4 1711 1710 1712
3285 6 1711 1710 1713
3286 6 1712 1710 1713
3287 10 1710 1713 42
3288 11 37 1714 1694
3289 4 1716 1715 1717
3290 6 1716 1715 1718
3291 5 1716 1715 1735
3292 6 1717 1715 1718
3293 5 1717 1715 1735
3294 7 1718 1715 1735
3295 8 1715 1718 1719
3296 6 1718 1719 1720
3297 6 1718 1719 1721
3298 9 1718 1719 1722
3299 4 1720 1719 1721
3300 6 1720 1719 1722
3301 6 1721 1719 1722
3302 8 1719 1722 1723
3303 6 1722 1723 1724
3304 6 1722 1723 1725
3305 9 1722 1723 1726
3306 4 1724 1723 1725
3307 6 1724 1723 1726
3308 6 1725 1723 1726
3309 8 1723 1726 1727
3310 6 1726 1727 1728
3311 6 1726 1727 1729
3312 9 1726 1727 1730
3313 4 1728 1727 1729
3314 6 1728 1727 1730
3315 6 1729 1727 1730
3316 8 1727 1730 1731
3317 6 1730 1731 1732
3318 6 1730 1731 1733
3319 9 1730 1731 1734
3320 4 1732 1731 1733
3321 6 1732 1731 1734
3322 6 1733 1731 1734
3323 10 1731 1734 43
3324 11 38 1735 1715
3325 4 1737 1736 1738
3326 6 1737 1736 1739
3327 5 1737 1736 1756
3328 6 1738 1736 1739
3329 5 1738 1736 1756
3330 7 1739 1736 1756
3331 8 1736 1739 1740
3332 6 1739 1740 1741
3333 6 1739 1740 1742
3334 9 1739 1740 1743
3335 4 1741 1740 1742
3336 6 1741 1740 1743
3337 6 1742 1740 1743
3338 8 1740 1743 1744
3339 6 1743 1744 1745
3340 6 1743 1744 1746
3341 9 1743 1744 1747
3342 4 1745 1744 1746
3343 6 1745 1744 1747
3344 6 1746 1744 1747
3345 8 1744 1747 1748
3346 6 1747 1748 1749
3347 6 1747 1748 1750
3348 9 1747 1748 1751
3349 4 1749 1748 1750
3350 6 1749 1748 1751
3351 6 1750 1748 1751
3352 8 1748 1751 1752
3353 6 1751 1752 1753
3354 6 1751 1752 1754
3355 9 1751 1752 1755
3356 4 1753 1752 1754
3357 6 1753 1752 1755
3358 6 1754 1752 1755
3359 10 1752 1755 68
3360 11 39 1756 1736
3361 4 1758 1757 1759
3362 6 1758 1757 1760
3363 5 1758 1757 1777
3364 6 1759 1757 1760
3365 5 1759 1757 1777
3366 7 1760 1757 1777
3367 8 1757 1760 1761
3368 6 1760 1761 1762
3369 6 1760 1761 1763
3370 9 1760 1761 1764
3371 4 1762 1761 1763
3372 6 1762 1761 1764
3373 6 1763 1761 1764
3374 8 1761 1764 1765
3375 6 1764 1765 1766
3376 6 1764 1765 1767
3377 9 1764 1765 1768
3378 4 1766 1765 1767
3379 6 1766 1765 1768
3380 6 1767 1765 1768
3381 8 1765 1768 1769
3382 6 1768 1769 1770
3383 6 1768 1769 1771
3384 9 1768 1769 1772
3385 4 1770 1769 1771
3386 6 1770 1769 1772
3387 6 1771 1769 1772
3388 8 1769 1772 1773
3389 6 1772 1773 1774
3390 6 1772 1773 1775
3391 9 1772 1773 1776
3392 4 1774 1773 1775
3393 6 1774 1773 1776
3394 6 1775 1773 1776
3395 10 1773 1776 41
3396 11 40 1777 1757
3397 4 1779 1778 1780
3398 6 1779 1778 1781
3399 5 1779 1778 1798
3400 6 1780 1778 1781
3401 5 1780 1778 1798
3402 7 1781 1778 1798
3403 8 1778 1781 1782
3404 6 1781 1782 1783
3405 6 1781 1782 1784
3406 9 1781 1782 1785
3407 4 1783 1782 1784
3408 6 1783 1782 1785
3409 6 1784 1782 1785
3410 8 1782 1785 1786
3411 6 1785 1786 1787
3412 6 1785 1786 1788
3413 9 1785 1786 1789
3414 4 1787 1786 1788
3415 6 1787 1786 1789
3416 6 1788 1786 1789
3417 8 1786 1789 1790
3418 6 1789 1790 1791
3419 6 1789 1790 1792
3420 9 1789 1790 1793
3421 4 1791 1790 1792
3422 6 1791 1790 1793
3423 6 1792 1790 1793
3424 8 1790 1793 1794
3425 6 1793 1794 1795
3426 6 1793 1794 1796
3427 9 1793 1794 1797
3428 4 1795 1794 1796
3429 6 1795 1794 1797
3430 6 1796 1794 1797
3431 10 1794 1797 69
3432 11 40 1798 1778
3433 4 1800 1799 1801
3434 6 1800 1799 1802
3435 5 1800 1799 1819
3436 6 1801 1799 1802
3437 5 1801 1799 1819
3438 7 1802 1799 1819
3439 8 1799 1802 1803
3440 6 1802 1803 1804
3441 6 1802 1803 1805
3442 9 1802 1803 1806
3443 4 1804 1803 1805
3444 6 1804 1803 1806
3445 6 1805 1803 1806
3446 8 1803 1806 1807
3447 6 1806 1807 1808
3448 6 1806 1807 1809
3449 9 1806 1807 1810
3450 4 1808 1807 1809
3451 6 1808 1807 1810
3452 6 1809 1807 1810
3453 8 1807 1810 1811
3454 6 1810 1811 1812
3455 6 1810 1811 1813
3456 9 1810 1811 1814
3457 4 1812 1811 1813
3458 6 1812 1811 1814
3459 6 1813 1811 1814
3460 8 1811 1814 1815
3461 6 1814 1815 1816
3462 6 1814 1815 1817
3463 9 1814 1815 1818
3464 4 1816 1815 1817
3465 6 1816 1815 1818
3466 6 1817 1815 1818
3467 10 1815 1818 42
3468 11 41 1819 1799
3469 4 1821 1820 1822
3470 6 1821 1820 1823
3471 5 1821 1820 1840
3472 6 1822 1820 1823
3473 5 1822 1820 1840
3474 7 1823 1820 1840
3475 8 1820 1823 1824
3476 6 1823 1824 1825
3477 6 1823 1824 1826
3478 9 1823 1824 1827
3479 4 1825 1824 1826
3480 6 1825 1824 1827
3481 6 1826 1824 1827
3482 8 1824 1827 1828
3483 6 1827 1828 1829
3484 6 1827 1828 1830
3485 9 1827 1828 1831
3486 4 1829 1828 1830
3487 6 1829 1828 1831
3488 6 1830 1828 1831
3489 8 1828 1831 1832
3490 6 1831 1832 1833
3491 6 1831 1832 1834
3492 9 1831 1832 1835
3493 4 1833 1832 1834
3494 6 1833 1832 1835
3495 6 1834 1832 1835
3496 8 1832 1835 1836
3497 6 1835 1836 1837
3498 6 1835 1836 1838
3499 9 1835 1836 1839
3500 4 1837 1836 1838
3501 6 1837 1836 1839
3502 6 1838 1836 1839
3503 10 1836 1839 45
3504 11 41 1840 1820
3505 4 1842 1841 1843
3506 6 1842 1841 1844
3507 5 1842 1841 1861
3508 6 1843 1841 1844
3509 5 1843 1841 1861
3510 7 1844 1841 1861
3511 8 1841 1844 1845
3512 6 1844 1845 1846
3513 6 1844 1845 1847
3514 9 1844 1845 1848
3515 4 1846 1845 1847
3516 6 1846 1845 1848
3517 6 1847 1845 1848
3518 8 1845 1848 1849
3519 6 1848 1849 1850
3520 6 1848 1849 1851
3521 9 1848 1849 1852
3522 4 1850 1849 1851
3523 6 1850 1849 1852
3524 6 1851 1849 1852
3525 8 1849 1852 1853
3526 6 1852 1853 1854
3527 6 1852 1853 1855
3528 9 1852 1853 1856
3529 4 1854 1853 1855
3530 6 1854 1853 1856
3531 6 1855 1853 1856
3532 8 1853 1856 1857
3533 6 1856 1857 1858
3534 6 1856 1857 1859
3535 9 1856 1857 1860
3536 4 1858 1857 1859
3537 6 1858 1857 1860
3538 6 1859 1857 1860
3539 10 1857 1860 70
3540 11 41 1861 1841
3541 4 1863 1862 1864
3542 6 1863 1862 1865
3543 5 1863 1862 1882
3544 6 1864 1862 1865
3545 5 1864 1862 1882
3546 7 1865 1862 1882
3547 8 1862 1865 1866
3548 6 1865 1866 1867
3549 6 1865 1866 1868
3550 9 1865 1866 1869
3551 4 1867 1866 1868
3552 6 1867 1866 1869
3553 6 1868 1866 1869
3554 8 1866 1869 1870
3555 6 1869 1870 1871
3556 6 1869 1870 1872
3557 9 1869 1870 1873
3558 4 1871 1870 1872
3559 6 1871 1870 1873
3560 6 1872 1870 1873
3561 8 1870 1873 1874
3562 6 1873 1874 1875
3563 6 1873 1874 1876
3564 9 1873 1874 1877
3565 4 1875 1874 1876
3566 6 1875 1874 1877
3567 6 1876 1874 1877
3568 8 1874 1877 1878
3569 6 1877 1878 1879
3570 6 1877 1878 1880
3571 9 1877 1878 1881
3572 4 1879 1878 1880
3573 6 1879 1878 1881
3574 6 1880 1878 1881
3575 10 1878 1881 46
3576 11 42 1882 1862
3577 4 1884 1883 1885
3578 6 1884 1883 1886
3579 5 1884 1883 1903
3580 6 1885 1883 1886
3581 5 1885 1883 1903
3582 7 1886 1883 1903
3583 8 1883 1886 1887
3584 6 1886 1887 1888
3585 6 1886 1887 1889
3586 9 1886 1887 1890
3587 4 1888 1887 1889
3588 6 1888 1887 1890
3589 6 1889 1887 1890
3590 8 1887 1890 1891
3591 6 1890 1891 1892
3592 6 1890 1891 1893
3593 9 1890 1891 1894
3594 4 1892 1891 1893
3595 6 1892 1891 1894
3596 6 1893 1891 1894
3597 8 1891 1894 1895
3598 6 1894 1895 1896
3599 6 1894 1895 1897
3600 9 1894 1895 1898
3601 4 1896 1895 1897
3602 6 1896 1895 1898
3603 6 1897 1895 1898
3604 8 1895 1898 1899
3605 6 1898 1899 1900
3606 6 1898 1899 1901
3607 9 1898 1899 1902
3608 4 1900 1899 1901
3609 6 1900 1899 1902
3610 6 1901 1899 1902
3611 10 1899 1902 71
3612 11 42 1903 1883
3613 4 1905 1904 1906
3614 6 1905 1904 1907
3615 5 1905 1904 1924
3616 6 1906 1904 1907
3617 5 1906 1904 1924
3618 7 1907 1904 1924
3619 8 1904 1907 1908
3620 6 1907 1908 1909
3621 6 1907 1908 1910
3622 9 1907 1908 1911
3623 4 1909 1908 1910
3624 6 1909 1908 1911
3625 6 1910 1908 1911
3626 8 1908 1911 1912
3627 6 1911 1912 1913
3628 6 1911 1912 1914
3629 9 1911 1912 1915
3630 4 1913 1912 1914
3631 6 1913 1912 1915
3632 6 1914 1912 1915
3633 8 1912 1915 1916
3634 6 1915 1916 1917
3635 6 1915 1916 1918
3636 9 1915 1916 1919
3637 4 1917 1916 1918
3638 6 1917 1916 1919
3639 6 1918 1916 1919
3640 8 1916 1919 1920
3641 6 1919 1920 1921
3642 6 1919 1920 1922
3643 9 1919 1920 1923
3644 4 1921 1920 1922
3645 6 1921 1920 1923
3646 6 1922 1920 1923
3647 10 1920 1923 47
3648 11 43 1924 1904
3649 4 1926 1925 1927
3650 6 1926 1925 1928
3651 5 1926 1925 1945
3652 6 1927 1925 1928
3653 5 1927 1925 1945
3654 7 1928 1925 1945
3655 8 1925 1928 1929
3656 6 1928 1929 1930
3657 6 1928 1929 1931
3658 9 1928 1929 1932
3659 4 1930 1929 1931
3660 6 1930 1929 1932
3661 6 1931 1929 1932
3662 8 1929 1932 1933
3663 6 1932 1933 1934
3664 6 1932 1933 1935
3665 9 1932 1933 1936
3666 4 1934 1933 1935
3667 6 1934 1933 1936
3668 6 1935 1933 1936
3669 8 1933 1936 1937
3670 6 1936 1937 1938
3671 6 1936 1937 1939
3672 9 1936 1937 1940
3673 4 1938 1937 1939
3674 6 1938 1937 1940
3675 6 1939 1937 1940
3676 8 1937 1940 1941
3677 6 1940 1941 1942
3678 6 1940 1941 1943
3679 9 1940 1941 1944
3680 4 1942 1941 1943
3681 6 1942 1941 1944
3682 6 1943 1941 1944
3683 10 1941 1944 46
3684 11 43 1945 1925
3685 4 1947 1946 1948
3686 6 1947 1946 1949
3687 5 1947 1946 1966
3688 6 1948 1946 1949
3689 5 1948 1946 1966
3690 7 1949 1946 1966
3691 8 1946 1949 1950
3692 6 1949 1950 1951
3693 6 1949 1950 1952
3694 9 1949 1950 1953
3695 4 1951 1950 1952
3696 6 1951 1950 1953
3697 6 1952 1950 1953
3698 8 1950 1953 1954
3699 6 1953 1954 1955
3700 6 1953 1954 1956
3701 9 1953 1954 1957
3702 4 1955 1954 1956
3703 6 1955 1954 1957
3704 6 1956 1954 1957
3705 8 1954 1957 1958
3706 6 1957 1958 1959
3707 6 1957 1958 1960
3708 9 1957 1958 1961
3709 4 1959 1958 1960
3710 6 1959 1958 1961
3711 6 1960 1958 1961
3712 8 1958 1961 1962
3713 6 1961 1962 1963
3714 6 1961 1962 1964
3715 9 1961 1962 1965
3716 4 1963 1962 1964
3717 6 1963 1962 1965
3718 6 1964 1962 1965
3719 10 1962 1965 45
3720 11 44 1966 1946
3721 4 1968 1967 1969
3722 6 1968 1967 1970
3723 5 1968 1967 1987
3724 6 1969 1967 1970
3725 5 1969 1967 1987
3726 7 1970 1967 1987
3727 8 1967 1970 1971
3728 6 1970 1971 1972
3729 6 1970 1971 1973
3730 9 1970 1971 1974
3731 4 1972 1971 1973
3732 6 1972 1971 1974
3733 6 1973 1971 1974
3734 8 1971 1974 1975
3735 6 1974 1975 1976
3736 6 1974 1975 1977
3737 9 1974 1975 1978
3738 4 1976 1975 1977
3739 6 1976 1975 1978
3740 6 1977 1975 1978
3741 8 1975 1978 1979
3742 6 1978 1979 1980
3743 6 1978 1979 1981
3744 9 1978 1979 1982
3745 4 1980 1979 1981
3746 6 1980 1979 1982
3747 6 1981 1979 1982
3748 8 1979 1982 1983
3749 6 1982 1983 1984
3750 6 1982 1983 1985
3751 9 1982 1983 1986
3752 4 1984 1983 1985
3753 6 1984 1983 1986
3754 6 1985 1983 1986
3755 10 1983 1986 73
3756 11 44 1987 1967
3757 4 1989 1988 1990
3758 6 1989 1988 1991
3759 5 1989 1988 2008
3760 6 1990 1988 1991
3761 5 1990 1988 2008
3762 7 1991 1988 2008
3763 8 1988 1991 1992
3764 6 1991 1992 1993
3765 6 1991 1992 1994
3766 9 1991 1992 1995
3767 4 1993 1992 1994
3768 6 1993 1992 1995
3769 6 1994 1992 1995
3770 8 1992 1995 1996
3771 6 1995 1996 1997
3772 6 1995 1996 1998
3773 9 1995 1996 1999
3774 4 1997 1996 1998
3775 6 1997 1996 1999
3776 6 1998 1996 1999
3777 8 1996 1999 2000
3778 6 1999 2000 2001
3779 6 1999 2000 2002
3780 9 1999 2000 2003
3781 4 2001 2000 2002
3782 6 2001 2000 2003
3783 6 2002 2000 2003
3784 8 2000 2003 2004
3785 6 2003 2004 2005
3786 6 2003 2004 2006
3787 9 2003 2004 2007
3788 4 2005 2004 2006
3789 6 2005 2004 2007
3790 6 2006 2004 2007
3791 10 2004 2007 53
3792 11 45 2008 1988
3793 4 2010 2009 2011
3794 6 2010 2009 2012
3795 5 2010 2009 2029
3796 6 2011 2009 2012
3797 5 2011 2009 2029
3798 7 2012 2009 2029
3799 8 2009 2012 2013
3800 6 2012 2013 2014
3801 6 2012 2013 2015
3802 9 2012 2013 2016
3803 4 2014 2013 2015
3804 6 2014 2013 2016
3805 6 2015 2013 2016
3806 8 2013 2016 2017
3807 6 2016 2017 2018
3808 6 2016 2017 2019
3809 9 2016 2017 2020
3810 4 2018 2017 2019
3811 6 2018 2017 2020
3812 6 2019 2017 2020
3813 8 2017 2020 2021
3814 6 2020 2021 2022
3815 6 2020 2021 2023
3816 9 2020 2021 2024
3817 4 2022 2021 2023
3818 6 2022 2021 2024
3819 6 2023 2021 2024
3820 8 2021 2024 2025
3821 6 2024 2025 2026
3822 6 2024 2025 2027
3823 9 2024 2025 2028
3824 4 2026 2025 2027
3825 6 2026 2025 2028
3826 6 2027 2025 2028
3827 10 2025 2028 54
3828 11 46 2029 2009
3829 4 2031 2030 2032
3830 6 2031 2030 2033
3831 5 2031 2030 2050
3832 6 2032 2030 2033
3833 5 2032 2030 2050
3834 7 2033 2030 2050
3835 8 2030 2033 2034
3836 6 2033 2034 2035
3837 6 2033 2034 2036
3838 9 2033 2034 2037
3839 4 2035 2034 2036
3840 6 2035 2034 2037
3841 6 2036 2034 2037
3842 8 2034 2037 2038
3843 6 2037 2038 2039
3844 6 2037 2038 2040
3845 9 2037 2038 2041
3846 4 2039 2038 2040
3847 6 2039 2038 2041
3848 6 2040 2038 2041
3849 8 2038 2041 2042
3850 6 2041 2042 2043
3851 6 2041 2042 2044
3852 9 2041 2042 2045
3853 4 2043 2042 2044
3854 6 2043 2042 2045
3855 6 2044 2042 2045
3856 8 2042 2045 2046
3857 6 2045 2046 2047
3858 6 2045 2046 2048
3859 9 2045 2046 2049
3860 4 2047 2046 2048
3861 6 2047 2046 2049
3862 6 2048 2046 2049
3863 10 2046 2049 76
3864 11 47 2050 2030
3865 4 2052 2051 2053
3866 6 2052 2051 2054
3867 5 2052 2051 2071
3868 6 2053 2051 2054
3869 5 2053 2051 2071
3870 7 2054 2051 2071
3871 8 2051 2054 2055
3872 6 2054 2055 2056
3873 6 2054 2055 2057
3874 9 2054 2055 2058
3875 4 2056 2055 2057
3876 6 2056 2055 2058
3877 6 2057 2055 2058
3878 8 2055 2058 2059
3879 6 2058 2059 2060
3880 6 2058 2059 2061
3881 9 2058 2059 2062
3882 4 2060 2059 2061
3883 6 2060 2059 2062
3884 6 2061 2059 2062
3885 8 2059 2062 2063
3886 6 2062 2063 2064
3887 6 2062 2063 2065
3888 9 2062 2063 2066
3889 4 2064 2063 2065
3890 6 2064 2063 2066
3891 6 2065 2063 2066
3892 8 2063 2066 2067
3893 6 2066 2067 2068
3894 6 2066 2067 2069
3895 9 2066 2067 2070
3896 4 2068 2067 2069
3897 6 2068 2067 2070
3898 6 2069 2067 2070
3899 10 2067 2070 77
3900 11 48 2071 2051
3901 4 2073 2072 2074
3902 6 2073 2072 2075
3903 5 2073 2072 2092
3904 6 2074 2072 2075
3905 5 2074 2072 2092
3906 7 2075 2072 2092
3907 8 2072 2075 2076
3908 6 2075 2076 2077
3909 6 2075 2076 2078
3910 9 2075 2076 2079
3911 4 2077 2076 2078
3912 6 2077 2076 2079
3913 6 2078 2076 2079
3914 8 2076 2079 2080
3915 6 2079 2080 2081
3916 6 2079 2080 2082
3917 9 2079 2080 2083
3918 4 2081 2080 2082
3919 6 2081 2080 2083
3920 6 2082 2080 2083
3921 8 2080 2083 2084
3922 6 2083 2084 2085
3923 6 2083 2084 2086
3924 9 2083 2084 2087
3925 4 2085 2084 2086
3926 6 2085 2084 2087
3927 6 2086 2084 2087
3928 8 2084 2087 2088
3929 6 2087 2088 2089
3930 6 2087 2088 2090
3931 9 2087 2088 2091
3932 4 2089 2088 2090
3933 6 2089 2088 2091
3934 6 2090 2088 2091
3935 10 2088 2091 54
3936 11 53 2092 2072
3937 4 2094 2093 2095
3938 6 2094 2093 2096
3939 5 2094 2093 2113
3940 6 2095 2093 2096
3941 5 2095 2093 2113
3942 7 2096 2093 2113
3943 8 2093 2096 2097
3944 6 2096 2097 2098
3945 6 2096 2097 2099
3946 9 2096 2097 2100
3947 4 2098 2097 2099
3948 6 2098 2097 2100
3949 6 2099 2097 2100
3950 8 2097 2100 2101
3951 6 2100 2101 2102
3952 6 2100 2101 2103
3953 9 2100 2101 2104
3954 4 2102 2101 2103
3955 6 2102 2101 2104
3956 6 2103 2101 2104
3957 8 2101 2104 2105
3958 6 2104 2105 2106
3959 6 2104 2105 2107
3960 9 2104 2105 2108
3961 4 2106 2105 2107
3962 6 2106 2105 2108
3963 6 2107 2105 2108
3964 8 2105 2108 2109
3965 6 2108 2109 2110
3966 6 2108 2109 2111
3967 9 2108 2109 2112
3968 4 2110 2109 2111
3969 6 2110 2109 2112
3970 6 2111 2109 2112
3971 10 2109 2112 83
3972 11 54 2113 2093
3973 4 2115 2114 2116
3974 6 2115 2114 2117
3975 5 2115 2114 2134
3976 6 2116 2114 2117
3977 5 2116 2114 2134
3978 7 2117 2114 2134
3979 8 2114 2117 2118
3980 6 2117 2118 2119
3981 6 2117 2118 2120
3982 9 2117 2118 2121
3983 4 2119 2118 2120
3984 6 2119 2118 2121
3985 6 2120 2118 2121
3986 8 2118 2121 2122
3987 6 2121 2122 2123
3988 6 2121 2122 2124
3989 9 2121 2122 2125
3990 4 2123 2122 2124
3991 6 2123 2122 2125
3992 6 2124 2122 2125
3993 8 2122 2125 2126
3994 6 2125 2126 2127
3995 6 2125 2126 2128
3996 9 2125 2126 2129
3997 4 2127 2126 2128
3998 6 2127 2126 2129
3999 6 2128 2126 2129
4000 8 2126 2129 2130
4001 6 2129 2130 2131
4002 6 2129 2130 2132
4003 9 2129 2130 2133
4004 4 2131 2130 2132
4005 6 2131 2130 2133
4006 6 2132 2130 2133
4007 10 2130 2133 60
4008 11 59 2134 2114
4009 4 2136 2135 2137
4010 6 2136 2135 2138
4011 5 2136 2135 2155
4012 6 2137 2135 2138
4013 5 2137 2135 2155
4014 7 2138 2135 2155
4015 8 2135 2138 2139
4016 6 2138 2139 2140
4017 6 2138 2139 2141
4018 9 2138 2139 2142
4019 4 2140 2139 2141
4020 6 2140 2139 2142
4021 6 2141 2139 2142
4022 8 2139 2142 2143
4023 6 2142 2143 2144
4024 6 2142 2143 2145
4025 9 2142 2143 2146
4026 4 2144 2143 2145
4027 6 2144 2143 2146
4028 6 2145 2143 2146
4029 8 2143 2146 2147
4030 6 2146 2147 2148
4031 6 2146 2147 2149
4032 9 2146 2147 2150
4033 4 2148 2147 2149
4034 6 2148 2147 2150
4035 6 2149 2147 2150
4036 8 2147 2150 2151
4037 6 2150 2151 2152
4038 6 2150 2151 2153
4039 9 2150 2151 2154
4040 4 2152 2151 2153
4041 6 2152 2151 2154
4042 6 2153 2151 2154
4043 10 2151 2154 64
4044 11 59 2155 2135
4045 4 2157 2156 2158
4046 6 2157 2156 2159
4047 5 2157 2156 2176
4048 6 2158 2156 2159
4049 5 2158 2156 2176
4050 7 2159 2156 2176
4051 8 2156 2159 2160
4052 6 2159 2160 2161
4053 6 2159 2160 2162
4054 9 2159 2160 2163
4055 4 2161 2160 2162
4056 6 2161 2160 2163
4057 6 2162 2160 2163
4058 8 2160 2163 2164
4059 6 2163 2164 2165
4060 6 2163 2164 2166
4061 9 2163 2164 2167
4062 4 2165 2164 2166
4063 6 2165 2164 2167
4064 6 2166 2164 2167
4065 8 2164 2167 2168
4066 6 2167 2168 2169
4067 6 2167 2168 2170
4068 9 2167 2168 2171
4069 4 2169 2168 2170
4070 6 2169 2168 2171
4071 6 2170 2168 2171
4072 8 2168 2171 2172
4073 6 2171 2172 2173
4074 6 2171 2172 2174
4075 9 2171 2172 2175
4076 4 2173 2172 2174
4077 6 2173 2172 2175
4078 6 2174 2172 2175
4079 10 2172 2175 89
4080 11 59 2176 2156
4081 4 2178 2177 2179
4082 6 2178 2177 2180
4083 5 2178 2177 2197
4084 6 2179 2177 2180
4085 5 2179 2177 2197
4086 7 2180 2177 2197
4087 8 2177 2180 2181
4088 6 2180 2181 2182
4089 6 2180 2181 2183
4090 9 2180 2181 2184
4091 4 2182 2181 2183
4092 6 2182 2181 2184
4093 6 2183 2181 2184
4094 8 2181 2184 2185
4095 6 2184 2185 2186
4096 6 2184 2185 2187
4097 9 2184 2185 2188
4098 4 2186 2185 2187
4099 6 2186 2185 2188
4100 6 2187 2185 2188
4101 8 2185 2188 2189
4102 6 2188 2189 2190
4103 6 2188 2189 2191
4104 9 2188 2189 2192
4105 4 2190 2189 2191
4106 6 2190 2189 2192
4107 6 2191 2189 2192
4108 8 2189 2192 2193
4109 6 2192 2193 2194
4110 6 2192 2193 2195
4111 9 2192 2193 2196
4112 4 2194 2193 2195
4113 6 2194 2193 2196
4114 6 2195 2193 2196
4115 10 2193 2196 65
4116 11 60 2197 2177
4117 4 2199 2198 2200
4118 6 2199 2198 2201
4119 5 2199 2198 2218
4120 6 2200 2198 2201
4121 5 2200 2198 2218
4122 7 2201 2198 2218
4123 8 2198 2201 2202
4124 6 2201 2202 2203
4125 6 2201 2202 2204
4126 9 2201 2202 2205
4127 4 2203 2202 2204
4128 6 2203 2202 2205
4129 6 2204 2202 2205
4130 8 2202 2205 2206
4131 6 2205 2206 2207
4132 6 2205 2206 2208
4133 9 2205 2206 2209
4134 4 2207 2206 2208
4135 6 2207 2206 2209
4136 6 2208 2206 2209
4137 8 2206 2209 2210
4138 6 2209 2210 2211
4139 6 2209 2210 2212
4140 9 2209 2210 2213
4141 4 2211 2210 2212
4142 6 2211 2210 2213
4143 6 2212 2210 2213
4144 8 2210 2213 2214
4145 6 2213 2214 2215
4146 6 2213 2214 2216
4147 9 2213 2214 2217
4148 4 2215 2214 2216
4149 6 2215 2214 2217
4150 6 2216 2214 2217
4151 10 2214 2217 90
4152 11 60 2218 2198
4153 4 2220 2219 2221
4154 6 2220 2219 2222
4155 5 2220 2219 2239
4156 6 2221 2219 2222
4157 5 2221 2219 2239
4158 7 2222 2219 2239
4159 8 2219 2222 2223
4160 6 2222 2223 2224
4161 6 2222 2223 2225
4162 9 2222 2223 2226
4163 4 2224 2223 2225
4164 6 2224 2223 2226
4165 6 2225 2223 2226
4166 8 2223 2226 2227
4167 6 2226 2227 2228
4168 6 2226 2227 2229
4169 9 2226 2227 2230
4170 4 2228 2227 2229
4171 6 2228 2227 2230
4172 6 2229 2227 2230
4173 8 2227 2230 2231
4174 6 2230 2231 2232
4175 6 2230 2231 2233
4176 9 2230 2231 2234
4177 4 2232 2231 2233
4178 6 2232 2231 2234
4179 6 2233 2231 2234
4180 8 2231 2234 2235
4181 6 2234 2235 2236
4182 6 2234 2235 2237
4183 9 2234 2235 2238
4184 4 2236 2235 2237
4185 6 2236 2235 2238
4186 6 2237 2235 2238
4187 10 2235 2238 82
4188 11 60 2239 2219
4189 4 2241 2240 2242
4190 6 2241 2240 2243
4191 5 2241 2240 2260
4192 6 2242 2240 2243
4193 5 2242 2240 2260
4194 7 2243 2240 2260
4195 8 2240 2243 2244
4196 6 2243 2244 2245
4197 6 2243 2244 2246
4198 9 2243 2244 2247
4199 4 2245 2244 2246
4200 6 2245 2244 2247
4201 6 2246 2244 2247
4202 8 2244 2247 2248
4203 6 2247 2248 2249
4204 6 2247 2248 2250
4205 9 2247 2248 2251
4206 4 2249 2248 2250
4207 6 2249 2248 2251
4208 6 2250 2248 2251
4209 8 2248 2251 2252
4210 6 2251 2252 2253
4211 6 2251 2252 2254
4212 9 2251 2252 2255
4213 4 2253 2252 2254
4214 6 2253 2252 2255
4215 6 2254 2252 2255
4216 8 2252 2255 2256
4217 6 2255 2256 2257
4218 6 2255 2256 2258
4219 9 2255 2256 2259
4220 4 2257 2256 2258
4221 6 2257 2256 2259
4222 6 2258 2256 2259
4223 10 2256 2259 66
4224 11 61 2260 2240
4225 4 2262 2261 2263
4226 6 2262 2261 2264
4227 5 2262 2261 2281
4228 6 2263 2261 2264
4229 5 2263 2261 2281
4230 7 2264 2261 2281
4231 8 2261 2264 2265
4232 6 2264 2265 2266
4233 6 2264 2265 2267
4234 9 2264 2265 2268
4235 4 2266 2265 2267
4236 6 2266 2265 2268
4237 6 2267 2265 2268
4238 8 2265 2268 2269
4239 6 2268 2269 2270
4240 6 2268 2269 2271
4241 9 2268 2269 2272
4242 4 2270 2269 2271
4243 6 2270 2269 2272
4244 6 2271 2269 2272
4245 8 2269 2272 2273
4246 6 2272 2273 2274
4247 6 2272 2273 2275
4248 9 2272 2273 2276
4249 4 2274 2273 2275
4250 6 2274 2273 2276
4251 6 2275 2273 2276
4252 8 2273 2276 2277
4253 6 2276 2277 2278
4254 6 2276 2277 2279
4255 9 2276 2277 2280
4256 4 2278 2277 2279
4257 6 2278 2277 2280
4258 6 2279 2277 2280
4259 10 2277 2280 91
4260 11 61 2281 2261
4261 4 2283 2282 2284
4262 6 2283 2282 2285
4263 5 2283 2282 2302
4264 6 2284 2282 2285
4265 5 2284 2282 2302
4266 7 2285 2282 2302
4267 8 2282 2285 2286
4268 6 2285 2286 2287
4269 6 2285 2286 2288
4270 9 2285 2286 2289
4271 4 2287 2286 2288
4272 6 2287 2286 2289
4273 6 2288 2286 2289
4274 8 2286 2289 2290
4275 6 2289 2290 2291
4276 6 2289 2290 2292
4277 9 2289 2290 2293
4278 4 2291 2290 2292
4279 6 2291 2290 2293
4280 6 2292 2290 2293
4281 8 2290 2293 2294
4282 6 2293 2294 2295
4283 6 2293 2294 2296
4284 9 2293 2294 2297
4285 4 2295 2294 2296
4286 6 2295 2294 2297
4287 6 2296 2294 2297
4288 8 2294 2297 2298
4289 6 2297 2298 2299
4290 6 2297 2298 2300
4291 9 2297 2298 2301
4292 4 2299 2298 2300
4293 6 2299 2298 2301
4294 6 2300 2298 2301
4295 10 2298 2301 83
4296 11 61 2302 2282
4297 4 2304 2303 2305
4298 6 2304 2303 2306
4299 5 2304 2303 2323
4300 6 2305 2303 2306
4301 5 2305 2303 2323
4302 7 2306 2303 2323
4303 8 2303 2306 2307
4304 6 2306 2307 2308
4305 6 2306 2307 2309
4306 9 2306 2307 2310
4307 4 2308 2307 2309
4308 6 2308 2307 2310
4309 6 2309 2307 2310
4310 8 2307 2310 2311
4311 6 2310 2311 2312
4312 6 2310 2311 2313
4313 9 2310 2311 2314
4314 4 2312 2311 2313
4315 6 2312 2311 2314
4316 6 2313 2311 2314
4317 8 2311 2314 2315
4318 6 2314 2315 2316
4319 6 2314 2315 2317
4320 9 2314 2315 2318
4321 4 2316 2315 2317
4322 6 2316 2315 2318
4323 6 2317 2315 2318
4324 8 2315 2318 2319
4325 6 2318 2319 2320
4326 6 2318 2319 2321
4327 9 2318 2319 2322
4328 4 2320 2319 2321
4329 6 2320 2319 2322
4330 6 2321 2319 2322
4331 10 2319 2322 63
4332 11 62 2323 2303
4333 4 2325 2324 2326
4334 6 2325 2324 2327
4335 5 2325 2324 2344
4336 6 2326 2324 2327
4337 5 2326 2324 2344
4338 7 2327 2324 2344
4339 8 2324 2327 2328
4340 6 2327 2328 2329
4341 6 2327 2328 2330
4342 9 2327 2328 2331
4343 4 2329 2328 2330
4344 6 2329 2328 2331
4345 6 2330 2328 2331
4346 8 2328 2331 2332
4347 6 2331 2332 2333
4348 6 2331 2332 2334
4349 9 2331 2332 2335
4350 4 2333 2332 2334
4351 6 2333 2332 2335
4352 6 2334 2332 2335
4353 8 2332 2335 2336
4354 6 2335 2336 2337
4355 6 2335 2336 2338
4356 9 2335 2336 2339
4357 4 2337 2336 2338
4358 6 2337 2336 2339
4359 6 2338 2336 2339
4360 8 2336 2339 2340
4361 6 2339 2340 2341
4362 6 2339 2340 2342
4363 9 2339 2340 2343
4364 4 2341 2340 2342
4365 6 2341 2340 2343
4366 6 2342 2340 2343
4367 10 2340 2343 67
4368 11 62 2344 2324
4369 4 2346 2345 2347
4370 6 2346 2345 2348
4371 5 2346 2345 2365
4372 6 2347 2345 2348
4373 5 2347 2345 2365
4374 7 2348 2345 2365
4375 8 2345 2348 2349
4376 6 2348 2349 2350
4377 6 2348 2349 2351
4378 9 2348 2349 2352
4379 4 2350 2349 2351
4380 6 2350 2349 2352
4381 6 2351 2349 2352
4382 8 2349 2352 2353
4383 6 2352 2353 2354
4384 6 2352 2353 2355
4385 9 2352 2353 2356
4386 4 2354 2353 2355
4387 6 2354 2353 2356
4388 6 2355 2353 2356
4389 8 2353 2356 2357
4390 6 2356 2357 2358
4391 6 2356 2357 2359
4392 9 2356 2357 2360
4393 4 2358 2357 2359
4394 6 2358 2357 2360
4395 6 2359 2357 2360
4396 8 2357 2360 2361
4397 6 2360 2361 2362
4398 6 2360 2361 2363
4399 9 2360 2361 2364
4400 4 2362 2361 2363
4401 6 2362 2361 2364
4402 6 2363 2361 2364
4403 10 2361 2364 92
4404 11 62 2365 2345
4405 4 2367 2366 2368
4406 6 2367 2366 2369
4407 5 2367 2366 2386
4408 6 2368 2366 2369
4409 5 2368 2366 2386
4410 7 2369 2366 2386
4411 8 2366 2369 2370
4412 6 2369 2370 2371
4413 6 2369 2370 2372
4414 9 2369 2370 2373
4415 4 2371 2370 2372
4416 6 2371 2370 2373
4417 6 2372 2370 2373
4418 8 2370 2373 2374
4419 6 2373 2374 2375
4420 6 2373 2374 2376
4421 9 2373 2374 2377
4422 4 2375 2374 2376
4423 6 2375 2374 2377
4424 6 2376 2374 2377
4425 8 2374 2377 2378
4426 6 2377 2378 2379
4427 6 2377 2378 2380
4428 9 2377 2378 2381
4429 4 2379 2378 2380
4430 6 2379 2378 2381
4431 6 2380 2378 2381
4432 8 2378 2381 2382
4433 6 2381 2382 2383
4434 6 2381 2382 2384
4435 9 2381 2382 2385
4436 4 2383 2382 2384
4437 6 2383 2382 2385
4438 6 2384 2382 2385
4439 10 2382 2385 66
4440 11 62 2386 2366
4441 4 2388 2387 2389
4442 6 2388 2387 2390
4443 5 2388 2387 2407
4444 6 2389 2387 2390
4445 5 2389 2387 2407
4446 7 2390 2387 2407
4447 8 2387 2390 2391
4448 6 2390 2391 2392
4449 6 2390 2391 2393
4450 9 2390 2391 2394
4451 4 2392 2391 2393
4452 6 2392 2391 2394
4453 6 2393 2391 2394
4454 8 2391 2394 2395
4455 6 2394 2395 2396
4456 6 2394 2395 2397
4457 9 2394 2395 2398
4458 4 2396 2395 2397
4459 6 2396 2395 2398
4460 6 2397 2395 2398
4461 8 2395 2398 2399
4462 6 2398 2399 2400
4463 6 2398 2399 2401
4464 9 2398 2399 2402
4465 4 2400 2399 2401
4466 6 2400 2399 2402
4467 6 2401 2399 2402
4468 8 2399 2402 2403
4469 6 2402 2403 2404
4470 6 2402 2403 2405
4471 9 2402 2403 2406
4472 4 2404 2403 2405
4473 6 2404 2403 2406
4474 6 2405 2403 2406
4475 10 2403 2406 68
4476 11 63 2407 2387
4477 4 2409 2408 2410
4478 6 2409 2408 2411
4479 5 2409 2408 2428
4480 6 2410 2408 2411
4481 5 2410 2408 2428
4482 7 2411 2408 2428
4483 8 2408 2411 2412
4484 6 2411 2412 2413
4485 6 2411 2412 2414
4486 9 2411 2412 2415
4487 4 2413 2412 2414
4488 6 2413 2412 2415
4489 6 2414 2412 2415
4490 8 2412 2415 2416
4491 6 2415 2416 2417
4492 6 2415 2416 2418
4493 9 2415 2416 2419
4494 4 2417 2416 2418
4495 6 2417 2416 2419
4496 6 2418 2416 2419
4497 8 2416 2419 2420
4498 6 2419 2420 2421
4499 6 2419 2420 2422
4500 9 2419 2420 2423
4501 4 2421 2420 2422
4502 6 2421 2420 2423
4503 6 2422 2420 2423
4504 8 2420 2423 2424
4505 6 2423 2424 2425
4506 6 2423 2424 2426
4507 9 2423 2424 2427
4508 4 2425 2424 2426
4509 6 2425 2424 2427
4510 6 2426 2424 2427
4511 10 2424 2427 93
4512 11 63 2428 2408
4513 4 2430 2429 2431
4514 6 2430 2429 2432
4515 5 2430 2429 2449
4516 6 2431 2429 2432
4517 5 2431 2429 2449
4518 7 2432 2429 2449
4519 8 2429 2432 2433
4520 6 2432 2433 2434
4521 6 2432 2433 2435
4522 9 2432 2433 2436
4523 4 2434 2433 2435
4524 6 2434 2433 2436
4525 6 2435 2433 2436
4526 8 2433 2436 2437
4527 6 2436 2437 2438
4528 6 2436 2437 2439
4529 9 2436 2437 2440
4530 4 2438 2437 2439
4531 6 2438 2437 2440
4532 6 2439 2437 2440
4533 8 2437 2440 2441
4534 6 2440 2441 2442
4535 6 2440 2441 2443
4536 9 2440 2441 2444
4537 4 2442 2441 2443
4538 6 2442 2441 2444
4539 6 2443 2441 2444
4540 8 2441 2444 2445
4541 6 2444 2445 2446
4542 6 2444 2445 2447
4543 9 2444 2445 2448
4544 4 2446 2445 2447
4545 6 2446 2445 2448
4546 6 2447 2445 2448
4547 10 2445 2448 65
4548 11 64 2449 2429
4549 4 2451 2450 2452
4550 6 2451 2450 2453
4551 5 2451 2450 2470
4552 6 2452 2450 2453
4553 5 2452 2450 2470
4554 7 2453 2450 2470
4555 8 2450 2453 2454
4556 6 2453 2454 2455
4557 6 2453 2454 2456
4558 9 2453 2454 2457
4559 4 2455 2454 2456
4560 6 2455 2454 2457
4561 6 2456 2454 2457
4562 8 2454 2457 2458
4563 6 2457 2458 2459
4564 6 2457 2458 2460
4565 9 2457 2458 2461
4566 4 2459 2458 2460
4567 6 2459 2458 2461
4568 6 2460 2458 2461
4569 8 2458 2461 2462
4570 6 2461 2462 2463
4571 6 2461 2462 2464
4572 9 2461 2462 2465
4573 4 2463 2462 2464
4574 6 2463 2462 2465
4575 6 2464 2462 2465
4576 8 2462 2465 2466
4577 6 2465 2466 2467
4578 6 2465 2466 2468
4579 9 2465 2466 2469
4580 4 2467 2466 2468
4581 6 2467 2466 2469
4582 6 2468 2466 2469
4583 10 2466 2469 71
4584 11 66 2470 2450
4585 4 2472 2471 2473
4586 6 2472 2471 2474
4587 5 2472 2471 2491
4588 6 2473 2471 2474
4589 5 2473 2471 2491
4590 7 2474 2471 2491
4591 8 2471 2474 2475
4592 6 2474 2475 2476
4593 6 2474 2475 2477
4594 9 2474 2475 2478
4595 4 2476 2475 2477
4596 6 2476 2475 2478
4597 6 2477 2475 2478
4598 8 2475 2478 2479
4599 6 2478 2479 2480
4600 6 2478 2479 2481
4601 9 2478 2479 2482
4602 4 2480 2479 2481
4603 6 2480 2479 2482
4604 6 2481 2479 2482
4605 8 2479 2482 2483
4606 6 2482 2483 2484
4607 6 2482 2483 2485
4608 9 2482 2483 2486
4609 4 2484 2483 2485
4610 6 2484 2483 2486
4611 6 2485 2483 2486
4612 8 2483 2486 2487
4613 6 2486 2487 2488
4614 6 2486 2487 2489
4615 9 2486 2487 2490
4616 4 2488 2487 2489
4617 6 2488 2487 2490
4618 6 2489 2487 2490
4619 10 2487 2490 96
4620 11 66 2491 2471
4621 4 2493 2492 2494
4622 6 2493 2492 2495
4623 5 2493 2492 2512
4624 6 2494 2492 2495
4625 5 2494 2492 2512
4626 7 2495 2492 2512
4627 8 2492 2495 2496
4628 6 2495 2496 2497
4629 6 2495 2496 2498
4630 9 2495 2496 2499
4631 4 2497 2496 2498
4632 6 2497 2496 2499
4633 6 2498 2496 2499
4634 8 2496 2499 2500
4635 6 2499 2500 2501
4636 6 2499 2500 2502
4637 9 2499 2500 2503
4638 4 2501 2500 2502
4639 6 2501 2500 2503
4640 6 2502 2500 2503
4641 8 2500 2503 2504
4642 6 2503 2504 2505
4643 6 2503 2504 2506
4644 9 2503 2504 2507
4645 4 2505 2504 2506
4646 6 2505 2504 2507
4647 6 2506 2504 2507
4648 8 2504 2507 2508
4649 6 2507 2508 2509
4650 6 2507 2508 2510
4651 9 2507 2508 2511
4652 4 2509 2508 2510
4653 6 2509 2508 2511
4654 6 2510 2508 2511
4655 10 2508 2511 97
4656 11 67 2512 2492
4657 4 2514 2513 2515
4658 6 2514 2513 2516
4659 5 2514 2513 2533
4660 6 2515 2513 2516
4661 5 2515 2513 2533
4662 7 2516 2513 2533
4663 8 2513 2516 2517
4664 6 2516 2517 2518
4665 6 2516 2517 2519
4666 9 2516 2517 2520
4667 4 2518 2517 2519
4668 6 2518 2517 2520
4669 6 2519 2517 2520
4670 8 2517 2520 2521
4671 6 2520 2521 2522
4672 6 2520 2521 2523
4673 9 2520 2521 2524
4674 4 2522 2521 2523
4675 6 2522 2521 2524
4676 6 2523 2521 2524
4677 8 2521 2524 2525
4678 6 2524 2525 2526
4679 6 2524 2525 2527
4680 9 2524 2525 2528
4681 4 2526 2525 2527
4682 6 2526 2525 2528
4683 6 2527 2525 2528
4684 8 2525 2528 2529
4685 6 2528 2529 2530
4686 6 2528 2529 2531
4687 9 2528 2529 2532
4688 4 2530 2529 2531
4689 6 2530 2529 2532
4690 6 2531 2529 2532
4691 10 2529 2532 71
4692 11 67 2533 2513
4693 4 2535 2534 2536
4694 6 2535 2534 2537
4695 5 2535 2534 2554
4696 6 2536 2534 2537
4697 5 2536 2534 2554
4698 7 2537 2534 2554
4699 8 2534 2537 2538
4700 6 2537 2538 2539
4701 6 2537 2538 2540
4702 9 2537 2538 2541
4703 4 2539 2538 2540
4704 6 2539 2538 2541
4705 6 2540 2538 2541
4706 8 2538 2541 2542
4707 6 2541 2542 2543
4708 6 2541 2542 2544
4709 9 2541 2542 2545
4710 4 2543 2542 2544
4711 6 2543 2542 2545
4712 6 2544 2542 2545
4713 8 2542 2545 2546
4714 6 2545 2546 2547
4715 6 2545 2546 2548
4716 9 2545 2546 2549
4717 4 2547 2546 2548
4718 6 2547 2546 2549
4719 6 2548 2546 2549
4720 8 2546 2549 2550
4721 6 2549 2550 2551
4722 6 2549 2550 2552
4723 9 2549 2550 2553
4724 4 2551 2550 2552
4725 6 2551 2550 2553
4726 6 2552 2550 2553
4727 10 2550 2553 72
4728 11 68 2554 2534
4729 4 2556 2555 2557
4730 6 2556 2555 2558
4731 5 2556 2555 2575
4732 6 2557 2555 2558
4733 5 2557 2555 2575
4734 7 2558 2555 2575
4735 8 2555 2558 2559
4736 6 2558 2559 2560
4737 6 2558 2559 2561
4738 9 2558 2559 2562
4739 4 2560 2559 2561
4740 6 2560 2559 2562
4741 6 2561 2559 2562
4742 8 2559 2562 2563
4743 6 2562 2563 2564
4744 6 2562 2563 2565
4745 9 2562 2563 2566
4746 4 2564 2563 2565
4747 6 2564 2563 2566
4748 6 2565 2563 2566
4749 8 2563 2566 2567
4750 6 2566 2567 2568
4751 6 2566 2567 2569
4752 9 2566 2567 2570
4753 4 2568 2567 2569
4754 6 2568 2567 2570
4755 6 2569 2567 2570
4756 8 2567 2570 2571
4757 6 2570 2571 2572
4758 6 2570 2571 2573
4759 9 2570 2571 2574
4760 4 2572 2571 2573
4761 6 2572 2571 2574
4762 6 2573 2571 2574
4763 10 2571 2574 98
4764 11 68 2575 2555
4765 4 2577 2576 2578
4766 6 2577 2576 2579
4767 5 2577 2576 2596
4768 6 2578 2576 2579
4769 5 2578 2576 2596
4770 7 2579 2576 2596
4771 8 2576 2579 2580
4772 6 2579 2580 2581
4773 6 2579 2580 2582
4774 9 2579 2580 2583
4775 4 2581 2580 2582
4776 6 2581 2580 2583
4777 6 2582 2580 2583
4778 8 2580 2583 2584
4779 6 2583 2584 2585
4780 6 2583 2584 2586
4781 9 2583 2584 2587
4782 4 2585 2584 2586
4783 6 2585 2584 2587
4784 6 2586 2584 2587
4785 8 2584 2587 2588
4786 6 2587 2588 2589
4787 6 2587 2588 2590
4788 9 2587 2588 2591
4789 4 2589 2588 2590
4790 6 2589 2588 2591
4791 6 2590 2588 2591
4792 8 2588 2591 2592
4793 6 2591 2592 2593
4794 6 2591 2592 2594
4795 9 2591 2592 2595
4796 4 2593 2592 2594
4797 6 2593 2592 2595
4798 6 2594 2592 2595
4799 10 2592 2595 70
4800 11 69 2596 2576
4801 4 2598 2597 2599
4802 6 2598 2597 2600
4803 5 2598 2597 2617
4804 6 2599 2597 2600
4805 5 2599 2597 2617
4806 7 2600 2597 2617
4807 8 2597 2600 2601
4808 6 2600 2601 2602
4809 6 2600 2601 2603
4810 9 2600 2601 2604
4811 4 2602 2601 2603
4812 6 2602 2601 2604
4813 6 2603 2601 2604
4814 8 2601 2604 2605
4815 6 2604 2605 2606
4816 6 2604 2605 2607
4817 9 2604 2605 2608
4818 4 2606 2605 2607
4819 6 2606 2605 2608
4820 6 2607 2605 2608
4821 8 2605 2608 2609
4822 6 2608 2609 2610
4823 6 2608 2609 2611
4824 9 2608 2609 2612
4825 4 2610 2609 2611
4826 6 2610 2609 2612
4827 6 2611 2609 2612
4828 8 2609 2612 2613
4829 6 2612 2613 2614
4830 6 2612 2613 2615
4831 9 2612 2613 2616
4832 4 2614 2613 2615
4833 6 2614 2613 2616
4834 6 2615 2613 2616
4835 10 2613 2616 73
4836 11 69 2617 2597
4837 4 2619 2618 2620
4838 6 2619 2618 2621
4839 5 2619 2618 2638
4840 6 2620 2618 2621
4841 5 2620 2618 2638
4842 7 2621 2618 2638
4843 8 2618 2621 2622
4844 6 2621 2622 2623
4845 6 2621 2622 2624
4846 9 2621 2622 2625
4847 4 2623 2622 2624
4848 6 2623 2622 2625
4849 6 2624 2622 2625
4850 8 2622 2625 2626
4851 6 2625 2626 2627
4852 6 2625 2626 2628
4853 9 2625 2626 2629
4854 4 2627 2626 2628
4855 6 2627 2626 2629
4856 6 2628 2626 2629
4857 8 2626 2629 2630
4858 6 2629 2630 2631
4859 6 2629 2630 2632
4860 9 2629 2630 2633
4861 4 2631 2630 2632
4862 6 2631 2630 2633
4863 6 2632 2630 2633
4864 8 2630 2633 2634
4865 6 2633 2634 2635
4866 6 2633 2634 2636
4867 9 2633 2634 2637
4868 4 2635 2634 2636
4869 6 2635 2634 2637
4870 6 2636 2634 2637
4871 10 2634 2637 99
4872 11 69 2638 2618
4873 4 2640 2639 2641
4874 6 2640 2639 2642
4875 5 2640 2639 2659
4876 6 2641 2639 2642
4877 5 2641 2639 2659
4878 7 2642 2639 2659
4879 8 2639 2642 2643
4880 6 2642 2643 2644
4881 6 2642 2643 2645
4882 9 2642 2643 2646
4883 4 2644 2643 2645
4884 6 2644 2643 2646
4885 6 2645 2643 2646
4886 8 2643 2646 2647
4887 6 2646 2647 2648
4888 6 2646 2647 2649
4889 9 2646 2647 2650
4890 4 2648 2647 2649
4891 6 2648 2647 2650
4892 6 2649 2647 2650
4893 8 2647 2650 2651
4894 6 2650 2651 2652
4895 6 2650 2651 2653
4896 9 2650 2651 2654
4897 4 2652 2651 2653
4898 6 2652 2651 2654
4899 6 2653 2651 2654
4900 8 2651 2654 2655
4901 6 2654 2655 2656
4902 6 2654 2655 2657
4903 9 2654 2655 2658
4904 4 2656 2655 2657
4905 6 2656 2655 2658
4906 6 2657 2655 2658
4907 10 2655 2658 74
4908 11 70 2659 2639
4909 4 2661 2660 2662
4910 6 2661 2660 2663
4911 5 2661 2660 2680
4912 6 2662 2660 2663
4913 5 2662 2660 2680
4914 7 2663 2660 2680
4915 8 2660 2663 2664
4916 6 2663 2664 2665
4917 6 2663 2664 2666
4918 9 2663 2664 2667
4919 4 2665 2664 2666
4920 6 2665 2664 2667
4921 6 2666 2664 2667
4922 8 2664 2667 2668
4923 6 2667 2668 2669
4924 6 2667 2668 2670
4925 9 2667 2668 2671
4926 4 2669 2668 2670
4927 6 2669 2668 2671
4928 6 2670 2668 2671
4929 8 2668 2671 2672
4930 6 2671 2672 2673
4931 6 2671 2672 2674
4932 9 2671 2672 2675
4933 4 2673 2672 2674
4934 6 2673 2672 2675
4935 6 2674 2672 2675
4936 8 2672 2675 2676
4937 6 2675 2676 2677
4938 6 2675 2676 2678
4939 9 2675 2676 2679
4940 4 2677 2676 2678
4941 6 2677 2676 2679
4942 6 2678 2676 2679
4943 10 2676 2679 100
4944 11 70 2680 2660
4945 4 2682 2681 2683
4946 6 2682 2681 2684
4947 5 2682 2681 2701
4948 6 2683 2681 2684
4949 5 2683 2681 2701
4950 7 2684 2681 2701
4951 8 2681 2684 2685
4952 6 2684 2685 2686
4953 6 2684 2685 2687
4954 9 2684 2685 2688
4955 4 2686 2685 2687
4956 6 2686 2685 2688
4957 6 2687 2685 2688
4958 8 2685 2688 2689
4959 6 2688 2689 2690
4960 6 2688 2689 2691
4961 9 2688 2689 2692
4962 4 2690 2689 2691
4963 6 2690 2689 2692
4964 6 2691 2689 2692
4965 8 2689 2692 2693
4966 6 2692 2693 2694
4967 6 2692 2693 2695
4968 9 2692 2693 2696
4969 4 2694 2693 2695
4970 6 2694 2693 2696
4971 6 2695 2693 2696
4972 8 2693 2696 2697
4973 6 2696 2697 2698
4974 6 2696 2697 2699
4975 9 2696 2697 2700
4976 4 2698 2697 2699
4977 6 2698 2697 2700
4978 6 2699 2697 2700
4979 10 2697 2700 75
4980 11 71 2701 2681
4981 4 2703 2702 2704
4982 6 2703 2702 2705
4983 5 2703 2702 2722
4984 6 2704 2702 2705
4985 5 2704 2702 2722
4986 7 2705 2702 2722
4987 8 2702 2705 2706
4988 6 2705 2706 2707
4989 6 2705 2706 2708
4990 9 2705 2706 2709
4991 4 2707 2706 2708
4992 6 2707 2706 2709
4993 6 2708 2706 2709
4994 8 2706 2709 2710
4995 6 2709 2710 2711
4996 6 2709 2710 2712
4997 9 2709 2710 2713
4998 4 2711 2710 2712
4999 6 2711 2710 2713
5000 6 2712 2710 2713
5001 8 2710 2713 2714
5002 6 2713 2714 2715
5003 6 2713 2714 2716
5004 9 2713 2714 2717
5005 4 2715 2714 2716
5006 6 2715 2714 2717
5007 6 2716 2714 2717
5008 8 2714 2717 2718
5009 6 2717 2718 2719
5010 6 2717 2718 2720
5011 9 2717 2718 2721
5012 4 2719 2718 2720
5013 6 2719 2718 2721
5014 6 2720 2718 2721
5015 10 2718 2721 77
5016 11 72 2722 2702
5017 4 2724 2723 2725
5018 6 2724 2723 2726
5019 5 2724 2723 2743
5020 6 2725 2723 2726
5021 5 2725 2723 2743
5022 7 2726 2723 2743
5023 8 2723 2726 2727
5024 6 2726 2727 2728
5025 6 2726 2727 2729
5026 9 2726 2727 2730
5027 4 2728 2727 2729
5028 6 2728 2727 2730
5029 6 2729 2727 2730
5030 8 2727 2730 2731
5031 6 2730 2731 2732
5032 6 2730 2731 2733
5033 9 2730 2731 2734
5034 4 2732 2731 2733
5035 6 2732 2731 2734
5036 6 2733 2731 2734
5037 8 2731 2734 2735
5038 6 2734 2735 2736
5039 6 2734 2735 2737
5040 9 2734 2735 2738
5041 4 2736 2735 2737
5042 6 2736 2735 2738
5043 6 2737 2735 2738
5044 8 2735 2738 2739
5045 6 2738 2739 2740
5046 6 2738 2739 2741
5047 9 2738 2739 2742
5048 4 2740 2739 2741
5049 6 2740 2739 2742
5050 6 2741 2739 2742
5051 10 2739 2742 103
5052 11 72 2743 2723
5053 4 2745 2744 2746
5054 6 2745 2744 2747
5055 5 2745 2744 2764
5056 6 2746 2744 2747
5057 5 2746 2744 2764
5058 7 2747 2744 2764
5059 8 2744 2747 2748
5060 6 2747 2748 2749
5061 6 2747 2748 2750
5062 9 2747 2748 2751
5063 4 2749 2748 2750
5064 6 2749 2748 2751
5065 6 2750 2748 2751
5066 8 2748 2751 2752
5067 6 2751 2752 2753
5068 6 2751 2752 2754
5069 9 2751 2752 2755
5070 4 2753 2752 2754
5071 6 2753 2752 2755
5072 6 2754 2752 2755
5073 8 2752 2755 2756
5074 6 2755 2756 2757
5075 6 2755 2756 2758
5076 9 2755 2756 2759
5077 4 2757 2756 2758
5078 6 2757 2756 2759
5079 6 2758 2756 2759
5080 8 2756 2759 2760
5081 6 2759 2760 2761
5082 6 2759 2760 2762
5083 9 2759 2760 2763
5084 4 2761 2760 2762
5085 6 2761 2760 2763
5086 6 2762 2760 2763
5087 10 2760 2763 74
5088 11 73 2764 2744
5089 4 2766 2765 2767
5090 6 2766 2765 2768
5091 5 2766 2765 2785
5092 6 2767 2765 2768
5093 5 2767 2765 2785
5094 7 2768 2765 2785
5095 8 2765 2768 2769
5096 6 2768 2769 2770
5097 6 2768 2769 2771
5098 9 2768 2769 2772
5099 4 2770 2769 2771
5100 6 2770 2769 2772
5101 6 2771 2769 2772
5102 8 2769 2772 2773
5103 6 2772 2773 2774
5104 6 2772 2773 2775
5105 9 2772 2773 2776
5106 4 2774 2773 2775
5107 6 2774 2773 2776
5108 6 2775 2773 2776
5109 8 2773 2776 2777
5110 6 2776 2777 2778
5111 6 2776 2777 2779
5112 9 2776 2777 2780
5113 4 2778 2777 2779
5114 6 2778 2777 2780
5115 6 2779 2777 2780
5116 8 2777 2780 2781
5117 6 2780 2781 2782
5118 6 2780 2781 2783
5119 9 2780 2781 2784
5120 4 2782 2781 2783
5121 6 2782 2781 2784
5122 6 2783 2781 2784
5123 10 2781 2784 104
5124 11 73 2785 2765
5125 4 2787 2786 2788
5126 6 2787 2786 2789
5127 5 2787 2786 2806
5128 6 2788 2786 2789
5129 5 2788 2786 2806
5130 7 2789 2786 2806
5131 8 2786 2789 2790
5132 6 2789 2790 2791
5133 6 2789 2790 2792
5134 9 2789 2790 2793
5135 4 2791 2790 2792
5136 6 2791 2790 2793
5137 6 2792 2790 2793
5138 8 2790 2793 2794
5139 6 2793 2794 2795
5140 6 2793 2794 2796
5141 9 2793 2794 2797
5142 4 2795 2794 2796
5143 6 2795 2794 2797
5144 6 2796 2794 2797
5145 8 2794 2797 2798
5146 6 2797 2798 2799
5147 6 2797 2798 2800
5148 9 2797 2798 2801
5149 4 2799 2798 2800
5150 6 2799 2798 2801
5151 6 2800 2798 2801
5152 8 2798 2801 2802
5153 6 2801 2802 2803
5154 6 2801 2802 2804
5155 9 2801 2802 2805
5156 4 2803 2802 2804
5157 6 2803 2802 2805
5158 6 2804 2802 2805
5159 10 2802 2805 75
5160 11 74 2806 2786
5161 4 2808 2807 2809
5162 6 2808 2807 2810
5163 5 2808 2807 2827
5164 6 2809 2807 2810
5165 5 2809 2807 2827
5166 7 2810 2807 2827
5167 8 2807 2810 2811
5168 6 2810 2811 2812
5169 6 2810 2811 2813
5170 9 2810 2811 2814
5171 4 2812 2811 2813
5172 6 2812 2811 2814
5173 6 2813 2811 2814
5174 8 2811 2814 2815
5175 6 2814 2815 2816
5176 6 2814 2815 2817
5177 9 2814 2815 2818
5178 4 2816 2815 2817
5179 6 2816 2815 2818
5180 6 2817 2815 2818
5181 8 2815 2818 2819
5182 6 2818 2819 2820
5183 6 2818 2819 2821
5184 9 2818 2819 2822
5185 4 2820 2819 2821
5186 6 2820 2819 2822
5187 6 2821 2819 2822
5188 8 2819 2822 2823
5189 6 2822 2823 2824
5190 6 2822 2823 2825
5191 9 2822 2823 2826
5192 4 2824 2823 2825
5193 6 2824 2823 2826
5194 6 2825 2823 2826
5195 10 2823 2826 82
5196 11 74 2827 2807
5197 4 2829 2828 2830
5198 6 2829 2828 2831
5199 5 2829 2828 2848
5200 6 2830 2828 2831
5201 5 2830 2828 2848
5202 7 2831 2828 2848
5203 8 2828 2831 2832
5204 6 2831 2832 2833
5205 6 2831 2832 2834
5206 9 2831 2832 2835
5207 4 2833 2832 2834
5208 6 2833 2832 2835
5209 6 2834 2832 2835
5210 8 2832 2835 2836
5211 6 2835 2836 2837
5212 6 2835 2836 2838
5213 9 2835 2836 2839
5214 4 2837 2836 2838
5215 6 2837 2836 2839
5216 6 2838 2836 2839
5217 8 2836 2839 2840
5218 6 2839 2840 2841
5219 6 2839 2840 2842
5220 9 2839 2840 2843
5221 4 2841 2840 2842
5222 6 2841 2840 2843
5223 6 2842 2840 2843
5224 8 2840 2843 2844
5225 6 2843 2844 2845
5226 6 2843 2844 2846
5227 9 2843 2844 2847
5228 4 2845 2844 2846
5229 6 2845 2844 2847
5230 6 2846 2844 2847
5231 10 2844 2847 106
5232 11 75 2848 2828
5233 4 2850 2849 2851
5234 6 2850 2849 2852
5235 5 2850 2849 2869
5236 6 2851 2849 2852
5237 5 2851 2849 2869
5238 7 2852 2849 2869
5239 8 2849 2852 2853
5240 6 2852 2853 2854
5241 6 2852 2853 2855
5242 9 2852 2853 2856
5243 4 2854 2853 2855
5244 6 2854 2853 2856
5245 6 2855 2853 2856
5246 8 2853 2856 2857
5247 6 2856 2857 2858
5248 6 2856 2857 2859
5249 9 2856 2857 2860
5250 4 2858 2857 2859
5251 6 2858 2857 2860
5252 6 2859 2857 2860
5253 8 2857 2860 2861
5254 6 2860 2861 2862
5255 6 2860 2861 2863
5256 9 2860 2861 2864
5257 4 2862 2861 2863
5258 6 2862 2861 2864
5259 6 2863 2861 2864
5260 8 2861 2864 2865
5261 6 2864 2865 2866
5262 6 2864 2865 2867
5263 9 2864 2865 2868
5264 4 2866 2865 2867
5265 6 2866 2865 2868
5266 6 2867 2865 2868
5267 10 2865 2868 77
5268 11 76 2869 2849
5269 4 2871 2870 2872
5270 6 2871 2870 2873
5271 5 2871 2870 2890
5272 6 2872 2870 2873
5273 5 2872 2870 2890
5274 7 2873 2870 2890
5275 8 2870 2873 2874
5276 6 2873 2874 2875
5277 6 2873 2874 2876
5278 9 2873 2874 2877
5279 4 2875 2874 2876
5280 6 2875 2874 2877
5281 6 2876 2874 2877
5282 8 2874 2877 2878
5283 6 2877 2878 2879
5284 6 2877 2878 2880
5285 9 2877 2878 2881
5286 4 2879 2878 2880
5287 6 2879 2878 2881
5288 6 2880 2878 2881
5289 8 2878 2881 2882
5290 6 2881 2882 2883
5291 6 2881 2882 2884
5292 9 2881 2882 2885
5293 4 2883 2882 2884
5294 6 2883 2882 2885
5295 6 2884 2882 2885
5296 8 2882 2885 2886
5297 6 2885 2886 2887
5298 6 2885 2886 2888
5299 9 2885 2886 2889
5300 4 2887 2886 2888
5301 6 2887 2886 2889
5302 6 2888 2886 2889
5303 10 2886 2889 107
5304 11 76 2890 2870
5305 4 2892 2891 2893
5306 6 2892 2891 2894
5307 5 2892 2891 2911
5308 6 2893 2891 2894
5309 5 2893 2891 2911
5310 7 2894 2891 2911
5311 8 2891 2894 2895
5312 6 2894 2895 2896
5313 6 2894 2895 2897
5314 9 2894 2895 2898
5315 4 2896 2895 2897
5316 6 2896 2895 2898
5317 6 2897 2895 2898
5318 8 2895 2898 2899
5319 6 2898 2899 2900
5320 6 2898 2899 2901
5321 9 2898 2899 2902
5322 4 2900 2899 2901
5323 6 2900 2899 2902
5324 6 2901 2899 2902
5325 8 2899 2902 2903
5326 6 2902 2903 2904
5327 6 2902 2903 2905
5328 9 2902 2903 2906
5329 4 2904 2903 2905
5330 6 2904 2903 2906
5331 6 2905 2903 2906
5332 8 2903 2906 2907
5333 6 2906 2907 2908
5334 6 2906 2907 2909
5335 9 2906 2907 2910
5336 4 2908 2907 2909
5337 6 2908 2907 2910
5338 6 2909 2907 2910
5339 8 2907 2910 78
5340 11 77 2911 2891
5341 4 2913 2912 2914
5342 6 2913 2912 2915
5343 5 2913 2912 2932
5344 6 2914 2912 2915
5345 5 2914 2912 2932
5346 7 2915 2912 2932
5347 8 2912 2915 2916
5348 6 2915 2916 2917
5349 6 2915 2916 2918
5350 9 2915 2916 2919
5351 4 2917 2916 2918
5352 6 2917 2916 2919
5353 6 2918 2916 2919
5354 8 2916 2919 2920
5355 6 2919 2920 2921
5356 6 2919 2920 2922
5357 9 2919 2920 2923
5358 4 2921 2920 2922
5359 6 2921 2920 2923
5360 6 2922 2920 2923
5361 8 2920 2923 2924
5362 6 2923 2924 2925
5363 6 2923 2924 2926
5364 9 2923 2924 2927
5365 4 2925 2924 2926
5366 6 2925 2924 2927
5367 6 2926 2924 2927
5368 8 2924 2927 2928
5369 6 2927 2928 2929
5370 6 2927 2928 2930
5371 9 2927 2928 2931
5372 4 2929 2928 2930
5373 6 2929 2928 2931
5374 6 2930 2928 2931
5375 10 2928 2931 83
5376 11 82 2932 2912
5377 4 2934 2933 2935
5378 6 2934 2933 2936
5379 5 2934 2933 2953
5380 6 2935 2933 2936
5381 5 2935 2933 2953
5382 7 2936 2933 2953
5383 8 2933 2936 2937
5384 6 2936 2937 2938
5385 6 2936 2937 2939
5386 9 2936 2937 2940
5387 4 2938 2937 2939
5388 6 2938 2937 2940
5389 6 2939 2937 2940
5390 8 2937 2940 2941
5391 6 2940 2941 2942
5392 6 2940 2941 2943
5393 9 2940 2941 2944
5394 4 2942 2941 2943
5395 6 2942 2941 2944
5396 6 2943 2941 2944
5397 8 2941 2944 2945
5398 6 2944 2945 2946
5399 6 2944 2945 2947
5400 9 2944 2945 2948
5401 4 2946 2945 2947
5402 6 2946 2945 2948
5403 6 2947 2945 2948
5404 8 2945 2948 2949
5405 6 2948 2949 2950
5406 6 2948 2949 2951
5407 9 2948 2949 2952
5408 4 2950 2949 2951
5409 6 2950 2949 2952
5410 6 2951 2949 2952
5411 10 2949 2952 110
5412 11 82 2953 2933
5413 4 2955 2954 2956
5414 6 2955 2954 2957
5415 5 2955 2954 2974
5416 6 2956 2954 2957
5417 5 2956 2954 2974
5418 7 2957 2954 2974
5419 8 2954 2957 2958
5420 6 2957 2958 2959
5421 6 2957 2958 2960
5422 9 2957 2958 2961
5423 4 2959 2958 2960
5424 6 2959 2958 2961
5425 6 2960 2958 2961
5426 8 2958 2961 2962
5427 6 2961 2962 2963
5428 6 2961 2962 2964
5429 9 2961 2962 2965
5430 4 2963 2962 2964
5431 6 2963 2962 2965
5432 6 2964 2962 2965
5433 8 2962 2965 2966
5434 6 2965 2966 2967
5435 6 2965 2966 2968
5436 9 2965 2966 2969
5437 4 2967 2966 2968
5438 6 2967 2966 2969
5439 6 2968 2966 2969
5440 8 2966 2969 2970
5441 6 2969 2970 2971
5442 6 2969 2970 2972
5443 9 2969 2970 2973
5444 4 2971 2970 2972
5445 6 2971 2970 2973
5446 6 2972 2970 2973
5447 10 2970 2973 111
5448 11 83 2974 2954
5449 4 2976 2975 2977
5450 6 2976 2975 2978
5451 5 2976 2975 2995
5452 6 2977 2975 2978
5453 5 2977 2975 2995
5454 7 2978 2975 2995
5455 8 2975 2978 2979
5456 6 2978 2979 2980
5457 6 2978 2979 2981
5458 9 2978 2979 2982
5459 4 2980 2979 2981
5460 6 2980 2979 2982
5461 6 2981 2979 2982
5462 8 2979 2982 2983
5463 6 2982 2983 2984
5464 6 2982 2983 2985
5465 9 2982 2983 2986
5466 4 2984 2983 2985
5467 6 2984 2983 2986
5468 6 2985 2983 2986
5469 8 2983 2986 2987
5470 6 2986 2987 2988
5471 6 2986 2987 2989
5472 9 2986 2987 2990
5473 4 2988 2987 2989
5474 6 2988 2987 2990
5475 6 2989 2987 2990
5476 8 2987 2990 2991
5477 6 2990 2991 2992
5478 6 2990 2991 2993
5479 9 2990 2991 2994
5480 4 2992 2991 2993
5481 6 2992 2991 2994
5482 6 2993 2991 2994
5483 10 2991 2994 88
5484 12 84 2995 2975
5485 4 2997 2996 2998
5486 6 2997 2996 2999
5487 5 2997 2996 3016
5488 6 2998 2996 2999
5489 5 2998 2996 3016
5490 7 2999 2996 3016
5491 8 2996 2999 3000
5492 6 2999 3000 3001
5493 6 2999 3000 3002
5494 9 2999 3000 3003
5495 4 3001 3000 3002
5496 6 3001 3000 3003
5497 6 3002 3000 3003
5498 8 3000 3003 3004
5499 6 3003 3004 3005
5500 6 3003 3004 3006
5501 9 3003 3004 3007
5502 4 3005 3004 3006
5503 6 3005 3004 3007
5504 6 3006 3004 3007
5505 8 3004 3007 3008
5506 6 3007 3008 3009
5507 6 3007 3008 3010
5508 9 3007 3008 3011
5509 4 3009 3008 3010
5510 6 3009 3008 3011
5511 6 3010 3008 3011
5512 8 3008 3011 3012
5513 6 3011 3012 3013
5514 6 3011 3012 3014
5515 9 3011 3012 3015
5516 4 3013 3012 3014
5517 6 3013 3012 3015
5518 6 3014 3012 3015
5519 10 3012 3015 113
5520 11 88 3016 2996
5521 4 3018 3017 3019
5522 6 3018 3017 3020
5523 5 3018 3017 3037
5524 6 3019 3017 3020
5525 5 3019 3017 3037
5526 7 3020 3017 3037
5527 8 3017 3020 3021
5528 6 3020 3021 3022
5529 6 3020 3021 3023
5530 9 3020 3021 3024
5531 4 3022 3021 3023
5532 6 3022 3021 3024
5533 6 3023 3021 3024
5534 8 3021 3024 3025
5535 6 3024 3025 3026
5536 6 3024 3025 3027
5537 9 3024 3025 3028
5538 4 3026 3025 3027
5539 6 3026 3025 3028
5540 6 3027 3025 3028
5541 8 3025 3028 3029
5542 6 3028 3029 3030
5543 6 3028 3029 3031
5544 9 3028 3029 3032
5545 4 3030 3029 3031
5546 6 3030 3029 3032
5547 6 3031 3029 3032
5548 8 3029 3032 3033
5549 6 3032 3033 3034
5550 6 3032 3033 3035
5551 9 3032 3033 3036
5552 4 3034 3033 3035
5553 6 3034 3033 3036
5554 6 3035 3033 3036
5555 10 3033 3036 108
5556 11 88 3037 3017
5557 4 3039 3038 3040
5558 6 3039 3038 3041
5559 5 3039 3038 3058
5560 6 3040 3038 3041
5561 5 3040 3038 3058
5562 7 3041 3038 3058
5563 8 3038 3041 3042
5564 6 3041 3042 3043
5565 6 3041 3042 3044
5566 9 3041 3042 3045
5567 4 3043 3042 3044
5568 6 3043 3042 3045
5569 6 3044 3042 3045
5570 8 3042 3045 3046
5571 6 3045 3046 3047
5572 6 3045 3046 3048
5573 9 3045 3046 3049
5574 4 3047 3046 3048
5575 6 3047 3046 3049
5576 6 3048 3046 3049
5577 8 3046 3049 3050
5578 6 3049 3050 3051
5579 6 3049 3050 3052
5580 9 3049 3050 3053
5581 4 3051 3050 3052
5582 6 3051 3050 3053
5583 6 3052 3050 3053
5584 8 3050 3053 3054
5585 6 3053 3054 3055
5586 6 3053 3054 3056
5587 9 3053 3054 3057
5588 4 3055 3054 3056
5589 6 3055 3054 3057
5590 6 3056 3054 3057
5591 10 3054 3057 90
5592 11 89 3058 3038
5593 4 3060 3059 3061
5594 6 3060 3059 3062
5595 5 3060 3059 3079
5596 6 3061 3059 3062
5597 5 3061 3059 3079
5598 7 3062 3059 3079
5599 8 3059 3062 3063
5600 6 3062 3063 3064
5601 6 3062 3063 3065
5602 9 3062 3063 3066
5603 4 3064 3063 3065
5604 6 3064 3063 3066
5605 6 3065 3063 3066
5606 8 3063 3066 3067
5607 6 3066 3067 3068
5608 6 3066 3067 3069
5609 9 3066 3067 3070
5610 4 3068 3067 3069
5611 6 3068 3067 3070
5612 6 3069 3067 3070
5613 8 3067 3070 3071
5614 6 3070 3071 3072
5615 6 3070 3071 3073
5616 9 3070 3071 3074
5617 4 3072 3071 3073
5618 6 3072 3071 3074
5619 6 3073 3071 3074
5620 8 3071 3074 3075
5621 6 3074 3075 3076
5622 6 3074 3075 3077
5623 9 3074 3075 3078
5624 4 3076 3075 3077
5625 6 3076 3075 3078
5626 6 3077 3075 3078
5627 10 3075 3078 114
5628 11 89 3079 3059
5629 4 3081 3080 3082
5630 6 3081 3080 3083
5631 5 3081 3080 3100
5632 6 3082 3080 3083
5633 5 3082 3080 3100
5634 7 3083 3080 3100
5635 8 3080 3083 3084
5636 6 3083 3084 3085
5637 6 3083 3084 3086
5638 9 3083 3084 3087
5639 4 3085 3084 3086
5640 6 3085 3084 3087
5641 6 3086 3084 3087
5642 8 3084 3087 3088
5643 6 3087 3088 3089
5644 6 3087 3088 3090
5645 9 3087 3088 3091
5646 4 3089 3088 3090
5647 6 3089 3088 3091
5648 6 3090 3088 3091
5649 8 3088 3091 3092
5650 6 3091 3092 3093
5651 6 3091 3092 3094
5652 9 3091 3092 3095
5653 4 3093 3092 3094
5654 6 3093 3092 3095
5655 6 3094 3092 3095
5656 8 3092 3095 3096
5657 6 3095 3096 3097
5658 6 3095 3096 3098
5659 9 3095 3096 3099
5660 4 3097 3096 3098
5661 6 3097 3096 3099
5662 6 3098 3096 3099
5663 10 3096 3099 109
5664 11 89 3100 3080
5665 4 3102 3101 3103
5666 6 3102 3101 3104
5667 5 3102 3101 3121
5668 6 3103 3101 3104
5669 5 3103 3101 3121
5670 7 3104 3101 3121
5671 8 3101 3104 3105
5672 6 3104 3105 3106
5673 6 3104 3105 3107
5674 9 3104 3105 3108
5675 4 3106 3105 3107
5676 6 3106 3105 3108
5677 6 3107 3105 3108
5678 8 3105 3108 3109
5679 6 3108 3109 3110
5680 6 3108 3109 3111
5681 9 3108 3109 3112
5682 4 3110 3109 3111
5683 6 3110 3109 3112
5684 6 3111 3109 3112
5685 8 3109 3112 3113
5686 6 3112 3113 3114
5687 6 3112 3113 3115
5688 9 3112 3113 3116
5689 4 3114 3113 3115
5690 6 3114 3113 3116
5691 6 3115 3113 3116
5692 8 3113 3116 3117
5693 6 3116 3117 3118
5694 6 3116 3117 3119
5695 9 3116 3117 3120
5696 4 3118 3117 3119
5697 6 3118 3117 3120
5698 6 3119 3117 3120
5699 10 3117 3120 95
5700 11 90 3121 3101
5701 4 3123 3122 3124
5702 6 3123 3122 3125
5703 5 3123 3122 3142
5704 6 3124 3122 3125
5705 5 3124 3122 3142
5706 7 3125 3122 3142
5707 8 3122 3125 3126
5708 6 3125 3126 3127
5709 6 3125 3126 3128
5710 9 3125 3126 3129
5711 4 3127 3126 3128
5712 6 3127 3126 3129
5713 6 3128 3126 3129
5714 8 3126 3129 3130
5715 6 3129 3130 3131
5716 6 3129 3130 3132
5717 9 3129 3130 3133
5718 4 3131 3130 3132
5719 6 3131 3130 3133
5720 6 3132 3130 3133
5721 8 3130 3133 3134
5722 6 3133 3134 3135
5723 6 3133 3134 3136
5724 9 3133 3134 3137
5725 4 3135 3134 3136
5726 6 3135 3134 3137
5727 6 3136 3134 3137
5728 8 3134 3137 3138
5729 6 3137 3138 3139
5730 6 3137 3138 3140
5731 9 3137 3138 3141
5732 4 3139 3138 3140
5733 6 3139 3138 3141
5734 6 3140 3138 3141
5735 10 3138 3141 115
5736 11 90 3142 3122
5737 4 3144 3143 3145
5738 6 3144 3143 3146
5739 5 3144 3143 3163
5740 6 3145 3143 3146
5741 5 3145 3143 3163
5742 7 3146 3143 3163
5743 8 3143 3146 3147
5744 6 3146 3147 3148
5745 6 3146 3147 3149
5746 9 3146 3147 3150
5747 4 3148 3147 3149
5748 6 3148 3147 3150
5749 6 3149 3147 3150
5750 8 3147 3150 3151
5751 6 3150 3151 3152
5752 6 3150 3151 3153
5753 9 3150 3151 3154
5754 4 3152 3151 3153
5755 6 3152 3151 3154
5756 6 3153 3151 3154
5757 8 3151 3154 3155
5758 6 3154 3155 3156
5759 6 3154 3155 3157
5760 9 3154 3155 3158
5761 4 3156 3155 3157
5762 6 3156 3155 3158
5763 6 3157 3155 3158
5764 8 3155 3158 3159
5765 6 3158 3159 3160
5766 6 3158 3159 3161
5767 9 3158 3159 3162
5768 4 3160 3159 3161
5769 6 3160 3159 3162
5770 6 3161 3159 3162
5771 10 3159 3162 116
5772 11 91 3163 3143
5773 4 3165 3164 3166
5774 6 3165 3164 3167
5775 5 3165 3164 3184
5776 6 3166 3164 3167
5777 5 3166 3164 3184
5778 7 3167 3164 3184
5779 8 3164 3167 3168
5780 6 3167 3168 3169
5781 6 3167 3168 3170
5782 9 3167 3168 3171
5783 4 3169 3168 3170
5784 6 3169 3168 3171
5785 6 3170 3168 3171
5786 8 3168 3171 3172
5787 6 3171 3172 3173
5788 6 3171 3172 3174
5789 9 3171 3172 3175
5790 4 3173 3172 3174
5791 6 3173 3172 3175
5792 6 3174 3172 3175
5793 8 3172 3175 3176
5794 6 3175 3176 3177
5795 6 3175 3176 3178
5796 9 3175 3176 3179
5797 4 3177 3176 3178
5798 6 3177 3176 3179
5799 6 3178 3176 3179
5800 8 3176 3179 3180
5801 6 3179 3180 3181
5802 6 3179 3180 3182
5803 9 3179 3180 3183
5804 4 3181 3180 3182
5805 6 3181 3180 3183
5806 6 3182 3180 3183
5807 10 3180 3183 111
5808 11 91 3184 3164
5809 4 3186 3185 3187
5810 6 3186 3185 3188
5811 5 3186 3185 3205
5812 6 3187 3185 3188
5813 5 3187 3185 3205
5814 7 3188 3185 3205
5815 8 3185 3188 3189
5816 6 3188 3189 3190
5817 6 3188 3189 3191
5818 9 3188 3189 3192
5819 4 3190 3189 3191
5820 6 3190 3189 3192
5821 6 3191 3189 3192
5822 8 3189 3192 3193
5823 6 3192 3193 3194
5824 6 3192 3193 3195
5825 9 3192 3193 3196
5826 4 3194 3193 3195
5827 6 3194 3193 3196
5828 6 3195 3193 3196
5829 8 3193 3196 3197
5830 6 3196 3197 3198
5831 6 3196 3197 3199
5832 9 3196 3197 3200
5833 4 3198 3197 3199
5834 6 3198 3197 3200
5835 6 3199 3197 3200
5836 8 3197 3200 3201
5837 6 3200 3201 3202
5838 6 3200 3201 3203
5839 9 3200 3201 3204
5840 4 3202 3201 3203
5841 6 3202 3201 3204
5842 6 3203 3201 3204
5843 10 3201 3204 93
5844 11 92 3205 3185
5845 4 3207 3206 3208
5846 6 3207 3206 3209
5847 5 3207 3206 3226
5848 6 3208 3206 3209
5849 5 3208 3206 3226
5850 7 3209 3206 3226
5851 8 3206 3209 3210
5852 6 3209 3210 3211
5853 6 3209 3210 3212
5854 9 3209 3210 3213
5855 4 3211 3210 3212
5856 6 3211 3210 3213
5857 6 3212 3210 3213
5858 8 3210 3213 3214
5859 6 3213 3214 3215
5860 6 3213 3214 3216
5861 9 3213 3214 3217
5862 4 3215 3214 3216
5863 6 3215 3214 3217
5864 6 3216 3214 3217
5865 8 3214 3217 3218
5866 6 3217 3218 3219
5867 6 3217 3218 3220
5868 9 3217 3218 3221
5869 4 3219 3218 3220
5870 6 3219 3218 3221
5871 6 3220 3218 3221
5872 8 3218 3221 3222
5873 6 3221 3222 3223
5874 6 3221 3222 3224
5875 9 3221 3222 3225
5876 4 3223 3222 3224
5877 6 3223 3222 3225
5878 6 3224 3222 3225
5879 10 3222 3225 117
5880 11 92 3226 3206
5881 4 3228 3227 3229
5882 6 3228 3227 3230
5883 5 3228 3227 3247
5884 6 3229 3227 3230
5885 5 3229 3227 3247
5886 7 3230 3227 3247
5887 8 3227 3230 3231
5888 6 3230 3231 3232
5889 6 3230 3231 3233
5890 9 3230 3231 3234
5891 4 3232 3231 3233
5892 6 3232 3231 3234
5893 6 3233 3231 3234
5894 8 3231 3234 3235
5895 6 3234 3235 3236
5896 6 3234 3235 3237
5897 9 3234 3235 3238
5898 4 3236 3235 3237
5899 6 3236 3235 3238
5900 6 3237 3235 3238
5901 8 3235 3238 3239
5902 6 3238 3239 3240
5903 6 3238 3239 3241
5904 9 3238 3239 3242
5905 4 3240 3239 3241
5906 6 3240 3239 3242
5907 6 3241 3239 3242
5908 8 3239 3242 3243
5909 6 3242 3243 3244
5910 6 3242 3243 3245
5911 9 3242 3243 3246
5912 4 3244 3243 3245
5913 6 3244 3243 3246
5914 6 3245 3243 3246
5915 10 3243 3246 94
5916 11 93 3247 3227
5917 4 3249 3248 3250
5918 6 3249 3248 3251
5919 5 3249 3248 3268
5920 6 3250 3248 3251
5921 5 3250 3248 3268
5922 7 3251 3248 3268
5923 8 3248 3251 3252
5924 6 3251 3252 3253
5925 6 3251 3252 3254
5926 9 3251 3252 3255
5927 4 3253 3252 3254
5928 6 3253 3252 3255
5929 6 3254 3252 3255
5930 8 3252 3255 3256
5931 6 3255 3256 3257
5932 6 3255 3256 3258
5933 9 3255 3256 3259
5934 4 3257 3256 3258
5935 6 3257 3256 3259
5936 6 3258 3256 3259
5937 8 3256 3259 3260
5938 6 3259 3260 3261
5939 6 3259 3260 3262
5940 9 3259 3260 3263
5941 4 3261 3260 3262
5942 6 3261 3260 3263
5943 6 3262 3260 3263
5944 8 3260 3263 3264
5945 6 3263 3264 3265
5946 6 3263 3264 3266
5947 9 3263 3264 3267
5948 4 3265 3264 3266
5949 6 3265 3264 3267
5950 6 3266 3264 3267
5951 10 3264 3267 118
5952 11 93 3268 3248
5953 4 3270 3269 3271
5954 6 3270 3269 3272
5955 5 3270 3269 3289
5956 6 3271 3269 3272
5957 5 3271 3269 3289
5958 7 3272 3269 3289
5959 8 3269 3272 3273
5960 6 3272 3273 3274
5961 6 3272 3273 3275
5962 9 3272 3273 3276
5963 4 3274 3273 3275
5964 6 3274 3273 3276
5965 6 3275 3273 3276
5966 8 3273 3276 3277
5967 6 3276 3277 3278
5968 6 3276 3277 3279
5969 9 3276 3277 3280
5970 4 3278 3277 3279
5971 6 3278 3277 3280
5972 6 3279 3277 3280
5973 8 3277 3280 3281
5974 6 3280 3281 3282
5975 6 3280 3281 3283
5976 9 3280 3281 3284
5977 4 3282 3281 3283
5978 6 3282 3281 3284
5979 6 3283 3281 3284
5980 8 3281 3284 3285
5981 6 3284 3285 3286
5982 6 3284 3285 3287
5983 9 3284 3285 3288
5984 4 3286 3285 3287
5985 6 3286 3285 3288
5986 6 3287 3285 3288
5987 10 3285 3288 95
5988 11 94 3289 3269
5989 4 3291 3290 3292
5990 6 3291 3290 3293
5991 5 3291 3290 3310
5992 6 3292 3290 3293
5993 5 3292 3290 3310
5994 7 3293 3290 3310
5995 8 3290 3293 3294
5996 6 3293 3294 3295
5997 6 3293 3294 3296
5998 9 3293 3294 3297
5999 4 3295 3294 3296
6000 6 3295 3294 3297
6001 6 3296 3294 3297
6002 8 3294 3297 3298
6003 6 3297 3298 3299
6004 6 3297 3298 3300
6005 9 3297 3298 3301
6006 4 3299 3298 3300
6007 6 3299 3298 3301
6008 6 3300 3298 3301
6009 8 3298 3301 3302
6010 6 3301 3302 3303
6011 6 3301 3302 3304
6012 9 3301 3302 3305
6013 4 3303 3302 3304
6014 6 3303 3302 3305
6015 6 3304 3302 3305
6016 8 3302 3305 3306
6017 6 3305 3306 3307
6018 6 3305 3306 3308
6019 9 3305 3306 3309
6020 4 3307 3306 3308
6021 6 3307 3306 3309
6022 6 3308 3306 3309
6023 10 3306 3309 99
6024 11 94 3310 3290
6025 4 3312 3311 3313
6026 6 3312 3311 3314
6027 5 3312 3311 3331
6028 6 3313 3311 3314
6029 5 3313 3311 3331
6030 7 3314 3311 3331
6031 8 3311 3314 3315
6032 6 3314 3315 3316
6033 6 3314 3315 3317
6034 9 3314 3315 3318
6035 4 3316 3315 3317
6036 6 3316 3315 3318
6037 6 3317 3315 3318
6038 8 3315 3318 3319
6039 6 3318 3319 3320
6040 6 3318 3319 3321
6041 9 3318 3319 3322
6042 4 3320 3319 3321
6043 6 3320 3319 3322
6044 6 3321 3319 3322
6045 8 3319 3322 3323
6046 6 3322 3323 3324
6047 6 3322 3323 3325
6048 9 3322 3323 3326
6049 4 3324 3323 3325
6050 6 3324 3323 3326
6051 6 3325 3323 3326
6052 8 3323 3326 3327
6053 6 3326 3327 3328
6054 6 3326 3327 3329
6055 9 3326 3327 3330
6056 4 3328 3327 3329
6057 6 3328 3327 3330
6058 6 3329 3327 3330
6059 10 3327 3330 119
6060 11 94 3331 3311
6061 4 3333 3332 3334
6062 6 3333 3332 3335
6063 5 3333 3332 3352
6064 6 3334 3332 3335
6065 5 3334 3332 3352
6066 7 3335 3332 3352
6067 8 3332 3335 3336
6068 6 3335 3336 3337
6069 6 3335 3336 3338
6070 9 3335 3336 3339
6071 4 3337 3336 3338
6072 6 3337 3336 3339
6073 6 3338 3336 3339
6074 8 3336 3339 3340
6075 6 3339 3340 3341
6076 6 3339 3340 3342
6077 9 3339 3340 3343
6078 4 3341 3340 3342
6079 6 3341 3340 3343
6080 6 3342 3340 3343
6081 8 3340 3343 3344
6082 6 3343 3344 3345
6083 6 3343 3344 3346
6084 9 3343 3344 3347
6085 4 3345 3344 3346
6086 6 3345 3344 3347
6087 6 3346 3344 3347
6088 8 3344 3347 3348
6089 6 3347 3348 3349
6090 6 3347 3348 3350
6091 9 3347 3348 3351
6092 4 3349 3348 3350
6093 6 3349 3348 3351
6094 6 3350 3348 3351
6095 10 3348 3351 100
6096 11 95 3352 3332
6097 4 3354 3353 3355
6098 6 3354 3353 3356
6099 5 3354 3353 3373
6100 6 3355 3353 3356
6101 5 3355 3353 3373
6102 7 3356 3353 3373
6103 8 3353 3356 3357
6104 6 3356 3357 3358
6105 6 3356 3357 3359
6106 9 3356 3357 3360
6107 4 3358 3357 3359
6108 6 3358 3357 3360
6109 6 3359 3357 3360
6110 8 3357 3360 3361
6111 6 3360 3361 3362
6112 6 3360 3361 3363
6113 9 3360 3361 3364
6114 4 3362 3361 3363
6115 6 3362 3361 3364
6116 6 3363 3361 3364
6117 8 3361 3364 3365
6118 6 3364 3365 3366
6119 6 3364 3365 3367
6120 9 3364 3365 3368
6121 4 3366 3365 3367
6122 6 3366 3365 3368
6123 6 3367 3365 3368
6124 8 3365 3368 3369
6125 6 3368 3369 3370
6126 6 3368 3369 3371
6127 9 3368 3369 3372
6128 4 3370 3369 3371
6129 6 3370 3369 3372
6130 6 3371 3369 3372
6131 10 3369 3372 101
6132 11 96 3373 3353
6133 4 3375 3374 3376
6134 6 3375 3374 3377
6135 5 3375 3374 3394
6136 6 3376 3374 3377
6137 5 3376 3374 3394
6138 7 3377 3374 3394
6139 8 3374 3377 3378
6140 6 3377 3378 3379
6141 6 3377 3378 3380
6142 9 3377 3378 3381
6143 4 3379 3378 3380
6144 6 3379 3378 3381
6145 6 3380 3378 3381
6146 8 3378 3381 3382
6147 6 3381 3382 3383
6148 6 3381 3382 3384
6149 9 3381 3382 3385
6150 4 3383 3382 3384
6151 6 3383 3382 3385
6152 6 3384 3382 3385
6153 8 3382 3385 3386
6154 6 3385 3386 3387
6155 6 3385 3386 3388
6156 9 3385 3386 3389
6157 4 3387 3386 3388
6158 6 3387 3386 3389
6159 6 3388 3386 3389
6160 8 3386 3389 3390
6161 6 3389 3390 3391
6162 6 3389 3390 3392
6163 9 3389 3390 3393
6164 4 3391 3390 3392
6165 6 3391 3390 3393
6166 6 3392 3390 3393
6167 10 3390 3393 121
6168 11 96 3394 3374
6169 4 3396 3395 3397
6170 6 3396 3395 3398
6171 5 3396 3395 3415
6172 6 3397 3395 3398
6173 5 3397 3395 3415
6174 7 3398 3395 3415
6175 8 3395 3398 3399
6176 6 3398 3399 3400
6177 6 3398 3399 3401
6178 9 3398 3399 3402
6179 4 3400 3399 3401
6180 6 3400 3399 3402
6181 6 3401 3399 3402
6182 8 3399 3402 3403
6183 6 3402 3403 3404
6184 6 3402 3403 3405
6185 9 3402 3403 3406
6186 4 3404 3403 3405
6187 6 3404 3403 3406
6188 6 3405 3403 3406
6189 8 3403 3406 3407
6190 6 3406 3407 3408
6191 6 3406 3407 3409
6192 9 3406 3407 3410
6193 4 3408 3407 3409
6194 6 3408 3407 3410
6195 6 3409 3407 3410
6196 8 3407 3410 3411
6197 6 3410 3411 3412
6198 6 3410 3411 3413
6199 9 3410 3411 3414
6200 4 3412 3411 3413
6201 6 3412 3411 3414
6202 6 3413 3411 3414
6203 10 3411 3414 102
6204 11 97 3415 3395
6205 4 3417 3416 3418
6206 6 3417 3416 3419
6207 5 3417 3416 3436
6208 6 3418 3416 3419
6209 5 3418 3416 3436
6210 7 3419 3416 3436
6211 8 3416 3419 3420
6212 6 3419 3420 3421
6213 6 3419 3420 3422
6214 9 3419 3420 3423
6215 4 3421 3420 3422
6216 6 3421 3420 3423
6217 6 3422 3420 3423
6218 8 3420 3423 3424
6219 6 3423 3424 3425
6220 6 3423 3424 3426
6221 9 3423 3424 3427
6222 4 3425 3424 3426
6223 6 3425 3424 3427
6224 6 3426 3424 3427
6225 8 3424 3427 3428
6226 6 3427 3428 3429
6227 6 3427 3428 3430
6228 9 3427 3428 3431
6229 4 3429 3428 3430
6230 6 3429 3428 3431
6231 6 3430 3428 3431
6232 8 3428 3431 3432
6233 6 3431 3432 3433
6234 6 3431 3432 3434
6235 9 3431 3432 3435
6236 4 3433 3432 3434
6237 6 3433 3432 3435
6238 6 3434 3432 3435
6239 10 3432 3435 122
6240 11 97 3436 3416
6241 4 3438 3437 3439
6242 6 3438 3437 3440
6243 5 3438 3437 3457
6244 6 3439 3437 3440
6245 5 3439 3437 3457
6246 7 3440 3437 3457
6247 8 3437 3440 3441
6248 6 3440 3441 3442
6249 6 3440 3441 3443
6250 9 3440 3441 3444
6251 4 3442 3441 3443
6252 6 3442 3441 3444
6253 6 3443 3441 3444
6254 8 3441 3444 3445
6255 6 3444 3445 3446
6256 6 3444 3445 3447
6257 9 3444 3445 3448
6258 4 3446 3445 3447
6259 6 3446 3445 3448
6260 6 3447 3445 3448
6261 8 3445 3448 3449
6262 6 3448 3449 3450
6263 6 3448 3449 3451
6264 9 3448 3449 3452
6265 4 3450 3449 3451
6266 6 3450 3449 3452
6267 6 3451 3449 3452
6268 8 3449 3452 3453
6269 6 3452 3453 3454
6270 6 3452 3453 3455
6271 9 3452 3453 3456
6272 4 3454 3453 3455
6273 6 3454 3453 3456
6274 6 3455 3453 3456
6275 10 3453 3456 101
6276 11 97 3457 3437
6277 4 3459 3458 3460
6278 6 3459 3458 3461
6279 5 3459 3458 3478
6280 6 3460 3458 3461
6281 5 3460 3458 3478
6282 7 3461 3458 3478
6283 8 3458 3461 3462
6284 6 3461 3462 3463
6285 6 3461 3462 3464
6286 9 3461 3462 3465
6287 4 3463 3462 3464
6288 6 3463 3462 3465
6289 6 3464 3462 3465
6290 8 3462 3465 3466
6291 6 3465 3466 3467
6292 6 3465 3466 3468
6293 9 3465 3466 3469
6294 4 3467 3466 3468
6295 6 3467 3466 3469
6296 6 3468 3466 3469
6297 8 3466 3469 3470
6298 6 3469 3470 3471
6299 6 3469 3470 3472
6300 9 3469 3470 3473
6301 4 3471 3470 3472
6302 6 3471 3470 3473
6303 6 3472 3470 3473
6304 8 3470 3473 3474
6305 6 3473 3474 3475
6306 6 3473 3474 3476
6307 9 3473 3474 3477
6308 4 3475 3474 3476
6309 6 3475 3474 3477
6310 6 3476 3474 3477
6311 10 3474 3477 99
6312 11 98 3478 3458
6313 4 3480 3479 3481
6314 6 3480 3479 3482
6315 5 3480 3479 3499
6316 6 3481 3479 3482
6317 5 3481 3479 3499
6318 7 3482 3479 3499
6319 8 3479 3482 3483
6320 6 3482 3483 3484
6321 6 3482 3483 3485
6322 9 3482 3483 3486
6323 4 3484 3483 3485
6324 6 3484 3483 3486
6325 6 3485 3483 3486
6326 8 3483 3486 3487
6327 6 3486 3487 3488
6328 6 3486 3487 3489
6329 9 3486 3487 3490
6330 4 3488 3487 3489
6331 6 3488 3487 3490
6332 6 3489 3487 3490
6333 8 3487 3490 3491
6334 6 3490 3491 3492
6335 6 3490 3491 3493
6336 9 3490 3491 3494
6337 4 3492 3491 3493
6338 6 3492 3491 3494
6339 6 3493 3491 3494
6340 8 3491 3494 3495
6341 6 3494 3495 3496
6342 6 3494 3495 3497
6343 9 3494 3495 3498
6344 4 3496 3495 3497
6345 6 3496 3495 3498
6346 6 3497 3495 3498
6347 10 3495 3498 123
6348 11 98 3499 3479
6349 4 3501 3500 3502
6350 6 3501 3500 3503
6351 5 3501 3500 3520
6352 6 3502 3500 3503
6353 5 3502 3500 3520
6354 7 3503 3500 3520
6355 8 3500 3503 3504
6356 6 3503 3504 3505
6357 6 3503 3504 3506
6358 9 3503 3504 3507
6359 4 3505 3504 3506
6360 6 3505 3504 3507
6361 6 3506 3504 3507
6362 8 3504 3507 3508
6363 6 3507 3508 3509
6364 6 3507 3508 3510
6365 9 3507 3508 3511
6366 4 3509 3508 3510
6367 6 3509 3508 3511
6368 6 3510 3508 3511
6369 8 3508 3511 3512
6370 6 3511 3512 3513
6371 6 3511 3512 3514
6372 9 3511 3512 3515
6373 4 3513 3512 3514
6374 6 3513 3512 3515
6375 6 3514 3512 3515
6376 8 3512 3515 3516
6377 6 3515 3516 3517
6378 6 3515 3516 3518
6379 9 3515 3516 3519
6380 4 3517 3516 3518
6381 6 3517 3516 3519
6382 6 3518 3516 3519
6383 10 3516 3519 104
6384 11 99 3520 3500
6385 4 3522 3521 3523
6386 6 3522 3521 3524
6387 5 3522 3521 3541
6388 6 3523 3521 3524
6389 5 3523 3521 3541
6390 7 3524 3521 3541
6391 8 3521 3524 3525
6392 6 3524 3525 3526
6393 6 3524 3525 3527
6394 9 3524 3525 3528
6395 4 3526 3525 3527
6396 6 3526 3525 3528
6397 6 3527 3525 3528
6398 8 3525 3528 3529
6399 6 3528 3529 3530
6400 6 3528 3529 3531
6401 9 3528 3529 3532
6402 4 3530 3529 3531
6403 6 3530 3529 3532
6404 6 3531 3529 3532
6405 8 3529 3532 3533
6406 6 3532 3533 3534
6407 6 3532 3533 3535
6408 9 3532 3533 3536
6409 4 3534 3533 3535
6410 6 3534 3533 3536
6411 6 3535 3533 3536
6412 8 3533 3536 3537
6413 6 3536 3537 3538
6414 6 3536 3537 3539
6415 9 3536 3537 3540
6416 4 3538 3537 3539
6417 6 3538 3537 3540
6418 6 3539 3537 3540
6419 10 3537 3540 101
6420 11 100 3541 3521
6421 4 3543 3542 3544
6422 6 3543 3542 3545
6423 5 3543 3542 3562
6424 6 3544 3542 3545
6425 5 3544 3542 3562
6426 7 3545 3542 3562
6427 8 3542 3545 3546
6428 6 3545 3546 3547
6429 6 3545 3546 3548
6430 9 3545 3546 3549
6431 4 3547 3546 3548
6432 6 3547 3546 3549
6433 6 3548 3546 3549
6434 8 3546 3549 3550
6435 6 3549 3550 3551
6436 6 3549 3550 3552
6437 9 3549 3550 3553
6438 4 3551 3550 3552
6439 6 3551 3550 3553
6440 6 3552 3550 3553
6441 8 3550 3553 3554
6442 6 3553 3554 3555
6443 6 3553 3554 3556
6444 9 3553 3554 3557
6445 4 3555 3554 3556
6446 6 3555 3554 3557
6447 6 3556 3554 3557
6448 8 3554 3557 3558
6449 6 3557 3558 3559
6450 6 3557 3558 3560
6451 9 3557 3558 3561
6452 4 3559 3558 3560
6453 6 3559 3558 3561
6454 6 3560 3558 3561
6455 10 3558 3561 105
6456 11 100 3562 3542
6457 4 3564 3563 3565
6458 6 3564 3563 3566
6459 5 3564 3563 3583
6460 6 3565 3563 3566
6461 5 3565 3563 3583
6462 7 3566 3563 3583
6463 8 3563 3566 3567
6464 6 3566 3567 3568
6465 6 3566 3567 3569
6466 9 3566 3567 3570
6467 4 3568 3567 3569
6468 6 3568 3567 3570
6469 6 3569 3567 3570
6470 8 3567 3570 3571
6471 6 3570 3571 3572
6472 6 3570 3571 3573
6473 9 3570 3571 3574
6474 4 3572 3571 3573
6475 6 3572 3571 3574
6476 6 3573 3571 3574
6477 8 3571 3574 3575
6478 6 3574 3575 3576
6479 6 3574 3575 3577
6480 9 3574 3575 3578
6481 4 3576 3575 3577
6482 6 3576 3575 3578
6483 6 3577 3575 3578
6484 8 3575 3578 3579
6485 6 3578 3579 3580
6486 6 3578 3579 3581
6487 9 3578 3579 3582
6488 4 3580 3579 3581
6489 6 3580 3579 3582
6490 6 3581 3579 3582
6491 10 3579 3582 126
6492 11 101 3583 3563
6493 4 3585 3584 3586
6494 6 3585 3584 3587
6495 5 3585 3584 3604
6496 6 3586 3584 3587
6497 5 3586 3584 3604
6498 7 3587 3584 3604
6499 8 3584 3587 3588
6500 6 3587 3588 3589
6501 6 3587 3588 3590
6502 9 3587 3588 3591
6503 4 3589 3588 3590
6504 6 3589 3588 3591
6505 6 3590 3588 3591
6506 8 3588 3591 3592
6507 6 3591 3592 3593
6508 6 3591 3592 3594
6509 9 3591 3592 3595
6510 4 3593 3592 3594
6511 6 3593 3592 3595
6512 6 3594 3592 3595
6513 8 3592 3595 3596
6514 6 3595 3596 3597
6515 6 3595 3596 3598
6516 9 3595 3596 3599
6517 4 3597 3596 3598
6518 6 3597 3596 3599
6519 6 3598 3596 3599
6520 8 3596 3599 3600
6521 6 3599 3600 3601
6522 6 3599 3600 3602
6523 9 3599 3600 3603
6524 4 3601 3600 3602
6525 6 3601 3600 3603
6526 6 3602 3600 3603
6527 10 3600 3603 103
6528 11 102 3604 3584
6529 4 3606 3605 3607
6530 6 3606 3605 3608
6531 5 3606 3605 3625
6532 6 3607 3605 3608
6533 5 3607 3605 3625
6534 7 3608 3605 3625
6535 8 3605 3608 3609
6536 6 3608 3609 3610
6537 6 3608 3609 3611
6538 9 3608 3609 3612
6539 4 3610 3609 3611
6540 6 3610 3609 3612
6541 6 3611 3609 3612
6542 8 3609 3612 3613
6543 6 3612 3613 3614
6544 6 3612 3613 3615
6545 9 3612 3613 3616
6546 4 3614 3613 3615
6547 6 3614 3613 3616
6548 6 3615 3613 3616
6549 8 3613 3616 3617
6550 6 3616 3617 3618
6551 6 3616 3617 3619
6552 9 3616 3617 3620
6553 4 3618 3617 3619
6554 6 3618 3617 3620
6555 6 3619 3617 3620
6556 8 3617 3620 3621
6557 6 3620 3621 3622
6558 6 3620 3621 3623
6559 9 3620 3621 3624
6560 4 3622 3621 3623
6561 6 3622 3621 3624
6562 6 3623 3621 3624
6563 10 3621 3624 106
6564 11 102 3625 3605
6565 4 3627 3626 3628
6566 6 3627 3626 3629
6567 5 3627 3626 3646
6568 6 3628 3626 3629
6569 5 3628 3626 3646
6570 7 3629 3626 3646
6571 8 3626 3629 3630
6572 6 3629 3630 3631
6573 6 3629 3630 3632
6574 9 3629 3630 3633
6575 4 3631 3630 3632
6576 6 3631 3630 3633
6577 6 3632 3630 3633
6578 8 3630 3633 3634
6579 6 3633 3634 3635
6580 6 3633 3634 3636
6581 9 3633 3634 3637
6582 4 3635 3634 3636
6583 6 3635 3634 3637
6584 6 3636 3634 3637
6585 8 3634 3637 3638
6586 6 3637 3638 3639
6587 6 3637 3638 3640
6588 9 3637 3638 3641
6589 4 3639 3638 3640
6590 6 3639 3638 3641
6591 6 3640 3638 3641
6592 8 3638 3641 3642
6593 6 3641 3642 3643
6594 6 3641 3642 3644
6595 9 3641 3642 3645
6596 4 3643 3642 3644
6597 6 3643 3642 3645
6598 6 3644 3642 3645
6599 10 3642 3645 108
6600 11 103 3646 3626
6601 4 3648 3647 3649
6602 6 3648 3647 3650
6603 5 3648 3647 3667
6604 6 3649 3647 3650
6605 5 3649 3647 3667
6606 7 3650 3647 3667
6607 8 3647 3650 3651
6608 6 3650 3651 3652
6609 6 3650 3651 3653
6610 9 3650 3651 3654
6611 4 3652 3651 3653
6612 6 3652 3651 3654
6613 6 3653 3651 3654
6614 8 3651 3654 3655
6615 6 3654 3655 3656
6616 6 3654 3655 3657
6617 9 3654 3655 3658
6618 4 3656 3655 3657
6619 6 3656 3655 3658
6620 6 3657 3655 3658
6621 8 3655 3658 3659
6622 6 3658 3659 3660
6623 6 3658 3659 3661
6624 9 3658 3659 3662
6625 4 3660 3659 3661
6626 6 3660 3659 3662
6627 6 3661 3659 3662
6628 8 3659 3662 3663
6629 6 3662 3663 3664
6630 6 3662 3663 3665
6631 9 3662 3663 3666
6632 4 3664 3663 3665
6633 6 3664 3663 3666
6634 6 3665 3663 3666
6635 10 3663 3666 131
6636 11 103 3667 3647
6637 4 3669 3668 3670
6638 6 3669 3668 3671
6639 5 3669 3668 3688
6640 6 3670 3668 3671
6641 5 3670 3668 3688
6642 7 3671 3668 3688
6643 8 3668 3671 3672
6644 6 3671 3672 3673
6645 6 3671 3672 3674
6646 9 3671 3672 3675
6647 4 3673 3672 3674
6648 6 3673 3672 3675
6649 6 3674 3672 3675
6650 8 3672 3675 3676
6651 6 3675 3676 3677
6652 6 3675 3676 3678
6653 9 3675 3676 3679
6654 4 3677 3676 3678
6655 6 3677 3676 3679
6656 6 3678 3676 3679
6657 8 3676 3679 3680
6658 6 3679 3680 3681
6659 6 3679 3680 3682
6660 9 3679 3680 3683
6661 4 3681 3680 3682
6662 6 3681 3680 3683
6663 6 3682 3680 3683
6664 8 3680 3683 3684
6665 6 3683 3684 3685
6666 6 3683 3684 3686
6667 9 3683 3684 3687
6668 4 3685 3684 3686
6669 6 3685 3684 3687
6670 6 3686 3684 3687
6671 10 3684 3687 132
6672 11 104 3688 3668
6673 4 3690 3689 3691
6674 6 3690 3689 3692
6675 5 3690 3689 3709
6676 6 3691 3689 3692
6677 5 3691 3689 3709
6678 7 3692 3689 3709
6679 8 3689 3692 3693
6680 6 3692 3693 3694
6681 6 3692 3693 3695
6682 9 3692 3693 3696
6683 4 3694 3693 3695
6684 6 3694 3693 3696
6685 6 3695 3693 3696
6686 8 3693 3696 3697
6687 6 3696 3697 3698
6688 6 3696 3697 3699
6689 9 3696 3697 3700
6690 4 3698 3697 3699
6691 6 3698 3697 3700
6692 6 3699 3697 3700
6693 8 3697 3700 3701
6694 6 3700 3701 3702
6695 6 3700 3701 3703
6696 9 3700 3701 3704
6697 4 3702 3701 3703
6698 6 3702 3701 3704
6699 6 3703 3701 3704
6700 8 3701 3704 3705
6701 6 3704 3705 3706
6702 6 3704 3705 3707
6703 9 3704 3705 3708
6704 4 3706 3705 3707
6705 6 3706 3705 3708
6706 6 3707 3705 3708
6707 10 3705 3708 106
6708 11 105 3709 3689
6709 4 3711 3710 3712
6710 6 3711 3710 3713
6711 5 3711 3710 3730
6712 6 3712 3710 3713
6713 5 3712 3710 3730
6714 7 3713 3710 3730
6715 8 3710 3713 3714
6716 6 3713 3714 3715
6717 6 3713 3714 3716
6718 9 3713 3714 3717
6719 4 3715 3714 3716
6720 6 3715 3714 3717
6721 6 3716 3714 3717
6722 8 3714 3717 3718
6723 6 3717 3718 3719
6724 6 3717 3718 3720
6725 9 3717 3718 3721
6726 4 3719 3718 3720
6727 6 3719 3718 3721
6728 6 3720 3718 3721
6729 8 3718 3721 3722
6730 6 3721 3722 3723
6731 6 3721 3722 3724
6732 9 3721 3722 3725
6733 4 3723 3722 3724
6734 6 3723 3722 3725
6735 6 3724 3722 3725
6736 8 3722 3725 3726
6737 6 3725 3726 3727
6738 6 3725 3726 3728
6739 9 3725 3726 3729
6740 4 3727 3726 3728
6741 6 3727 3726 3729
6742 6 3728 3726 3729
6743 10 3726 3729 110
6744 11 105 3730 3710
6745 4 3732 3731 3733
6746 6 3732 3731 3734
6747 5 3732 3731 3751
6748 6 3733 3731 3734
6749 5 3733 3731 3751
6750 7 3734 3731 3751
6751 8 3731 3734 3735
6752 6 3734 3735 3736
6753 6 3734 3735 3737
6754 9 3734 3735 3738
6755 4 3736 3735 3737
6756 6 3736 3735 3738
6757 6 3737 3735 3738
6758 8 3735 3738 3739
6759 6 3738 3739 3740
6760 6 3738 3739 3741
6761 9 3738 3739 3742
6762 4 3740 3739 3741
6763 6 3740 3739 3742
6764 6 3741 3739 3742
6765 8 3739 3742 3743
6766 6 3742 3743 3744
6767 6 3742 3743 3745
6768 9 3742 3743 3746
6769 4 3744 3743 3745
6770 6 3744 3743 3746
6771 6 3745 3743 3746
6772 8 3743 3746 3747
6773 6 3746 3747 3748
6774 6 3746 3747 3749
6775 9 3746 3747 3750
6776 4 3748 3747 3749
6777 6 3748 3747 3750
6778 6 3749 3747 3750
6779 10 3747 3750 133
6780 11 105 3751 3731
6781 4 3753 3752 3754
6782 6 3753 3752 3755
6783 5 3753 3752 3772
6784 6 3754 3752 3755
6785 5 3754 3752 3772
6786 7 3755 3752 3772
6787 8 3752 3755 3756
6788 6 3755 3756 3757
6789 6 3755 3756 3758
6790 9 3755 3756 3759
6791 4 3757 3756 3758
6792 6 3757 3756 3759
6793 6 3758 3756 3759
6794 8 3756 3759 3760
6795 6 3759 3760 3761
6796 6 3759 3760 3762
6797 9 3759 3760 3763
6798 4 3761 3760 3762
6799 6 3761 3760 3763
6800 6 3762 3760 3763
6801 8 3760 3763 3764
6802 6 3763 3764 3765
6803 6 3763 3764 3766
6804 9 3763 3764 3767
6805 4 3765 3764 3766
6806 6 3765 3764 3767
6807 6 3766 3764 3767
6808 8 3764 3767 3768
6809 6 3767 3768 3769
6810 6 3767 3768 3770
6811 9 3767 3768 3771
6812 4 3769 3768 3770
6813 6 3769 3768 3771
6814 6 3770 3768 3771
6815 10 3768 3771 134
6816 11 106 3772 3752
6817 4 3774 3773 3775
6818 6 3774 3773 3776
6819 5 3774 3773 3793
6820 6 3775 3773 3776
6821 5 3775 3773 3793
6822 7 3776 3773 3793
6823 8 3773 3776 3777
6824 6 3776 3777 3778
6825 6 3776 3777 3779
6826 9 3776 3777 3780
6827 4 3778 3777 3779
6828 6 3778 3777 3780
6829 6 3779 3777 3780
6830 8 3777 3780 3781
6831 6 3780 3781 3782
6832 6 3780 3781 3783
6833 9 3780 3781 3784
6834 4 3782 3781 3783
6835 6 3782 3781 3784
6836 6 3783 3781 3784
6837 8 3781 3784 3785
6838 6 3784 3785 3786
6839 6 3784 3785 3787
6840 9 3784 3785 3788
6841 4 3786 3785 3787
6842 6 3786 3785 3788
6843 6 3787 3785 3788
6844 8 3785 3788 3789
6845 6 3788 3789 3790
6846 6 3788 3789 3791
6847 9 3788 3789 3792
6848 4 3790 3789 3791
6849 6 3790 3789 3792
6850 6 3791 3789 3792
6851 10 3789 3792 108
6852 11 107 3793 3773
6853 4 3795 3794 3796
6854 6 3795 3794 3797
6855 5 3795 3794 3814
6856 6 3796 3794 3797
6857 5 3796 3794 3814
6858 7 3797 3794 3814
6859 8 3794 3797 3798
6860 6 3797 3798 3799
6861 6 3797 3798 3800
6862 9 3797 3798 3801
6863 4 3799 3798 3800
6864 6 3799 3798 3801
6865 6 3800 3798 3801
6866 8 3798 3801 3802
6867 6 3801 3802 3803
6868 6 3801 3802 3804
6869 9 3801 3802 3805
6870 4 3803 3802 3804
6871 6 3803 3802 3805
6872 6 3804 3802 3805
6873 8 3802 3805 3806
6874 6 3805 3806 3807
6875 6 3805 3806 3808
6876 9 3805 3806 3809
6877 4 3807 3806 3808
6878 6 3807 3806 3809
6879 6 3808 3806 3809
6880 8 3806 3809 3810
6881 6 3809 3810 3811
6882 6 3809 3810 3812
6883 9 3809 3810 3813
6884 4 3811 3810 3812
6885 6 3811 3810 3813
6886 6 3812 3810 3813
6887 10 3810 3813 135
6888 11 107 3814 3794
6889 4 3816 3815 3817
6890 6 3816 3815 3818
6891 5 3816 3815 3835
6892 6 3817 3815 3818
6893 5 3817 3815 3835
6894 7 3818 3815 3835
6895 8 3815 3818 3819
6896 6 3818 3819 3820
6897 6 3818 3819 3821
6898 9 3818 3819 3822
6899 4 3820 3819 3821
6900 6 3820 3819 3822
6901 6 3821 3819 3822
6902 8 3819 3822 3823
6903 6 3822 3823 3824
6904 6 3822 3823 3825
6905 9 3822 3823 3826
6906 4 3824 3823 3825
6907 6 3824 3823 3826
6908 6 3825 3823 3826
6909 8 3823 3826 3827
6910 6 3826 3827 3828
6911 6 3826 3827 3829
6912 9 3826 3827 3830
6913 4 3828 3827 3829
6914 6 3828 3827 3830
6915 6 3829 3827 3830
6916 8 3827 3830 3831
6917 6 3830 3831 3832
6918 6 3830 3831 3833
6919 9 3830 3831 3834
6920 4 3832 3831 3833
6921 6 3832 3831 3834
6922 6 3833 3831 3834
6923 10 3831 3834 111
6924 11 107 3835 3815
6925 4 3837 3836 3838
6926 6 3837 3836 3839
6927 5 3837 3836 3856
6928 6 3838 3836 3839
6929 5 3838 3836 3856
6930 7 3839 3836 3856
6931 8 3836 3839 3840
6932 6 3839 3840 3841
6933 6 3839 3840 3842
6934 9 3839 3840 3843
6935 4 3841 3840 3842
6936 6 3841 3840 3843
6937 6 3842 3840 3843
6938 8 3840 3843 3844
6939 6 3843 3844 3845
6940 6 3843 3844 3846
6941 9 3843 3844 3847
6942 4 3845 3844 3846
6943 6 3845 3844 3847
6944 6 3846 3844 3847
6945 8 3844 3847 3848
6946 6 3847 3848 3849
6947 6 3847 3848 3850
6948 9 3847 3848 3851
6949 4 3849 3848 3850
6950 6 3849 3848 3851
6951 6 3850 3848 3851
6952 8 3848 3851 3852
6953 6 3851 3852 3853
6954 6 3851 3852 3854
6955 9 3851 3852 3855
6956 4 3853 3852 3854
6957 6 3853 3852 3855
6958 6 3854 3852 3855
6959 10 3852 3855 136
6960 11 108 3856 3836
6961 4 3858 3857 3859
6962 6 3858 3857 3860
6963 5 3858 3857 3877
6964 6 3859 3857 3860
6965 5 3859 3857 3877
6966 7 3860 3857 3877
6967 8 3857 3860 3861
6968 6 3860 3861 3862
6969 6 3860 3861 3863
6970 9 3860 3861 3864
6971 4 3862 3861 3863
6972 6 3862 3861 3864
6973 6 3863 3861 3864
6974 8 3861 3864 3865
6975 6 3864 3865 3866
6976 6 3864 3865 3867
6977 9 3864 3865 3868
6978 4 3866 3865 3867
6979 6 3866 3865 3868
6980 6 3867 3865 3868
6981 8 3865 3868 3869
6982 6 3868 3869 3870
6983 6 3868 3869 3871
6984 9 3868 3869 3872
6985 4 3870 3869 3871
6986 6 3870 3869 3872
6987 6 3871 3869 3872
6988 8 3869 3872 3873
6989 6 3872 3873 3874
6990 6 3872 3873 3875
6991 9 3872 3873 3876
6992 4 3874 3873 3875
6993 6 3874 3873 3876
6994 6 3875 3873 3876
6995 10 3873 3876 110
6996 11 109 3877 3857
6997 4 3879 3878 3880
6998 6 3879 3878 3881
6999 5 3879 3878 3898
7000 6 3880 3878 3881
7001 5 3880 3878 3898
7002 7 3881 3878 3898
7003 8 3878 3881 3882
7004 6 3881 3882 3883
7005 6 3881 3882 3884
7006 9 3881 3882 3885
7007 4 3883 3882 3884
7008 6 3883 3882 3885
7009 6 3884 3882 3885
7010 8 3882 3885 3886
7011 6 3885 3886 3887
7012 6 3885 3886 3888
7013 9 3885 3886 3889
7014 4 3887 3886 3888
7015 6 3887 3886 3889
7016 6 3888 3886 3889
7017 8 3886 3889 3890
7018 6 3889 3890 3891
7019 6 3889 3890 3892
7020 9 3889 3890 3893
7021 4 3891 3890 3892
7022 6 3891 3890 3893
7023 6 3892 3890 3893
7024 8 3890 3893 3894
7025 6 3893 3894 3895
7026 6 3893 3894 3896
7027 9 3893 3894 3897
7028 4 3895 3894 3896
7029 6 3895 3894 3897
7030 6 3896 3894 3897
7031 10 3894 3897 137
7032 11 109 3898 3878
7033 4 3900 3899 3901
7034 6 3900 3899 3902
7035 5 3900 3899 3919
7036 6 3901 3899 3902
7037 5 3901 3899 3919
7038 7 3902 3899 3919
7039 8 3899 3902 3903
7040 6 3902 3903 3904
7041 6 3902 3903 3905
7042 9 3902 3903 3906
7043 4 3904 3903 3905
7044 6 3904 3903 3906
7045 6 3905 3903 3906
7046 8 3903 3906 3907
7047 6 3906 3907 3908
7048 6 3906 3907 3909
7049 9 3906 3907 3910
7050 4 3908 3907 3909
7051 6 3908 3907 3910
7052 6 3909 3907 3910
7053 8 3907 3910 3911
7054 6 3910 3911 3912
7055 6 3910 3911 3913
7056 9 3910 3911 3914
7057 4 3912 3911 3913
7058 6 3912 3911 3914
7059 6 3913 3911 3914
7060 8 3911 3914 3915
7061 6 3914 3915 3916
7062 6 3914 3915 3917
7063 9 3914 3915 3918
7064 4 3916 3915 3917
7065 6 3916 3915 3918
7066 6 3917 3915 3918
7067 10 3915 3918 138
7068 11 110 3919 3899
7069 4 3921 3920 3922
7070 6 3921 3920 3923
7071 5 3921 3920 3940
7072 6 3922 3920 3923
7073 5 3922 3920 3940
7074 7 3923 3920 3940
7075 8 3920 3923 3924
7076 6 3923 3924 3925
7077 6 3923 3924 3926
7078 9 3923 3924 3927
7079 4 3925 3924 3926
7080 6 3925 3924 3927
7081 6 3926 3924 3927
7082 8 3924 3927 3928
7083 6 3927 3928 3929
7084 6 3927 3928 3930
7085 9 3927 3928 3931
7086 4 3929 3928 3930
7087 6 3929 3928 3931
7088 6 3930 3928 3931
7089 8 3928 3931 3932
7090 6 3931 3932 3933
7091 6 3931 3932 3934
7092 9 3931 3932 3935
7093 4 3933 3932 3934
7094 6 3933 3932 3935
7095 6 3934 3932 3935
7096 8 3932 3935 3936
7097 6 3935 3936 3937
7098 6 3935 3936 3938
7099 9 3935 3936 3939
7100 4 3937 3936 3938
7101 6 3937 3936 3939
7102 6 3938 3936 3939
7103 10 3936 3939 113
7104 11 112 3940 3920
7105 4 3942 3941 3943
7106 6 3942 3941 3944
7107 5 3942 3941 3961
7108 6 3943 3941 3944
7109 5 3943 3941 3961
7110 7 3944 3941 3961
7111 8 3941 3944 3945
7112 6 3944 3945 3946
7113 6 3944 3945 3947
7114 9 3944 3945 3948
7115 4 3946 3945 3947
7116 6 3946 3945 3948
7117 6 3947 3945 3948
7118 8 3945 3948 3949
7119 6 3948 3949 3950
7120 6 3948 3949 3951
7121 9 3948 3949 3952
7122 4 3950 3949 3951
7123 6 3950 3949 3952
7124 6 3951 3949 3952
7125 8 3949 3952 3953
7126 6 3952 3953 3954
7127 6 3952 3953 3955
7128 9 3952 3953 3956
7129 4 3954 3953 3955
7130 6 3954 3953 3956
7131 6 3955 3953 3956
7132 8 3953 3956 3957
7133 6 3956 3957 3958
7134 6 3956 3957 3959
7135 9 3956 3957 3960
7136 4 3958 3957 3959
7137 6 3958 3957 3960
7138 6 3959 3957 3960
7139 10 3957 3960 116
7140 11 112 3961 3941
7141 4 3963 3962 3964
7142 6 3963 3962 3965
7143 5 3963 3962 3982
7144 6 3964 3962 3965
7145 5 3964 3962 3982
7146 7 3965 3962 3982
7147 8 3962 3965 3966
7148 6 3965 3966 3967
7149 6 3965 3966 3968
7150 9 3965 3966 3969
7151 4 3967 3966 3968
7152 6 3967 3966 3969
7153 6 3968 3966 3969
7154 8 3966 3969 3970
7155 6 3969 3970 3971
7156 6 3969 3970 3972
7157 9 3969 3970 3973
7158 4 3971 3970 3972
7159 6 3971 3970 3973
7160 6 3972 3970 3973
7161 8 3970 3973 3974
7162 6 3973 3974 3975
7163 6 3973 3974 3976
7164 9 3973 3974 3977
7165 4 3975 3974 3976
7166 6 3975 3974 3977
7167 6 3976 3974 3977
7168 8 3974 3977 3978
7169 6 3977 3978 3979
7170 6 3977 3978 3980
7171 9 3977 3978 3981
7172 4 3979 3978 3980
7173 6 3979 3978 3981
7174 6 3980 3978 3981
7175 10 3978 3981 135
7176 11 112 3982 3962
7177 4 3984 3983 3985
7178 6 3984 3983 3986
7179 5 3984 3983 4003
7180 6 3985 3983 3986
7181 5 3985 3983 4003
7182 7 3986 3983 4003
7183 8 3983 3986 3987
7184 6 3986 3987 3988
7185 6 3986 3987 3989
7186 9 3986 3987 3990
7187 4 3988 3987 3989
7188 6 3988 3987 3990
7189 6 3989 3987 3990
7190 8 3987 3990 3991
7191 6 3990 3991 3992
7192 6 3990 3991 3993
7193 9 3990 3991 3994
7194 4 3992 3991 3993
7195 6 3992 3991 3994
7196 6 3993 3991 3994
7197 8 3991 3994 3995
7198 6 3994 3995 3996
7199 6 3994 3995 3997
7200 9 3994 3995 3998
7201 4 3996 3995 3997
7202 6 3996 3995 3998
7203 6 3997 3995 3998
7204 8 3995 3998 3999
7205 6 3998 3999 4000
7206 6 3998 3999 4001
7207 9 3998 3999 4002
7208 4 4000 3999 4001
7209 6 4000 3999 4002
7210 6 4001 3999 4002
7211 10 3999 4002 118
7212 11 113 4003 3983
7213 4 4005 4004 4006
7214 6 4005 4004 4007
7215 5 4005 4004 4024
7216 6 4006 4004 4007
7217 5 4006 4004 4024
7218 7 4007 4004 4024
7219 8 4004 4007 4008
7220 6 4007 4008 4009
7221 6 4007 4008 4010
7222 9 4007 4008 4011
7223 4 4009 4008 4010
7224 6 4009 4008 4011
7225 6 4010 4008 4011
7226 8 4008 4011 4012
7227 6 4011 4012 4013
7228 6 4011 4012 4014
7229 9 4011 4012 4015
7230 4 4013 4012 4014
7231 6 4013 4012 4015
7232 6 4014 4012 4015
7233 8 4012 4015 4016
7234 6 4015 4016 4017
7235 6 4015 4016 4018
7236 9 4015 4016 4019
7237 4 4017 4016 4018
7238 6 4017 4016 4019
7239 6 4018 4016 4019
7240 8 4016 4019 4020
7241 6 4019 4020 4021
7242 6 4019 4020 4022
7243 9 4019 4020 4023
7244 4 4021 4020 4022
7245 6 4021 4020 4023
7246 6 4022 4020 4023
7247 10 4020 4023 136
7248 11 113 4024 4004
7249 4 4026 4025 4027
7250 6 4026 4025 4028
7251 5 4026 4025 4045
7252 6 4027 4025 4028
7253 5 4027 4025 4045
7254 7 4028 4025 4045
7255 8 4025 4028 4029
7256 6 4028 4029 4030
7257 6 4028 4029 4031
7258 9 4028 4029 4032
7259 4 4030 4029 4031
7260 6 4030 4029 4032
7261 6 4031 4029 4032
7262 8 4029 4032 4033
7263 6 4032 4033 4034
7264 6 4032 4033 4035
7265 9 4032 4033 4036
7266 4 4034 4033 4035
7267 6 4034 4033 4036
7268 6 4035 4033 4036
7269 8 4033 4036 4037
7270 6 4036 4037 4038
7271 6 4036 4037 4039
7272 9 4036 4037 4040
7273 4 4038 4037 4039
7274 6 4038 4037 4040
7275 6 4039 4037 4040
7276 8 4037 4040 4041
7277 6 4040 4041 4042
7278 6 4040 4041 4043
7279 9 4040 4041 4044
7280 4 4042 4041 4043
7281 6 4042 4041 4044
7282 6 4043 4041 4044
7283 10 4041 4044 115
7284 11 114 4045 4025
7285 4 4047 4046 4048
7286 6 4047 4046 4049
7287 5 4047 4046 4066
7288 6 4048 4046 4049
7289 5 4048 4046 4066
7290 7 4049 4046 4066
7291 8 4046 4049 4050
7292 6 4049 4050 4051
7293 6 4049 4050 4052
7294 9 4049 4050 4053
7295 4 4051 4050 4052
7296 6 4051 4050 4053
7297 6 4052 4050 4053
7298 8 4050 4053 4054
7299 6 4053 4054 4055
7300 6 4053 4054 4056
7301 9 4053 4054 4057
7302 4 4055 4054 4056
7303 6 4055 4054 4057
7304 6 4056 4054 4057
7305 8 4054 4057 4058
7306 6 4057 4058 4059
7307 6 4057 4058 4060
7308 9 4057 4058 4061
7309 4 4059 4058 4060
7310 6 4059 4058 4061
7311 6 4060 4058 4061
7312 8 4058 4061 4062
7313 6 4061 4062 4063
7314 6 4061 4062 4064
7315 9 4061 4062 4065
7316 4 4063 4062 4064
7317 6 4063 4062 4065
7318 6 4064 4062 4065
7319 10 4062 4065 119
7320 11 114 4066 4046
7321 4 4068 4067 4069
7322 6 4068 4067 4070
7323 5 4068 4067 4087
7324 6 4069 4067 4070
7325 5 4069 4067 4087
7326 7 4070 4067 4087
7327 8 4067 4070 4071
7328 6 4070 4071 4072
7329 6 4070 4071 4073
7330 9 4070 4071 4074
7331 4 4072 4071 4073
7332 6 4072 4071 4074
7333 6 4073 4071 4074
7334 8 4071 4074 4075
7335 6 4074 4075 4076
7336 6 4074 4075 4077
7337 9 4074 4075 4078
7338 4 4076 4075 4077
7339 6 4076 4075 4078
7340 6 4077 4075 4078
7341 8 4075 4078 4079
7342 6 4078 4079 4080
7343 6 4078 4079 4081
7344 9 4078 4079 4082
7345 4 4080 4079 4081
7346 6 4080 4079 4082
7347 6 4081 4079 4082
7348 8 4079 4082 4083
7349 6 4082 4083 4084
7350 6 4082 4083 4085
7351 9 4082 4083 4086
7352 4 4084 4083 4085
7353 6 4084 4083 4086
7354 6 4085 4083 4086
7355 10 4083 4086 116
7356 11 115 4087 4067
7357 4 4089 4088 4090
7358 6 4089 4088 4091
7359 5 4089 4088 4108
7360 6 4090 4088 4091
7361 5 4090 4088 4108
7362 7 4091 4088 4108
7363 8 4088 4091 4092
7364 6 4091 4092 4093
7365 6 4091 4092 4094
7366 9 4091 4092 4095
7367 4 4093 4092 4094
7368 6 4093 4092 4095
7369 6 4094 4092 4095
7370 8 4092 4095 4096
7371 6 4095 4096 4097
7372 6 4095 4096 4098
7373 9 4095 4096 4099
7374 4 4097 4096 4098
7375 6 4097 4096 4099
7376 6 4098 4096 4099
7377 8 4096 4099 4100
7378 6 4099 4100 4101
7379 6 4099 4100 4102
7380 9 4099 4100 4103
7381 4 4101 4100 4102
7382 6 4101 4100 4103
7383 6 4102 4100 4103
7384 8 4100 4103 4104
7385 6 4103 4104 4105
7386 6 4103 4104 4106
7387 9 4103 4104 4107
7388 4 4105 4104 4106
7389 6 4105 4104 4107
7390 6 4106 4104 4107
7391 10 4104 4107 120
7392 11 115 4108 4088
7393 4 4110 4109 4111
7394 6 4110 4109 4112
7395 5 4110 4109 4129
7396 6 4111 4109 4112
7397 5 4111 4109 4129
7398 7 4112 4109 4129
7399 8 4109 4112 4113
7400 6 4112 4113 4114
7401 6 4112 4113 4115
7402 9 4112 4113 4116
7403 4 4114 4113 4115
7404 6 4114 4113 4116
7405 6 4115 4113 4116
7406 8 4113 4116 4117
7407 6 4116 4117 4118
7408 6 4116 4117 4119
7409 9 4116 4117 4120
7410 4 4118 4117 4119
7411 6 4118 4117 4120
7412 6 4119 4117 4120
7413 8 4117 4120 4121
7414 6 4120 4121 4122
7415 6 4120 4121 4123
7416 9 4120 4121 4124
7417 4 4122 4121 4123
7418 6 4122 4121 4124
7419 6 4123 4121 4124
7420 8 4121 4124 4125
7421 6 4124 4125 4126
7422 6 4124 4125 4127
7423 9 4124 4125 4128
7424 4 4126 4125 4127
7425 6 4126 4125 4128
7426 6 4127 4125 4128
7427 10 4125 4128 139
7428 11 116 4129 4109
7429 4 4131 4130 4132
7430 6 4131 4130 4133
7431 5 4131 4130 4150
7432 6 4132 4130 4133
7433 5 4132 4130 4150
7434 7 4133 4130 4150
7435 8 4130 4133 4134
7436 6 4133 4134 4135
7437 6 4133 4134 4136
7438 9 4133 4134 4137
7439 4 4135 4134 4136
7440 6 4135 4134 4137
7441 6 4136 4134 4137
7442 8 4134 4137 4138
7443 6 4137 4138 4139
7444 6 4137 4138 4140
7445 9 4137 4138 4141
7446 4 4139 4138 4140
7447 6 4139 4138 4141
7448 6 4140 4138 4141
7449 8 4138 4141 4142
7450 6 4141 4142 4143
7451 6 4141 4142 4144
7452 9 4141 4142 4145
7453 4 4143 4142 4144
7454 6 4143 4142 4145
7455 6 4144 4142 4145
7456 8 4142 4145 4146
7457 6 4145 4146 4147
7458 6 4145 4146 4148
7459 9 4145 4146 4149
7460 4 4147 4146 4148
7461 6 4147 4146 4149
7462 6 4148 4146 4149
7463 10 4146 4149 122
7464 11 117 4150 4130
7465 4 4152 4151 4153
7466 6 4152 4151 4154
7467 5 4152 4151 4171
7468 6 4153 4151 4154
7469 5 4153 4151 4171
7470 7 4154 4151 4171
7471 8 4151 4154 4155
7472 6 4154 4155 4156
7473 6 4154 4155 4157
7474 9 4154 4155 4158
7475 4 4156 4155 4157
7476 6 4156 4155 4158
7477 6 4157 4155 4158
7478 8 4155 4158 4159
7479 6 4158 4159 4160
7480 6 4158 4159 4161
7481 9 4158 4159 4162
7482 4 4160 4159 4161
7483 6 4160 4159 4162
7484 6 4161 4159 4162
7485 8 4159 4162 4163
7486 6 4162 4163 4164
7487 6 4162 4163 4165
7488 9 4162 4163 4166
7489 4 4164 4163 4165
7490 6 4164 4163 4166
7491 6 4165 4163 4166
7492 8 4163 4166 4167
7493 6 4166 4167 4168
7494 6 4166 4167 4169
7495 9 4166 4167 4170
7496 4 4168 4167 4169
7497 6 4168 4167 4170
7498 6 4169 4167 4170
7499 10 4167 4170 121
7500 11 117 4171 4151
7501 4 4173 4172 4174
7502 6 4173 4172 4175
7503 5 4173 4172 4192
7504 6 4174 4172 4175
7505 5 4174 4172 4192
7506 7 4175 4172 4192
7507 8 4172 4175 4176
7508 6 4175 4176 4177
7509 6 4175 4176 4178
7510 9 4175 4176 4179
7511 4 4177 4176 4178
7512 6 4177 4176 4179
7513 6 4178 4176 4179
7514 8 4176 4179 4180
7515 6 4179 4180 4181
7516 6 4179 4180 4182
7517 9 4179 4180 4183
7518 4 4181 4180 4182
7519 6 4181 4180 4183
7520 6 4182 4180 4183
7521 8 4180 4183 4184
7522 6 4183 4184 4185
7523 6 4183 4184 4186
7524 9 4183 4184 4187
7525 4 4185 4184 4186
7526 6 4185 4184 4187
7527 6 4186 4184 4187
7528 8 4184 4187 4188
7529 6 4187 4188 4189
7530 6 4187 4188 4190
7531 9 4187 4188 4191
7532 4 4189 4188 4190
7533 6 4189 4188 4191
7534 6 4190 4188 4191
7535 10 4188 4191 123
7536 11 118 4192 4172
7537 4 4194 4193 4195
7538 6 4194 4193 4196
7539 5 4194 4193 4213
7540 6 4195 4193 4196
7541 5 4195 4193 4213
7542 7 4196 4193 4213
7543 8 4193 4196 4197
7544 6 4196 4197 4198
7545 6 4196 4197 4199
7546 9 4196 4197 4200
7547 4 4198 4197 4199
7548 6 4198 4197 4200
7549 6 4199 4197 4200
7550 8 4197 4200 4201
7551 6 4200 4201 4202
7552 6 4200 4201 4203
7553 9 4200 4201 4204
7554 4 4202 4201 4203
7555 6 4202 4201 4204
7556 6 4203 4201 4204
7557 8 4201 4204 4205
7558 6 4204 4205 4206
7559 6 4204 4205 4207
7560 9 4204 4205 4208
7561 4 4206 4205 4207
7562 6 4206 4205 4208
7563 6 4207 4205 4208
7564 8 4205 4208 4209
7565 6 4208 4209 4210
7566 6 4208 4209 4211
7567 9 4208 4209 4212
7568 4 4210 4209 4211
7569 6 4210 4209 4212
7570 6 4211 4209 4212
7571 10 4209 4212 124
7572 11 119 4213 4193
7573 4 4215 4214 4216
7574 6 4215 4214 4217
7575 5 4215 4214 4234
7576 6 4216 4214 4217
7577 5 4216 4214 4234
7578 7 4217 4214 4234
7579 8 4214 4217 4218
7580 6 4217 4218 4219
7581 6 4217 4218 4220
7582 9 4217 4218 4221
7583 4 4219 4218 4220
7584 6 4219 4218 4221
7585 6 4220 4218 4221
7586 8 4218 4221 4222
7587 6 4221 4222 4223
7588 6 4221 4222 4224
7589 9 4221 4222 4225
7590 4 4223 4222 4224
7591 6 4223 4222 4225
7592 6 4224 4222 4225
7593 8 4222 4225 4226
7594 6 4225 4226 4227
7595 6 4225 4226 4228
7596 9 4225 4226 4229
7597 4 4227 4226 4228
7598 6 4227 4226 4229
7599 6 4228 4226 4229
7600 8 4226 4229 4230
7601 6 4229 4230 4231
7602 6 4229 4230 4232
7603 9 4229 4230 4233
7604 4 4231 4230 4232
7605 6 4231 4230 4233
7606 6 4232 4230 4233
7607 10 4230 4233 125
7608 11 120 4234 4214
7609 4 4236 4235 4237
7610 6 4236 4235 4238
7611 5 4236 4235 4255
7612 6 4237 4235 4238
7613 5 4237 4235 4255
7614 7 4238 4235 4255
7615 8 4235 4238 4239
7616 6 4238 4239 4240
7617 6 4238 4239 4241
7618 9 4238 4239 4242
7619 4 4240 4239 4241
7620 6 4240 4239 4242
7621 6 4241 4239 4242
7622 8 4239 4242 4243
7623 6 4242 4243 4244
7624 6 4242 4243 4245
7625 9 4242 4243 4246
7626 4 4244 4243 4245
7627 6 4244 4243 4246
7628 6 4245 4243 4246
7629 8 4243 4246 4247
7630 6 4246 4247 4248
7631 6 4246 4247 4249
7632 9 4246 4247 4250
7633 4 4248 4247 4249
7634 6 4248 4247 4250
7635 6 4249 4247 4250
7636 8 4247 4250 4251
7637 6 4250 4251 4252
7638 6 4250 4251 4253
7639 9 4250 4251 4254
7640 4 4252 4251 4253
7641 6 4252 4251 4254
7642 6 4253 4251 4254
7643 10 4251 4254 126
7644 11 121 4255 4235
7645 4 4257 4256 4258
7646 6 4257 4256 4259
7647 5 4257 4256 4276
7648 6 4258 4256 4259
7649 5 4258 4256 4276
7650 7 4259 4256 4276
7651 8 4256 4259 4260
7652 6 4259 4260 4261
7653 6 4259 4260 4262
7654 9 4259 4260 4263
7655 4 4261 4260 4262
7656 6 4261 4260 4263
7657 6 4262 4260 4263
7658 8 4260 4263 4264
7659 6 4263 4264 4265
7660 6 4263 4264 4266
7661 9 4263 4264 4267
7662 4 4265 4264 4266
7663 6 4265 4264 4267
7664 6 4266 4264 4267
7665 8 4264 4267 4268
7666 6 4267 4268 4269
7667 6 4267 4268 4270
7668 9 4267 4268 4271
7669 4 4269 4268 4270
7670 6 4269 4268 4271
7671 6 4270 4268 4271
7672 8 4268 4271 4272
7673 6 4271 4272 4273
7674 6 4271 4272 4274
7675 9 4271 4272 4275
7676 4 4273 4272 4274
7677 6 4273 4272 4275
7678 6 4274 4272 4275
7679 10 4272 4275 123
7680 11 122 4276 4256
7681 4 4278 4277 4279
7682 6 4278 4277 4280
7683 5 4278 4277 4297
7684 6 4279 4277 4280
7685 5 4279 4277 4297
7686 7 4280 4277 4297
7687 8 4277 4280 4281
7688 6 4280 4281 4282
7689 6 4280 4281 4283
7690 9 4280 4281 4284
7691 4 4282 4281 4283
7692 6 4282 4281 4284
7693 6 4283 4281 4284
7694 8 4281 4284 4285
7695 6 4284 4285 4286
7696 6 4284 4285 4287
7697 9 4284 4285 4288
7698 4 4286 4285 4287
7699 6 4286 4285 4288
7700 6 4287 4285 4288
7701 8 4285 4288 4289
7702 6 4288 4289 4290
7703 6 4288 4289 4291
7704 9 4288 4289 4292
7705 4 4290 4289 4291
7706 6 4290 4289 4292
7707 6 4291 4289 4292
7708 8 4289 4292 4293
7709 6 4292 4293 4294
7710 6 4292 4293 4295
7711 9 4292 4293 4296
7712 4 4294 4293 4295
7713 6 4294 4293 4296
7714 6 4295 4293 4296
7715 8 4293 4296 127
7716 11 122 4297 4277
7717 4 4299 4298 4300
7718 6 4299 4298 4301
7719 5 4299 4298 4318
7720 6 4300 4298 4301
7721 5 4300 4298 4318
7722 7 4301 4298 4318
7723 8 4298 4301 4302
7724 6 4301 4302 4303
7725 6 4301 4302 4304
7726 9 4301 4302 4305
7727 4 4303 4302 4304
7728 6 4303 4302 4305
7729 6 4304 4302 4305
7730 8 4302 4305 4306
7731 6 4305 4306 4307
7732 6 4305 4306 4308
7733 9 4305 4306 4309
7734 4 4307 4306 4308
7735 6 4307 4306 4309
7736 6 4308 4306 4309
7737 8 4306 4309 4310
7738 6 4309 4310 4311
7739 6 4309 4310 4312
7740 9 4309 4310 4313
7741 4 4311 4310 4312
7742 6 4311 4310 4313
7743 6 4312 4310 4313
7744 8 4310 4313 4314
7745 6 4313 4314 4315
7746 6 4313 4314 4316
7747 9 4313 4314 4317
7748 4 4315 4314 4316
7749 6 4315 4314 4317
7750 6 4316 4314 4317
7751 10 4314 4317 124
7752 11 123 4318 4298
7753 4 4320 4319 4321
7754 6 4320 4319 4322
7755 5 4320 4319 4339
7756 6 4321 4319 4322
7757 5 4321 4319 4339
7758 7 4322 4319 4339
7759 8 4319 4322 4323
7760 6 4322 4323 4324
7761 6 4322 4323 4325
7762 9 4322 4323 4326
7763 4 4324 4323 4325
7764 6 4324 4323 4326
7765 6 4325 4323 4326
7766 8 4323 4326 4327
7767 6 4326 4327 4328
7768 6 4326 4327 4329
7769 9 4326 4327 4330
7770 4 4328 4327 4329
7771 6 4328 4327 4330
7772 6 4329 4327 4330
7773 8 4327 4330 4331
7774 6 4330 4331 4332
7775 6 4330 4331 4333
7776 9 4330 4331 4334
7777 4 4332 4331 4333
7778 6 4332 4331 4334
7779 6 4333 4331 4334
7780 8 4331 4334 4335
7781 6 4334 4335 4336
7782 6 4334 4335 4337
7783 9 4334 4335 4338
7784 4 4336 4335 4337
7785 6 4336 4335 4338
7786 6 4337 4335 4338
7787 10 4335 4338 132
7788 11 124 4339 4319
7789 4 4341 4340 4342
7790 6 4341 4340 4343
7791 5 4341 4340 4360
7792 6 4342 4340 4343
7793 5 4342 4340 4360
7794 7 4343 4340 4360
7795 8 4340 4343 4344
7796 6 4343 4344 4345
7797 6 4343 4344 4346
7798 9 4343 4344 4347
7799 4 4345 4344 4346
7800 6 4345 4344 4347
7801 6 4346 4344 4347
7802 8 4344 4347 4348
7803 6 4347 4348 4349
7804 6 4347 4348 4350
7805 9 4347 4348 4351
7806 4 4349 4348 4350
7807 6 4349 4348 4351
7808 6 4350 4348 4351
7809 8 4348 4351 4352
7810 6 4351 4352 4353
7811 6 4351 4352 4354
7812 9 4351 4352 4355
7813 4 4353 4352 4354
7814 6 4353 4352 4355
7815 6 4354 4352 4355
7816 8 4352 4355 4356
7817 6 4355 4356 4357
7818 6 4355 4356 4358
7819 9 4355 4356 4359
7820 4 4357 4356 4358
7821 6 4357 4356 4359
7822 6 4358 4356 4359
7823 10 4356 4359 126
7824 11 125 4360 4340
7825 4 4362 4361 4363
7826 6 4362 4361 4364
7827 5 4362 4361 4381
7828 6 4363 4361 4364
7829 5 4363 4361 4381
7830 7 4364 4361 4381
7831 8 4361 4364 4365
7832 6 4364 4365 4366
7833 6 4364 4365 4367
7834 9 4364 4365 4368
7835 4 4366 4365 4367
7836 6 4366 4365 4368
7837 6 4367 4365 4368
7838 8 4365 4368 4369
7839 6 4368 4369 4370
7840 6 4368 4369 4371
7841 9 4368 4369 4372
7842 4 4370 4369 4371
7843 6 4370 4369 4372
7844 6 4371 4369 4372
7845 8 4369 4372 4373
7846 6 4372 4373 4374
7847 6 4372 4373 4375
7848 9 4372 4373 4376
7849 4 4374 4373 4375
7850 6 4374 4373 4376
7851 6 4375 4373 4376
7852 8 4373 4376 4377
7853 6 4376 4377 4378
7854 6 4376 4377 4379
7855 9 4376 4377 4380
7856 4 4378 4377 4379
7857 6 4378 4377 4380
7858 6 4379 4377 4380
7859 10 4377 4380 133
7860 11 125 4381 4361
7861 4 4383 4382 4384
7862 6 4383 4382 4385
7863 5 4383 4382 4402
7864 6 4384 4382 4385
7865 5 4384 4382 4402
7866 7 4385 4382 4402
7867 8 4382 4385 4386
7868 6 4385 4386 4387
7869 6 4385 4386 4388
7870 9 4385 4386 4389
7871 4 4387 4386 4388
7872 6 4387 4386 4389
7873 6 4388 4386 4389
7874 8 4386 4389 4390
7875 6 4389 4390 4391
7876 6 4389 4390 4392
7877 9 4389 4390 4393
7878 4 4391 4390 4392
7879 6 4391 4390 4393
7880 6 4392 4390 4393
7881 8 4390 4393 4394
7882 6 4393 4394 4395
7883 6 4393 4394 4396
7884 9 4393 4394 4397
7885 4 4395 4394 4396
7886 6 4395 4394 4397
7887 6 4396 4394 4397
7888 8 4394 4397 4398
7889 6 4397 4398 4399
7890 6 4397 4398 4400
7891 9 4397 4398 4401
7892 4 4399 4398 4400
7893 6 4399 4398 4401
7894 6 4400 4398 4401
7895 10 4398 4401 134
7896 11 126 4402 4382
7897 4 4404 4403 4405
7898 6 4404 4403 4406
7899 5 4404 4403 4423
7900 6 4405 4403 4406
7901 5 4405 4403 4423
7902 7 4406 4403 4423
7903 8 4403 4406 4407
7904 6 4406 4407 4408
7905 6 4406 4407 4409
7906 9 4406 4407 4410
7907 4 4408 4407 4409
7908 6 4408 4407 4410
7909 6 4409 4407 4410
7910 8 4407 4410 4411
7911 6 4410 4411 4412
7912 6 4410 4411 4413
7913 9 4410 4411 4414
7914 4 4412 4411 4413
7915 6 4412 4411 4414
7916 6 4413 4411 4414
7917 8 4411 4414 4415
7918 6 4414 4415 4416
7919 6 4414 4415 4417
7920 9 4414 4415 4418
7921 4 4416 4415 4417
7922 6 4416 4415 4418
7923 6 4417 4415 4418
7924 8 4415 4418 4419
7925 6 4418 4419 4420
7926 6 4418 4419 4421
7927 9 4418 4419 4422
7928 4 4420 4419 4421
7929 6 4420 4419 4422
7930 6 4421 4419 4422
7931 10 4419 4422 132
7932 11 131 4423 4403
7933 4 4425 4424 4426
7934 6 4425 4424 4427
7935 5 4425 4424 4444
7936 6 4426 4424 4427
7937 5 4426 4424 4444
7938 7 4427 4424 4444
7939 8 4424 4427 4428
7940 6 4427 4428 4429
7941 6 4427 4428 4430
7942 9 4427 4428 4431
7943 4 4429 4428 4430
7944 6 4429 4428 4431
7945 6 4430 4428 4431
7946 8 4428 4431 4432
7947 6 4431 4432 4433
7948 6 4431 4432 4434
7949 9 4431 4432 4435
7950 4 4433 4432 4434
7951 6 4433 4432 4435
7952 6 4434 4432 4435
7953 8 4432 4435 4436
7954 6 4435 4436 4437
7955 6 4435 4436 4438
7956 9 4435 4436 4439
7957 4 4437 4436 4438
7958 6 4437 4436 4439
7959 6 4438 4436 4439
7960 8 4436 4439 4440
7961 6 4439 4440 4441
7962 6 4439 4440 4442
7963 9 4439 4440 4443
7964 4 4441 4440 4442
7965 6 4441 4440 4443
7966 6 4442 4440 4443
7967 10 4440 4443 136
7968 11 131 4444 4424
7969 4 4446 4445 4447
7970 6 4446 4445 4448
7971 5 4446 4445 4465
7972 6 4447 4445 4448
7973 5 4447 4445 4465
7974 7 4448 4445 4465
7975 8 4445 4448 4449
7976 6 4448 4449 4450
7977 6 4448 4449 4451
7978 9 4448 4449 4452
7979 4 4450 4449 4451
7980 6 4450 4449 4452
7981 6 4451 4449 4452
7982 8 4449 4452 4453
7983 6 4452 4453 4454
7984 6 4452 4453 4455
7985 9 4452 4453 4456
7986 4 4454 4453 4455
7987 6 4454 4453 4456
7988 6 4455 4453 4456
7989 8 4453 4456 4457
7990 6 4456 4457 4458
7991 6 4456 4457 4459
7992 9 4456 4457 4460
7993 4 4458 4457 4459
7994 6 4458 4457 4460
7995 6 4459 4457 4460
7996 8 4457 4460 4461
7997 6 4460 4461 4462
7998 6 4460 4461 4463
7999 9 4460 4461 4464
8000 4 4462 4461 4463
8001 6 4462 4461 4464
8002 6 4463 4461 4464
8003 10 4461 4464 137
8004 11 132 4465 4445
8005 4 4467 4466 4468
8006 6 4467 4466 4469
8007 5 4467 4466 4486
8008 6 4468 4466 4469
8009 5 4468 4466 4486
8010 7 4469 4466 4486
8011 8 4466 4469 4470
8012 6 4469 4470 4471
8013 6 4469 4470 4472
8014 9 4469 4470 4473
8015 4 4471 4470 4472
8016 6 4471 4470 4473
8017 6 4472 4470 4473
8018 8 4470 4473 4474
8019 6 4473 4474 4475
8020 6 4473 4474 4476
8021 9 4473 4474 4477
8022 4 4475 4474 4476
8023 6 4475 4474 4477
8024 6 4476 4474 4477
8025 8 4474 4477 4478
8026 6 4477 4478 4479
8027 6 4477 4478 4480
8028 9 4477 4478 4481
8029 4 4479 4478 4480
8030 6 4479 4478 4481
8031 6 4480 4478 4481
8032 8 4478 4481 4482
8033 6 4481 4482 4483
8034 6 4481 4482 4484
8035 9 4481 4482 4485
8036 4 4483 4482 4484
8037 6 4483 4482 4485
8038 6 4484 4482 4485
8039 10 4482 4485 138
8040 11 133 4486 4466
8041 4 4488 4487 4489
8042 6 4488 4487 4490
8043 5 4488 4487 4507
8044 6 4489 4487 4490
8045 5 4489 4487 4507
8046 7 4490 4487 4507
8047 8 4487 4490 4491
8048 6 4490 4491 4492
8049 6 4490 4491 4493
8050 9 4490 4491 4494
8051 4 4492 4491 4493
8052 6 4492 4491 4494
8053 6 4493 4491 4494
8054 8 4491 4494 4495
8055 6 4494 4495 4496
8056 6 4494 4495 4497
8057 9 4494 4495 4498
8058 4 4496 4495 4497
8059 6 4496 4495 4498
8060 6 4497 4495 4498
8061 8 4495 4498 4499
8062 6 4498 4499 4500
8063 6 4498 4499 4501
8064 9 4498 4499 4502
8065 4 4500 4499 4501
8066 6 4500 4499 4502
8067 6 4501 4499 4502
8068 8 4499 4502 4503
8069 6 4502 4503 4504
8070 6 4502 4503 4505
8071 9 4502 4503 4506
8072 4 4504 4503 4505
8073 6 4504 4503 4506
8074 6 4505 4503 4506
8075 10 4503 4506 136
8076 11 135 4507 4487
8077 4 4509 4508 4510
8078 6 4509 4508 4511
8079 5 4509 4508 4528
8080 6 4510 4508 4511
8081 5 4510 4508 4528
8082 7 4511 4508 4528
8083 8 4508 4511 4512
8084 6 4511 4512 4513
8085 6 4511 4512 4514
8086 9 4511 4512 4515
8087 4 4513 4512 4514
8088 6 4513 4512 4515
8089 6 4514 4512 4515
8090 8 4512 4515 4516
8091 6 4515 4516 4517
8092 6 4515 4516 4518
8093 9 4515 4516 4519
8094 4 4517 4516 4518
8095 6 4517 4516 4519
8096 6 4518 4516 4519
8097 8 4516 4519 4520
8098 6 4519 4520 4521
8099 6 4519 4520 4522
8100 9 4519 4520 4523
8101 4 4521 4520 4522
8102 6 4521 4520 4523
8103 6 4522 4520 4523
8104 8 4520 4523 4524
8105 6 4523 4524 4525
8106 6 4523 4524 4526
8107 9 4523 4524 4527
8108 4 4525 4524 4526
8109 6 4525 4524 4527
8110 6 4526 4524 4527
8111 10 4524 4527 138
8112 11 137 4528 4508
8113 4 4530 4529 4531
8114 6 4530 4529 4532
8115 5 4530 4529 4549
8116 6 4531 4529 4532
8117 5 4531 4529 4549
8118 7 4532 4529 4549
8119 8 4529 4532 4533
8120 6 4532 4533 4534
8121 6 4532 4533 4535
8122 9 4532 4533 4536
8123 4 4534 4533 4535
8124 6 4534 4533 4536
8125 6 4535 4533 4536
8126 8 4533 4536 4537
8127 6 4536 4537 4538
8128 6 4536 4537 4539
8129 9 4536 4537 4540
8130 4 4538 4537 4539
8131 6 4538 4537 4540
8132 6 4539 4537 4540
8133 8 4537 4540 4541
8134 6 4540 4541 4542
8135 6 4540 4541 4543
8136 9 4540 4541 4544
8137 4 4542 4541 4543
8138 6 4542 4541 4544
8139 6 4543 4541 4544
8140 8 4541 4544 4545
8141 6 4544 4545 4546
8142 6 4544 4545 4547
8143 9 4544 4545 4548
8144 4 4546 4545 4547
8145 6 4546 4545 4548
8146 6 4547 4545 4548
8147 10 4545 4548 139
8148 11 138 4549 4529

Dihedrals

1 1 141 140 143 144
2 1 142 140 143 144
3 2 160 140 143 144
4 1 140 143 144 145
5 1 140 143 144 146
6 3 140 143 144 147
7 3 143 144 147 148
8 1 145 144 147 148
9 1 146 144 147 148
10 1 144 147 148 149
11 1 144 147 148 150
12 3 144 147 148 151
13 3 147 148 151 152
14 1 149 148 151 152
15 1 150 148 151 152
16 1 148 151 152 153
17 1 148 151 152 154
18 3 148 151 152 155
19 3 151 152 155 156
20 1 153 152 155 156
21 1 154 152 155 156
22 1 152 155 156 157
23 1 152 155 156 158
24 3 152 155 156 159
25 4 155 156 159 6
26 5 157 156 159 6
27 5 158 156 159 6
28 6 181 1 160 140
29 6 202 1 160 140
30 7 1 160 140 141
31 7 1 160 140 142
32 8 1 160 140 143
33 9 156 159 6 454
34 9 156 159 6 475
35 9 156 159 6 496
36 1 162 161 164 165
37 1 163 161 164 165
38 2 181 161 164 165
39 1 161 164 165 166
40 1 161 164 165 167
41 3 161 164 165 168
42 3 164 165 168 169
43 1 166 165 168 169
44 1 167 165 168 169
45 1 165 168 169 170
46 1 165 168 169 171
47 3 165 168 169 172
48 3 168 169 172 173
49 1 170 169 172 173
50 1 171 169 172 173
51 1 169 172 173 174
52 1 169 172 173 175
53 3 169 172 173 176
54 3 172 173 176 177
55 1 174 173 176 177
56 1 175 173 176 177
57 1 173 176 177 178
58 1 173 176 177 179
59 3 173 176 177 180
60 4 176 177 180 5
61 5 178 177 180 5
62 5 179 177 180 5
63 6 160 1 181 161
64 6 202 1 181 161
65 7 1 181 161 162
66 7 1 181 161 163
67 8 1 181 161 164
68 10 177 180 5 348
69 9 177 180 5 412
70 9 177 180 5 433
71 1 183 182 185 186
72 1 184 182 185 186
73 2 202 182 185 186
74 1 182 185 186 187
75 1 182 185 186 188
76 3 182 185 186 189
77 3 185 186 189 190
78 1 187 186 189 190
79 1 188 186 189 190
80 1 186 189 190 191
81 1 186 189 190 192
82 3 186 189 190 193
83 3 189 190 193 194
84 1 191 190 193 194
85 1 192 190 193 194
86 1 190 193 194 195
87 1 190 193 194 196
88 3 190 193 194 197
89 3 193 194 197 198
90 1 195 194 197 198
91 1 196 194 197 198
92 1 194 197 198 199
93 1 194 197 198 200
94 3 194 197 198 201
95 4 197 198 201 23
96 5 199 198 201 23
97 5 200 198 201 23
98 6 160 1 202 182
99 6 181 1 202 182
100 7 1 202 182 183
101 7 1 202 182 184
102 8 1 202 182 185
103 10 198 201 23 915
104 9 198 201 23 1126
105 9 198 201 23 1147
106 1 204 203 206 207
107 1 205 203 206 207
108 2 223 203 206 207
109 1 203 206 207 208
110 1 203 206 207 209
111 3 203 206 207 210
112 3 206 207 210 211
113 1 208 207 210 211
114 1 209 207 210 211
115 1 207 210 211 212
116 1 207 210 211 213
117 3 207 210 211 214
118 3 210 211 214 215
119 1 212 211 214 215
120 1 213 211 214 215
121 1 211 214 215 216
122 1 211 214 215 217
123 3 211 214 215 218
124 3 214 215 218 219
125 1 216 215 218 219
126 1 217 215 218 219
127 1 215 218 219 220
128 1 215 218 219 221
129 3 215 218 219 222
130 4 218 219 222 3
131 5 220 219 222 3
132 5 221 219 222 3
133 6 244 2 223 203
134 6 265 2 223 203
135 7 2 223 203 204
136 7 2 223 203 205
137 8 2 223 203 206
138 9 219 222 3 286
139 9 219 222 3 307
140 9 219 222 3 328
141 1 225 224 227 228
142 1 226 224 227 228
143 2 244 224 227 228
144 1 224 227 228 229
145 1 224 227 228 230
146 3 224 227 228 231
147 3 227 228 231 232
148 1 229 228 231 232
149 1 230 228 231 232
150 1 228 231 232 233
151 1 228 231 232 234
152 3 228 231 232 235
153 3 231 232 235 236
154 1 233 232 235 236
155 1 234 232 235 236
156 1 232 235 236 237
157 1 232 235 236 238
158 3 232 235 236 239
159 3 235 236 239 240
160 1 237 236 239 240
161 1 238 236 239 240
162 1 236 239 240 241
163 1 236 239 240 242
164 3 236 239 240 243
165 4 239 240 243 29
166 5 241 240 243 29
167 5 242 240 243 29
168 6 223 2 244 224
169 6 265 2 244 224
170 7 2 244 224 225
171 7 2 244 224 226
172 8 2 244 224 227
173 9 240 243 29 1357
174 9 240 243 29 1378
175 9 240 243 29 1399
176 1 246 245 248 249
177 1 247 245 248 249
178 2 265 245 248 249
179 1 245 248 249 250
180 1 245 248 249 251
181 3 245 248 249 252
182 3 248 249 252 253
183 1 250 249 252 253
184 1 251 249 252 253
185 1 249 252 253 254
186 1 249 252 253 255
187 3 249 252 253 256
188 3 252 253 256 257
189 1 254 253 256 257
190 1 255 253 256 257
191 1 253 256 257 258
192 1 253 256 257 259
193 3 253 256 257 260
194 3 256 257 260 261
195 1 258 257 260 261
196 1 259 257 260 261
197 1 257 260 261 262
198 1 257 260 261 263
199 3 257 260 261 264
200 4 260 261 264 24
201 5 262 261 264 24
202 5 263 261 264 24
203 6 223 2 265 245
204 6 244 2 265 245
205 7 2 265 245 246
206 7 2 265 245 247
207 8 2 265 245 248
208 10 261 264 24 978
209 10 261 264 24 1125
210 9 261 264 24 1168
211 1 267 266 269 270
212 1 268 266 269 270
213 2 286 266 269 270
214 1 266 269 270 271
215 1 266 269 270 272
216 3 266 269 270 273
217 3 269 270 273 274
218 1 271 270 273 274
219 1 272 270 273 274
220 1 270 273 274 275
221 1 270 273 274 276
222 3 270 273 274 277
223 3 273 274 277 278
224 1 275 274 277 278
225 1 276 274 277 278
226 1 274 277 278 279
227 1 274 277 278 280
228 3 274 277 278 281
229 3 277 278 281 282
230 1 279 278 281 282
231 1 280 278 281 282
232 1 278 281 282 283
233 1 278 281 282 284
234 3 278 281 282 285
235 4 281 282 285 4
236 5 283 282 285 4
237 5 284 282 285 4
238 11 222 3 286 266
239 6 307 3 286 266
240 6 328 3 286 266
241 7 3 286 266 267
242 7 3 286 266 268
243 8 3 286 266 269
244 9 282 285 4 349
245 9 282 285 4 370
246 9 282 285 4 391
247 1 288 287 290 291
248 1 289 287 290 291
249 2 307 287 290 291
250 1 287 290 291 292
251 1 287 290 291 293
252 3 287 290 291 294
253 3 290 291 294 295
254 1 292 291 294 295
255 1 293 291 294 295
256 1 291 294 295 296
257 1 291 294 295 297
258 3 291 294 295 298
259 3 294 295 298 299
260 1 296 295 298 299
261 1 297 295 298 299
262 1 295 298 299 300
263 1 295 298 299 301
264 3 295 298 299 302
265 3 298 299 302 303
266 1 300 299 302 303
267 1 301 299 302 303
268 1 299 302 303 304
269 1 299 302 303 305
270 3 299 302 303 306
271 4 302 303 306 30
272 5 304 303 306 30
273 5 305 303 306 30
274 11 222 3 307 287
275 6 286 3 307 287
276 6 328 3 307 287
277 7 3 307 287 288
278 7 3 307 287 289
279 8 3 307 287 290
280 10 303 306 30 1356
281 9 303 306 30 1420
282 9 303 306 30 1441
283 1 309 308 311 312
284 1 310 308 311 312
285 2 328 308 311 312
286 1 308 311 312 313
287 1 308 311 312 314
288 3 308 311 312 315
289 3 311 312 315 316
290 1 313 312 315 316
291 1 314 312 315 316
292 1 312 315 316 317
293 1 312 315 316 318
294 3 312 315 316 319
295 3 315 316 319 320
296 1 317 316 319 320
297 1 318 316 319 320
298 1 316 319 320 321
299 1 316 319 320 322
300 3 316 319 320 323
301 3 319 320 323 324
302 1 321 320 323 324
303 1 322 320 323 324
304 1 320 323 324 325
305 1 320 323 324 326
306 3 320 323 324 327
307 4 323 324 327 25
308 5 325 324 327 25
309 5 326 324 327 25
310 11 222 3 328 308
311 6 286 3 328 308
312 6 307 3 328 308
313 7 3 328 308 309
314 7 3 328 308 310
315 8 3 328 308 311
316 9 324 327 25 1189
317 9 324 327 25 1210
318 1 330 329 332 333
319 1 331 329 332 333
320 2 349 329 332 333
321 1 329 332 333 334
322 1 329 332 333 335
323 3 329 332 333 336
324 3 332 333 336 337
325 1 334 333 336 337
326 1 335 333 336 337
327 1 333 336 337 338
328 1 333 336 337 339
329 3 333 336 337 340
330 3 336 337 340 341
331 1 338 337 340 341
332 1 339 337 340 341
333 1 337 340 341 342
334 1 337 340 341 343
335 3 337 340 341 344
336 3 340 341 344 345
337 1 342 341 344 345
338 1 343 341 344 345
339 1 341 344 345 346
340 1 341 344 345 347
341 3 341 344 345 348
342 4 344 345 348 5
343 5 346 345 348 5
344 5 347 345 348 5
345 11 285 4 349 329
346 6 370 4 349 329
347 6 391 4 349 329
348 7 4 349 329 330
349 7 4 349 329 331
350 8 4 349 329 332
351 10 345 348 5 180
352 9 345 348 5 412
353 9 345 348 5 433
354 1 351 350 353 354
355 1 352 350 353 354
356 2 370 350 353 354
357 1 350 353 354 355
358 1 350 353 354 356
359 3 350 353 354 357
360 3 353 354 357 358
361 1 355 354 357 358
362 1 356 354 357 358
363 1 354 357 358 359
364 1 354 357 358 360
365 3 354 357 358 361
366 3 357 358 361 362
367 1 359 358 361 362
368 1 360 358 361 362
369 1 358 361 362 363
370 1 358 361 362 364
371 3 358 361 362 365
372 3 361 362 365 366
373 1 363 362 365 366
374 1 364 362 365 366
375 1 362 365 366 367
376 1 362 365 366 368
377 3 362 365 366 369
378 4 365 366 369 8
379 5 367 366 369 8
380 5 368 366 369 8
381 11 285 4 370 350
382 6 349 4 370 350
383 6 391 4 370 350
384 7 4 370 350 351
385 7 4 370 350 352
386 8 4 370 350 353
387 10 366 369 8 516
388 9 366 369 8 601
389 9 366 369 8 622
390 1 372 371 374 375
391 1 373 371 374 375
392 2 391 371 374 375
393 1 371 374 375 376
394 1 371 374 375 377
395 3 371 374 375 378
396 3 374 375 378 379
397 1 376 375 378 379
398 1 377 375 378 379
399 1 375 378 379 380
400 1 375 378 379 381
401 3 375 378 379 382
402 3 378 379 382 383
403 1 380 379 382 383
404 1 381 379 382 383
405 1 379 382 383 384
406 1 379 382 383 385
407 3 379 382 383 386
408 3 382 383 386 387
409 1 384 383 386 387
410 1 385 383 386 387
411 1 383 386 387 388
412 1 383 386 387 389
413 3 383 386 387 390
414 4 386 387 390 31
415 5 388 387 390 31
416 5 389 387 390 31
417 11 285 4 391 371
418 6 349 4 391 371
419 6 370 4 391 371
420 7 4 391 371 372
421 7 4 391 371 373
422 8 4 391 371 374
423 9 387 390 31 1462
424 9 387 390 31 1483
425 9 387 390 31 1504
426 1 393 392 395 396
427 1 394 392 395 396
428 2 412 392 395 396
429 1 392 395 396 397
430 1 392 395 396 398
431 3 392 395 396 399
432 3 395 396 399 400
433 1 397 396 399 400
434 1 398 396 399 400
435 1 396 399 400 401
436 1 396 399 400 402
437 3 396 399 400 403
438 3 399 400 403 404
439 1 401 400 403 404
440 1 402 400 403 404
441 1 400 403 404 405
442 1 400 403 404 406
443 3 400 403 404 407
444 3 403 404 407 408
445 1 405 404 407 408
446 1 406 404 407 408
447 1 404 407 408 409
448 1 404 407 408 410
449 3 404 407 408 411
450 4 407 408 411 9
451 5 409 408 411 9
452 5 410 408 411 9
453 11 180 5 412 392
454 11 348 5 412 392
455 6 433 5 412 392
456 7 5 412 392 393
457 7 5 412 392 394
458 8 5 412 392 395
459 10 408 411 9 474
460 10 408 411 9 600
461 9 408 411 9 643
462 1 414 413 416 417
463 1 415 413 416 417
464 2 433 413 416 417
465 1 413 416 417 418
466 1 413 416 417 419
467 3 413 416 417 420
468 3 416 417 420 421
469 1 418 417 420 421
470 1 419 417 420 421
471 1 417 420 421 422
472 1 417 420 421 423
473 3 417 420 421 424
474 3 420 421 424 425
475 1 422 421 424 425
476 1 423 421 424 425
477 1 421 424 425 426
478 1 421 424 425 427
479 3 421 424 425 428
480 3 424 425 428 429
481 1 426 425 428 429
482 1 427 425 428 429
483 1 425 428 429 430
484 1 425 428 429 431
485 3 425 428 429 432
486 4 428 429 432 32
487 5 430 429 432 32
488 5 431 429 432 32
489 11 180 5 433 413
490 11 348 5 433 413
491 6 412 5 433 413
492 7 5 433 413 414
493 7 5 433 413 415
494 8 5 433 413 416
495 10 429 432 32 1314
496 10 429 432 32 1461
497 9 429 432 32 1525
498 1 435 434 437 438
499 1 436 434 437 438
500 2 454 434 437 438
501 1 434 437 438 439
502 1 434 437 438 440
503 3 434 437 438 441
504 3 437 438 441 442
505 1 439 438 441 442
506 1 440 438 441 442
507 1 438 441 442 443
508 1 438 441 442 444
509 3 438 441 442 445
510 3 441 442 445 446
511 1 443 442 445 446
512 1 444 442 445 446
513 1 442 445 446 447
514 1 442 445 446 448
515 3 442 445 446 449
516 3 445 446 449 450
517 1 447 446 449 450
518 1 448 446 449 450
519 1 446 449 450 451
520 1 446 449 450 452
521 3 446 449 450 453
522 4 449 450 453 33
523 5 451 450 453 33
524 5 452 450 453 33
525 11 159 6 454 434
526 6 475 6 454 434
527 6 496 6 454 434
528 7 6 454 434 435
529 7 6 454 434 436
530 8 6 454 434 437
531 9 450 453 33 1546
532 9 450 453 33 1567
533 1 456 455 458 459
534 1 457 455 458 459
535 2 475 455 458 459
536 1 455 458 459 460
537 1 455 458 459 461
538 3 455 458 459 462
539 3 458 459 462 463
540 1 460 459 462 463
541 1 461 459 462 463
542 1 459 462 463 464
543 1 459 462 463 465
544 3 459 462 463 466
545 3 462 463 466 467
546 1 464 463 466 467
547 1 465 463 466 467
548 1 463 466 467 468
549 1 463 466 467 469
550 3 463 466 467 470
551 3 466 467 470 471
552 1 468 467 470 471
553 1 469 467 470 471
554 1 467 470 471 472
555 1 467 470 471 473
556 3 467 470 471 474
557 4 470 471 474 9
558 5 472 471 474 9
559 5 473 471 474 9
560 11 159 6 475 455
561 6 454 6 475 455
562 6 496 6 475 455
563 7 6 475 455 456
564 7 6 475 455 457
565 8 6 475 455 458
566 10 471 474 9 411
567 10 471 474 9 600
568 9 471 474 9 643
569 1 477 476 479 480
570 1 478 476 479 480
571 2 496 476 479 480
572 1 476 479 480 481
573 1 476 479 480 482
574 3 476 479 480 483
575 3 479 480 483 484
576 1 481 480 483 484
577 1 482 480 483 484
578 1 480 483 484 485
579 1 480 483 484 486
580 3 480 483 484 487
581 3 483 484 487 488
582 1 485 484 487 488
583 1 486 484 487 488
584 1 484 487 488 489
585 1 484 487 488 490
586 3 484 487 488 491
587 3 487 488 491 492
588 1 489 488 491 492
589 1 490 488 491 492
590 1 488 491 492 493
591 1 488 491 492 494
592 3 488 491 492 495
593 4 491 492 495 117
594 5 493 492 495 117
595 5 494 492 495 117
596 11 159 6 496 476
597 6 454 6 496 476
598 6 475 6 496 476
599 7 6 496 476 477
600 7 6 496 476 478
601 8 6 496 476 479
602 10 492 495 117 3225
603 9 492 495 117 4150
604 9 492 495 117 4171
605 1 498 497 500 501
606 1 499 497 500 501
607 2 517 497 500 501
608 1 497 500 501 502
609 1 497 500 501 503
610 3 497 500 501 504
611 3 500 501 504 505
612 1 502 501 504 505
613 1 503 501 504 505
614 1 501 504 505 506
615 1 501 504 505 507
616 3 501 504 505 508
617 3 504 505 508 509
618 1 506 505 508 509
619 1 507 505 508 509
620 1 505 508 509 510
621 1 505 508 509 511
622 3 505 508 509 512
623 3 508 509 512 513
624 1 510 509 512 513
625 1 511 509 512 513
626 1 509 512 513 514
627 1 509 512 513 515
628 3 509 512 513 516
629 4 512 513 516 8
630 5 514 513 516 8
631 5 515 513 516 8
632 6 538 7 517 497
633 6 559 7 517 497
634 6 580 7 517 497
635 7 7 517 497 498
636 7 7 517 497 499
637 8 7 517 497 500
638 10 513 516 8 369
639 9 513 516 8 601
640 9 513 516 8 622
641 1 519 518 521 522
642 1 520 518 521 522
643 2 538 518 521 522
644 1 518 521 522 523
645 1 518 521 522 524
646 3 518 521 522 525
647 3 521 522 525 526
648 1 523 522 525 526
649 1 524 522 525 526
650 1 522 525 526 527
651 1 522 525 526 528
652 3 522 525 526 529
653 3 525 526 529 530
654 1 527 526 529 530
655 1 528 526 529 530
656 1 526 529 530 531
657 1 526 529 530 532
658 3 526 529 530 533
659 3 529 530 533 534
660 1 531 530 533 534
661 1 532 530 533 534
662 1 530 533 534 535
663 1 530 533 534 536
664 3 530 533 534 537
665 4 533 534 537 12
666 5 535 534 537 12
667 5 536 534 537 12
668 6 517 7 538 518
669 6 559 7 538 518
670 6 580 7 538 518
671 7 7 538 518 519
672 7 7 538 518 520
673 8 7 538 518 521
674 10 534 537 12 726
675 9 534 537 12 790
676 9 534 537 12 811
677 1 540 539 542 543
678 1 541 539 542 543
679 2 559 539 542 543
680 1 539 542 543 544
681 1 539 542 543 545
682 3 539 542 543 546
683 3 542 543 546 547
684 1 544 543 546 547
685 1 545 543 546 547
686 1 543 546 547 548
687 1 543 546 547 549
688 3 543 546 547 550
689 3 546 547 550 551
690 1 548 547 550 551
691 1 549 547 550 551
692 1 547 550 551 552
693 1 547 550 551 553
694 3 547 550 551 554
695 3 550 551 554 555
696 1 552 551 554 555
697 1 553 551 554 555
698 1 551 554 555 556
699 1 551 554 555 557
700 3 551 554 555 558
701 4 554 555 558 35
702 5 556 555 558 35
703 5 557 555 558 35
704 6 517 7 559 539
705 6 538 7 559 539
706 6 580 7 559 539
707 7 7 559 539 540
708 7 7 559 539 541
709 8 7 559 539 542
710 10 555 558 35 1419
711 9 555 558 35 1630
712 9 555 558 35 1651
713 1 561 560 563 564
714 1 562 560 563 564
715 2 580 560 563 564
716 1 560 563 564 565
717 1 560 563 564 566
718 3 560 563 564 567
719 3 563 564 567 568
720 1 565 564 567 568
721 1 566 564 567 568
722 1 564 567 568 569
723 1 564 567 568 570
724 3 564 567 568 571
725 3 567 568 571 572
726 1 569 568 571 572
727 1 570 568 571 572
728 1 568 571 572 573
729 1 568 571 572 574
730 3 568 571 572 575
731 3 571 572 575 576
732 1 573 572 575 576
733 1 574 572 575 576
734 1 572 575 576 577
735 1 572 575 576 578
736 3 572 575 576 579
737 4 575 576 579 119
738 5 577 576 579 119
739 5 578 576 579 119
740 6 517 7 580 560
741 6 538 7 580 560
742 6 559 7 580 560
743 7 7 580 560 561
744 7 7 580 560 562
745 8 7 580 560 563
746 10 576 579 119 3330
747 10 576 579 119 4065
748 9 576 579 119 4213
749 1 582 581 584 585
750 1 583 581 584 585
751 2 601 581 584 585
752 1 581 584 585 586
753 1 581 584 585 587
754 3 581 584 585 588
755 3 584 585 588 589
756 1 586 585 588 589
757 1 587 585 588 589
758 1 585 588 589 590
759 1 585 588 589 591
760 3 585 588 589 592
761 3 588 589 592 593
762 1 590 589 592 593
763 1 591 589 592 593
764 1 589 592 593 594
765 1 589 592 593 595
766 3 589 592 593 596
767 3 592 593 596 597
768 1 594 593 596 597
769 1 595 593 596 597
770 1 593 596 597 598
771 1 593 596 597 599
772 3 593 596 597 600
773 4 596 597 600 9
774 5 598 597 600 9
775 5 599 597 600 9
776 11 369 8 601 581
777 11 516 8 601 581
778 6 622 8 601 581
779 7 8 601 581 582
780 7 8 601 581 583
781 8 8 601 581 584
782 10 597 600 9 411
783 10 597 600 9 474
784 9 597 600 9 643
785 1 603 602 605 606
786 1 604 602 605 606
787 2 622 602 605 606
788 1 602 605 606 607
789 1 602 605 606 608
790 3 602 605 606 609
791 3 605 606 609 610
792 1 607 606 609 610
793 1 608 606 609 610
794 1 606 609 610 611
795 1 606 609 610 612
796 3 606 609 610 613
797 3 609 610 613 614
798 1 611 610 613 614
799 1 612 610 613 614
800 1 610 613 614 615
801 1 610 613 614 616
802 3 610 613 614 617
803 3 613 614 617 618
804 1 615 614 617 618
805 1 616 614 617 618
806 1 614 617 618 619
807 1 614 617 618 620
808 3 614 617 618 621
809 4 617 618 621 120
810 5 619 618 621 120
811 5 620 618 621 120
812 11 369 8 622 602
813 11 516 8 622 602
814 6 601 8 622 602
815 7 8 622 602 603
816 7 8 622 602 604
817 8 8 622 602 605
818 10 618 621 120 4107
819 9 618 621 120 4234
820 1 624 623 626 627
821 1 625 623 626 627
822 2 643 623 626 627
823 1 623 626 627 628
824 1 623 626 627 629
825 3 623 626 627 630
826 3 626 627 630 631
827 1 628 627 630 631
828 1 629 627 630 631
829 1 627 630 631 632
830 1 627 630 631 633
831 3 627 630 631 634
832 3 630 631 634 635
833 1 632 631 634 635
834 1 633 631 634 635
835 1 631 634 635 636
836 1 631 634 635 637
837 3 631 634 635 638
838 3 634 635 638 639
839 1 636 635 638 639
840 1 637 635 638 639
841 1 635 638 639 640
842 1 635 638 639 641
843 3 635 638 639 642
844 4 638 639 642 37
845 5 640 639 642 37
846 5 641 639 642 37
847 11 411 9 643 623
848 11 474 9 643 623
849 11 600 9 643 623
850 7 9 643 623 624
851 7 9 643 623 625
852 8 9 643 623 626
853 10 639 642 37 1671
854 9 639 642 37 1714
855 1 645 644 647 648
856 1 646 644 647 648
857 2 664 644 647 648
858 1 644 647 648 649
859 1 644 647 648 650
860 3 644 647 648 651
861 3 647 648 651 652
862 1 649 648 651 652
863 1 650 648 651 652
864 1 648 651 652 653
865 1 648 651 652 654
866 3 648 651 652 655
867 3 651 652 655 656
868 1 653 652 655 656
869 1 654 652 655 656
870 1 652 655 656 657
871 1 652 655 656 658
872 3 652 655 656 659
873 3 655 656 659 660
874 1 657 656 659 660
875 1 658 656 659 660
876 1 656 659 660 661
877 1 656 659 660 662
878 3 656 659 660 663
879 4 659 660 663 15
880 5 661 660 663 15
881 5 662 660 663 15
882 6 685 10 664 644
883 6 706 10 664 644
884 7 10 664 644 645
885 7 10 664 644 646
886 8 10 664 644 647
887 9 660 663 15 916
888 9 660 663 15 937
889 9 660 663 15 958
890 1 666 665 668 669
891 1 667 665 668 669
892 2 685 665 668 669
893 1 665 668 669 670
894 1 665 668 669 671
895 3 665 668 669 672
896 3 668 669 672 673
897 1 670 669 672 673
898 1 671 669 672 673
899 1 669 672 673 674
900 1 669 672 673 675
901 3 669 672 673 676
902 3 672 673 676 677
903 1 674 673 676 677
904 1 675 673 676 677
905 1 673 676 677 678
906 1 673 676 677 679
907 3 673 676 677 680
908 3 676 677 680 681
909 1 678 677 680 681
910 1 679 677 680 681
911 1 677 680 681 682
912 1 677 680 681 683
913 3 677 680 681 684
914 4 680 681 684 38
915 5 682 681 684 38
916 5 683 681 684 38
917 6 664 10 685 665
918 6 706 10 685 665
919 7 10 685 665 666
920 7 10 685 665 667
921 8 10 685 665 668
922 10 681 684 38 1566
923 9 681 684 38 1735
924 1 687 686 689 690
925 1 688 686 689 690
926 2 706 686 689 690
927 1 686 689 690 691
928 1 686 689 690 692
929 3 686 689 690 693
930 3 689 690 693 694
931 1 691 690 693 694
932 1 692 690 693 694
933 1 690 693 694 695
934 1 690 693 694 696
935 3 690 693 694 697
936 3 693 694 697 698
937 1 695 694 697 698
938 1 696 694 697 698
939 1 694 697 698 699
940 1 694 697 698 700
941 3 694 697 698 701
942 3 697 698 701 702
943 1 699 698 701 702
944 1 700 698 701 702
945 1 698 701 702 703
946 1 698 701 702 704
947 3 698 701 702 705
948 4 701 702 705 14
949 5 703 702 705 14
950 5 704 702 705 14
951 6 664 10 706 686
952 6 685 10 706 686
953 7 10 706 686 687
954 7 10 706 686 688
955 8 10 706 686 689
956 10 702 705 14 831
957 9 702 705 14 895
958 1 708 707 710 711
959 1 709 707 710 711
960 2 727 707 710 711
961 1 707 710 711 712
962 1 707 710 711 713
963 3 707 710 711 714
964 3 710 711 714 715
965 1 712 711 714 715
966 1 713 711 714 715
967 1 711 714 715 716
968 1 711 714 715 717
969 3 711 714 715 718
970 3 714 715 718 719
971 1 716 715 718 719
972 1 717 715 718 719
973 1 715 718 719 720
974 1 715 718 719 721
975 3 715 718 719 722
976 3 718 719 722 723
977 1 720 719 722 723
978 1 721 719 722 723
979 1 719 722 723 724
980 1 719 722 723 725
981 3 719 722 723 726
982 4 722 723 726 12
983 5 724 723 726 12
984 5 725 723 726 12
985 6 748 11 727 707
986 6 769 11 727 707
987 7 11 727 707 708
988 7 11 727 707 709
989 8 11 727 707 710
990 10 723 726 12 537
991 9 723 726 12 790
992 9 723 726 12 811
993 1 729 728 731 732
994 1 730 728 731 732
995 2 748 728 731 732
996 1 728 731 732 733
997 1 728 731 732 734
998 3 728 731 732 735
999 3 731 732 735 736
1000 1 733 732 735 736
1001 1 734 732 735 736
1002 1 732 735 736 737
1003 1 732 735 736 738
1004 3 732 735 736 739
1005 3 735 736 739 740
1006 1 737 736 739 740
1007 1 738 736 739 740
1008 1 736 739 740 741
1009 1 736 739 740 742
1010 3 736 739 740 743
1011 3 739 740 743 744
1012 1 741 740 743 744
1013 1 742 740 743 744
1014 1 740 743 744 745
1015 1 740 743 744 746
1016 3 740 743 744 747
1017 4 743 744 747 16
1018 5 745 744 747 16
1019 5 746 744 747 16
1020 6 727 11 748 728
1021 6 769 11 748 728
1022 7 11 748 728 729
1023 7 11 748 728 730
1024 8 11 748 728 731
1025 9 744 747 16 979
1026 9 744 747 16 1000
1027 1 750 749 752 753
1028 1 751 749 752 753
1029 2 769 749 752 753
1030 1 749 752 753 754
1031 1 749 752 753 755
1032 3 749 752 753 756
1033 3 752 753 756 757
1034 1 754 753 756 757
1035 1 755 753 756 757
1036 1 753 756 757 758
1037 1 753 756 757 759
1038 3 753 756 757 760
1039 3 756 757 760 761
1040 1 758 757 760 761
1041 1 759 757 760 761
1042 1 757 760 761 762
1043 1 757 760 761 763
1044 3 757 760 761 764
1045 3 760 761 764 765
1046 1 762 761 764 765
1047 1 763 761 764 765
1048 1 761 764 765 766
1049 1 761 764 765 767
1050 3 761 764 765 768
1051 4 764 765 768 39
1052 5 766 765 768 39
1053 5 767 765 768 39
1054 6 727 11 769 749
1055 6 748 11 769 749
1056 7 11 769 749 750
1057 7 11 769 749 751
1058 8 11 769 749 752
1059 10 765 768 39 1587
1060 9 765 768 39 1756
1061 1 771 770 773 774
1062 1 772 770 773 774
1063 2 790 770 773 774
1064 1 770 773 774 775
1065 1 770 773 774 776
1066 3 770 773 774 777
1067 3 773 774 777 778
1068 1 775 774 777 778
1069 1 776 774 777 778
1070 1 774 777 778 779
1071 1 774 777 778 780
1072 3 774 777 778 781
1073 3 777 778 781 782
1074 1 779 778 781 782
1075 1 780 778 781 782
1076 1 778 781 782 783
1077 1 778 781 782 784
1078 3 778 781 782 785
1079 3 781 782 785 786
1080 1 783 782 785 786
1081 1 784 782 785 786
1082 1 782 785 786 787
1083 1 782 785 786 788
1084 3 782 785 786 789
1085 4 785 786 789 40
1086 5 787 786 789 40
1087 5 788 786 789 40
1088 11 537 12 790 770
1089 11 726 12 790 770
1090 6 811 12 790 770
1091 7 12 790 770 771
1092 7 12 790 770 772
1093 8 12 790 770 773
1094 10 786 789 40 1629
1095 9 786 789 40 1777
1096 9 786 789 40 1798
1097 1 792 791 794 795
1098 1 793 791 794 795
1099 2 811 791 794 795
1100 1 791 794 795 796
1101 1 791 794 795 797
1102 3 791 794 795 798
1103 3 794 795 798 799
1104 1 796 795 798 799
1105 1 797 795 798 799
1106 1 795 798 799 800
1107 1 795 798 799 801
1108 3 795 798 799 802
1109 3 798 799 802 803
1110 1 800 799 802 803
1111 1 801 799 802 803
1112 1 799 802 803 804
1113 1 799 802 803 805
1114 3 799 802 803 806
1115 3 802 803 806 807
1116 1 804 803 806 807
1117 1 805 803 806 807
1118 1 803 806 807 808
1119 1 803 806 807 809
1120 3 803 806 807 810
1121 4 806 807 810 124
1122 5 808 807 810 124
1123 5 809 807 810 124
1124 11 537 12 811 791
1125 11 726 12 811 791
1126 6 790 12 811 791
1127 7 12 811 791 792
1128 7 12 811 791 793
1129 8 12 811 791 794
1130 10 807 810 124 4212
1131 10 807 810 124 4317
1132 9 807 810 124 4339
1133 1 813 812 815 816
1134 1 814 812 815 816
1135 2 832 812 815 816
1136 1 812 815 816 817
1137 1 812 815 816 818
1138 3 812 815 816 819
1139 3 815 816 819 820
1140 1 817 816 819 820
1141 1 818 816 819 820
1142 1 816 819 820 821
1143 1 816 819 820 822
1144 3 816 819 820 823
1145 3 819 820 823 824
1146 1 821 820 823 824
1147 1 822 820 823 824
1148 1 820 823 824 825
1149 1 820 823 824 826
1150 3 820 823 824 827
1151 3 823 824 827 828
1152 1 825 824 827 828
1153 1 826 824 827 828
1154 1 824 827 828 829
1155 1 824 827 828 830
1156 3 824 827 828 831
1157 4 827 828 831 14
1158 5 829 828 831 14
1159 5 830 828 831 14
1160 6 853 13 832 812
1161 6 874 13 832 812
1162 7 13 832 812 813
1163 7 13 832 812 814
1164 8 13 832 812 815
1165 10 828 831 14 705
1166 9 828 831 14 895
1167 1 834 833 836 837
1168 1 835 833 836 837
1169 2 853 833 836 837
1170 1 833 836 837 838
1171 1 833 836 837 839
1172 3 833 836 837 840
1173 3 836 837 840 841
1174 1 838 837 840 841
1175 1 839 837 840 841
1176 1 837 840 841 842
1177 1 837 840 841 843
1178 3 837 840 841 844
1179 3 840 841 844 845
1180 1 842 841 844 845
1181 1 843 841 844 845
1182 1 841 844 845 846
1183 1 841 844 845 847
1184 3 841 844 845 848
1185 3 844 845 848 849
1186 1 846 845 848 849
1187 1 847 845 848 849
1188 1 845 848 849 850
1189 1 845 848 849 851
1190 3 845 848 849 852
1191 4 848 849 852 21
1192 5 850 849 852 21
1193 5 851 849 852 21
1194 6 832 13 853 833
1195 6 874 13 853 833
1196 7 13 853 833 834
1197 7 13 853 833 835
1198 8 13 853 833 836
1199 9 849 852 21 1042
1200 9 849 852 21 1063
1201 1 855 854 857 858
1202 1 856 854 857 858
1203 2 874 854 857 858
1204 1 854 857 858 859
1205 1 854 857 858 860
1206 3 854 857 858 861
1207 3 857 858 861 862
1208 1 859 858 861 862
1209 1 860 858 861 862
1210 1 858 861 862 863
1211 1 858 861 862 864
1212 3 858 861 862 865
1213 3 861 862 865 866
1214 1 863 862 865 866
1215 1 864 862 865 866
1216 1 862 865 866 867
1217 1 862 865 866 868
1218 3 862 865 866 869
1219 3 865 866 869 870
1220 1 867 866 869 870
1221 1 868 866 869 870
1222 1 866 869 870 871
1223 1 866 869 870 872
1224 3 866 869 870 873
1225 4 869 870 873 125
1226 5 871 870 873 125
1227 5 872 870 873 125
1228 6 832 13 874 854
1229 6 853 13 874 854
1230 7 13 874 854 855
1231 7 13 874 854 856
1232 8 13 874 854 857
1233 10 870 873 125 4233
1234 9 870 873 125 4360
1235 9 870 873 125 4381
1236 1 876 875 878 879
1237 1 877 875 878 879
1238 2 895 875 878 879
1239 1 875 878 879 880
1240 1 875 878 879 881
1241 3 875 878 879 882
1242 3 878 879 882 883
1243 1 880 879 882 883
1244 1 881 879 882 883
1245 1 879 882 883 884
1246 1 879 882 883 885
1247 3 879 882 883 886
1248 3 882 883 886 887
1249 1 884 883 886 887
1250 1 885 883 886 887
1251 1 883 886 887 888
1252 1 883 886 887 889
1253 3 883 886 887 890
1254 3 886 887 890 891
1255 1 888 887 890 891
1256 1 889 887 890 891
1257 1 887 890 891 892
1258 1 887 890 891 893
1259 3 887 890 891 894
1260 4 890 891 894 22
1261 5 892 891 894 22
1262 5 893 891 894 22
1263 11 705 14 895 875
1264 11 831 14 895 875
1265 7 14 895 875 876
1266 7 14 895 875 877
1267 8 14 895 875 878
1268 10 891 894 22 957
1269 9 891 894 22 1084
1270 9 891 894 22 1105
1271 1 897 896 899 900
1272 1 898 896 899 900
1273 2 916 896 899 900
1274 1 896 899 900 901
1275 1 896 899 900 902
1276 3 896 899 900 903
1277 3 899 900 903 904
1278 1 901 900 903 904
1279 1 902 900 903 904
1280 1 900 903 904 905
1281 1 900 903 904 906
1282 3 900 903 904 907
1283 3 903 904 907 908
1284 1 905 904 907 908
1285 1 906 904 907 908
1286 1 904 907 908 909
1287 1 904 907 908 910
1288 3 904 907 908 911
1289 3 907 908 911 912
1290 1 909 908 911 912
1291 1 910 908 911 912
1292 1 908 911 912 913
1293 1 908 911 912 914
1294 3 908 911 912 915
1295 4 911 912 915 23
1296 5 913 912 915 23
1297 5 914 912 915 23
1298 11 663 15 916 896
1299 6 937 15 916 896
1300 6 958 15 916 896
1301 7 15 916 896 897
1302 7 15 916 896 898
1303 8 15 916 896 899
1304 10 912 915 23 201
1305 9 912 915 23 1126
1306 9 912 915 23 1147
1307 1 918 917 920 921
1308 1 919 917 920 921
1309 2 937 917 920 921
1310 1 917 920 921 922
1311 1 917 920 921 923
1312 3 917 920 921 924
1313 3 920 921 924 925
1314 1 922 921 924 925
1315 1 923 921 924 925
1316 1 921 924 925 926
1317 1 921 924 925 927
1318 3 921 924 925 928
1319 3 924 925 928 929
1320 1 926 925 928 929
1321 1 927 925 928 929
1322 1 925 928 929 930
1323 1 925 928 929 931
1324 3 925 928 929 932
1325 3 928 929 932 933
1326 1 930 929 932 933
1327 1 931 929 932 933
1328 1 929 932 933 934
1329 1 929 932 933 935
1330 3 929 932 933 936
1331 4 932 933 936 43
1332 5 934 933 936 43
1333 5 935 933 936 43
1334 11 663 15 937 917
1335 6 916 15 937 917
1336 6 958 15 937 917
1337 7 15 937 917 918
1338 7 15 937 917 919
1339 8 15 937 917 920
1340 10 933 936 43 1734
1341 9 933 936 43 1924
1342 9 933 936 43 1945
1343 1 939 938 941 942
1344 1 940 938 941 942
1345 2 958 938 941 942
1346 1 938 941 942 943
1347 1 938 941 942 944
1348 3 938 941 942 945
1349 3 941 942 945 946
1350 1 943 942 945 946
1351 1 944 942 945 946
1352 1 942 945 946 947
1353 1 942 945 946 948
1354 3 942 945 946 949
1355 3 945 946 949 950
1356 1 947 946 949 950
1357 1 948 946 949 950
1358 1 946 949 950 951
1359 1 946 949 950 952
1360 3 946 949 950 953
1361 3 949 950 953 954
1362 1 951 950 953 954
1363 1 952 950 953 954
1364 1 950 953 954 955
1365 1 950 953 954 956
1366 3 950 953 954 957
1367 4 953 954 957 22
1368 5 955 954 957 22
1369 5 956 954 957 22
1370 11 663 15 958 938
1371 6 916 15 958 938
1372 6 937 15 958 938
1373 7 15 958 938 939
1374 7 15 958 938 940
1375 8 15 958 938 941
1376 10 954 957 22 894
1377 9 954 957 22 1084
1378 9 954 957 22 1105
1379 1 960 959 962 963
1380 1 961 959 962 963
1381 2 979 959 962 963
1382 1 959 962 963 964
1383 1 959 962 963 965
1384 3 959 962 963 966
1385 3 962 963 966 967
1386 1 964 963 966 967
1387 1 965 963 966 967
1388 1 963 966 967 968
1389 1 963 966 967 969
1390 3 963 966 967 970
1391 3 966 967 970 971
1392 1 968 967 970 971
1393 1 969 967 970 971
1394 1 967 970 971 972
1395 1 967 970 971 973
1396 3 967 970 971 974
1397 3 970 971 974 975
1398 1 972 971 974 975
1399 1 973 971 974 975
1400 1 971 974 975 976
1401 1 971 974 975 977
1402 3 971 974 975 978
1403 4 974 975 978 24
1404 5 976 975 978 24
1405 5 977 975 978 24
1406 11 747 16 979 959
1407 6 1000 16 979 959
1408 7 16 979 959 960
1409 7 16 979 959 961
1410 8 16 979 959 962
1411 10 975 978 24 264
1412 10 975 978 24 1125
1413 9 975 978 24 1168
1414 1 981 980 983 984
1415 1 982 980 983 984
1416 2 1000 980 983 984
1417 1 980 983 984 985
1418 1 980 983 984 986
1419 3 980 983 984 987
1420 3 983 984 987 988
1421 1 985 984 987 988
1422 1 986 984 987 988
1423 1 984 987 988 989
1424 1 984 987 988 990
1425 3 984 987 988 991
1426 3 987 988 991 992
1427 1 989 988 991 992
1428 1 990 988 991 992
1429 1 988 991 992 993
1430 1 988 991 992 994
1431 3 988 991 992 995
1432 3 991 992 995 996
1433 1 993 992 995 996
1434 1 994 992 995 996
1435 1 992 995 996 997
1436 1 992 995 996 998
1437 3 992 995 996 999
1438 4 995 996 999 131
1439 5 997 996 999 131
1440 5 998 996 999 131
1441 11 747 16 1000 980
1442 6 979 16 1000 980
1443 7 16 1000 980 981
1444 7 16 1000 980 982
1445 8 16 1000 980 983
1446 10 996 999 131 3666
1447 9 996 999 131 4423
1448 9 996 999 131 4444
1449 1 1002 1001 1004 1005
1450 1 1003 1001 1004 1005
1451 2 1021 1001 1004 1005
1452 1 1001 1004 1005 1006
1453 1 1001 1004 1005 1007
1454 3 1001 1004 1005 1008
1455 3 1004 1005 1008 1009
1456 1 1006 1005 1008 1009
1457 1 1007 1005 1008 1009
1458 1 1005 1008 1009 1010
1459 1 1005 1008 1009 1011
1460 3 1005 1008 1009 1012
1461 3 1008 1009 1012 1013
1462 1 1010 1009 1012 1013
1463 1 1011 1009 1012 1013
1464 1 1009 1012 1013 1014
1465 1 1009 1012 1013 1015
1466 3 1009 1012 1013 1016
1467 3 1012 1013 1016 1017
1468 1 1014 1013 1016 1017
1469 1 1015 1013 1016 1017
1470 1 1013 1016 1017 1018
1471 1 1013 1016 1017 1019
1472 3 1013 1016 1017 1020
1473 4 1016 1017 1020 44
1474 5 1018 1017 1020 44
1475 5 1019 1017 1020 44
1476 12 18 17 1021 1001
1477 12 19 17 1021 1001
1478 12 20 17 1021 1001
1479 12 17 1021 1001 1002
1480 12 17 1021 1001 1003
1481 13 17 1021 1001 1004
1482 9 1017 1020 44 1966
1483 9 1017 1020 44 1987
1484 1 1023 1022 1025 1026
1485 1 1024 1022 1025 1026
1486 2 1042 1022 1025 1026
1487 1 1022 1025 1026 1027
1488 1 1022 1025 1026 1028
1489 3 1022 1025 1026 1029
1490 3 1025 1026 1029 1030
1491 1 1027 1026 1029 1030
1492 1 1028 1026 1029 1030
1493 1 1026 1029 1030 1031
1494 1 1026 1029 1030 1032
1495 3 1026 1029 1030 1033
1496 3 1029 1030 1033 1034
1497 1 1031 1030 1033 1034
1498 1 1032 1030 1033 1034
1499 1 1030 1033 1034 1035
1500 1 1030 1033 1034 1036
1501 3 1030 1033 1034 1037
1502 3 1033 1034 1037 1038
1503 1 1035 1034 1037 1038
1504 1 1036 1034 1037 1038
1505 1 1034 1037 1038 1039
1506 1 1034 1037 1038 1040
1507 3 1034 1037 1038 1041
1508 4 1037 1038 1041 26
1509 5 1039 1038 1041 26
1510 5 1040 1038 1041 26
1511 11 852 21 1042 1022
1512 6 1063 21 1042 1022
1513 7 21 1042 1022 1023
1514 7 21 1042 1022 1024
1515 8 21 1042 1022 1025
1516 10 1038 1041 26 1188
1517 9 1038 1041 26 1231
1518 9 1038 1041 26 1252
1519 1 1044 1043 1046 1047
1520 1 1045 1043 1046 1047
1521 2 1063 1043 1046 1047
1522 1 1043 1046 1047 1048
1523 1 1043 1046 1047 1049
1524 3 1043 1046 1047 1050
1525 3 1046 1047 1050 1051
1526 1 1048 1047 1050 1051
1527 1 1049 1047 1050 1051
1528 1 1047 1050 1051 1052
1529 1 1047 1050 1051 1053
1530 3 1047 1050 1051 1054
1531 3 1050 1051 1054 1055
1532 1 1052 1051 1054 1055
1533 1 1053 1051 1054 1055
1534 1 1051 1054 1055 1056
1535 1 1051 1054 1055 1057
1536 3 1051 1054 1055 1058
1537 3 1054 1055 1058 1059
1538 1 1056 1055 1058 1059
1539 1 1057 1055 1058 1059
1540 1 1055 1058 1059 1060
1541 1 1055 1058 1059 1061
1542 3 1055 1058 1059 1062
1543 4 1058 1059 1062 133
1544 5 1060 1059 1062 133
1545 5 1061 1059 1062 133
1546 11 852 21 1063 1043
1547 6 1042 21 1063 1043
1548 7 21 1063 1043 1044
1549 7 21 1063 1043 1045
1550 8 21 1063 1043 1046
1551 10 1059 1062 133 3750
1552 10 1059 1062 133 4380
1553 9 1059 1062 133 4486
1554 1 1065 1064 1067 1068
1555 1 1066 1064 1067 1068
1556 2 1084 1064 1067 1068
1557 1 1064 1067 1068 1069
1558 1 1064 1067 1068 1070
1559 3 1064 1067 1068 1071
1560 3 1067 1068 1071 1072
1561 1 1069 1068 1071 1072
1562 1 1070 1068 1071 1072
1563 1 1068 1071 1072 1073
1564 1 1068 1071 1072 1074
1565 3 1068 1071 1072 1075
1566 3 1071 1072 1075 1076
1567 1 1073 1072 1075 1076
1568 1 1074 1072 1075 1076
1569 1 1072 1075 1076 1077
1570 1 1072 1075 1076 1078
1571 3 1072 1075 1076 1079
1572 3 1075 1076 1079 1080
1573 1 1077 1076 1079 1080
1574 1 1078 1076 1079 1080
1575 1 1076 1079 1080 1081
1576 1 1076 1079 1080 1082
1577 3 1076 1079 1080 1083
1578 4 1079 1080 1083 27
1579 5 1081 1080 1083 27
1580 5 1082 1080 1083 27
1581 11 894 22 1084 1064
1582 11 957 22 1084 1064
1583 6 1105 22 1084 1064
1584 7 22 1084 1064 1065
1585 7 22 1084 1064 1066
1586 8 22 1084 1064 1067
1587 10 1080 1083 27 1146
1588 10 1080 1083 27 1230
1589 9 1080 1083 27 1273
1590 1 1086 1085 1088 1089
1591 1 1087 1085 1088 1089
1592 2 1105 1085 1088 1089
1593 1 1085 1088 1089 1090
1594 1 1085 1088 1089 1091
1595 3 1085 1088 1089 1092
1596 3 1088 1089 1092 1093
1597 1 1090 1089 1092 1093
1598 1 1091 1089 1092 1093
1599 1 1089 1092 1093 1094
1600 1 1089 1092 1093 1095
1601 3 1089 1092 1093 1096
1602 3 1092 1093 1096 1097
1603 1 1094 1093 1096 1097
1604 1 1095 1093 1096 1097
1605 1 1093 1096 1097 1098
1606 1 1093 1096 1097 1099
1607 3 1093 1096 1097 1100
1608 3 1096 1097 1100 1101
1609 1 1098 1097 1100 1101
1610 1 1099 1097 1100 1101
1611 1 1097 1100 1101 1102
1612 1 1097 1100 1101 1103
1613 3 1097 1100 1101 1104
1614 4 1100 1101 1104 134
1615 5 1102 1101 1104 134
1616 5 1103 1101 1104 134
1617 11 894 22 1105 1085
1618 11 957 22 1105 1085
1619 6 1084 22 1105 1085
1620 7 22 1105 1085 1086
1621 7 22 1105 1085 1087
1622 8 22 1105 1085 1088
1623 10 1101 1104 134 3771
1624 10 1101 1104 134 4401
1625 1 1107 1106 1109 1110
1626 1 1108 1106 1109 1110
1627 2 1126 1106 1109 1110
1628 1 1106 1109 1110 1111
1629 1 1106 1109 1110 1112
1630 3 1106 1109 1110 1113
1631 3 1109 1110 1113 1114
1632 1 1111 1110 1113 1114
1633 1 1112 1110 1113 1114
1634 1 1110 1113 1114 1115
1635 1 1110 1113 1114 1116
1636 3 1110 1113 1114 1117
1637 3 1113 1114 1117 1118
1638 1 1115 1114 1117 1118
1639 1 1116 1114 1117 1118
1640 1 1114 1117 1118 1119
1641 1 1114 1117 1118 1120
1642 3 1114 1117 1118 1121
1643 3 1117 1118 1121 1122
1644 1 1119 1118 1121 1122
1645 1 1120 1118 1121 1122
1646 1 1118 1121 1122 1123
1647 1 1118 1121 1122 1124
1648 3 1118 1121 1122 1125
1649 4 1121 1122 1125 24
1650 5 1123 1122 1125 24
1651 5 1124 1122 1125 24
1652 11 201 23 1126 1106
1653 11 915 23 1126 1106
1654 6 1147 23 1126 1106
1655 7 23 1126 1106 1107
1656 7 23 1126 1106 1108
1657 8 23 1126 1106 1109
1658 10 1122 1125 24 264
1659 10 1122 1125 24 978
1660 9 1122 1125 24 1168
1661 1 1128 1127 1130 1131
1662 1 1129 1127 1130 1131
1663 2 1147 1127 1130 1131
1664 1 1127 1130 1131 1132
1665 1 1127 1130 1131 1133
1666 3 1127 1130 1131 1134
1667 3 1130 1131 1134 1135
1668 1 1132 1131 1134 1135
1669 1 1133 1131 1134 1135
1670 1 1131 1134 1135 1136
1671 1 1131 1134 1135 1137
1672 3 1131 1134 1135 1138
1673 3 1134 1135 1138 1139
1674 1 1136 1135 1138 1139
1675 1 1137 1135 1138 1139
1676 1 1135 1138 1139 1140
1677 1 1135 1138 1139 1141
1678 3 1135 1138 1139 1142
1679 3 1138 1139 1142 1143
1680 1 1140 1139 1142 1143
1681 1 1141 1139 1142 1143
1682 1 1139 1142 1143 1144
1683 1 1139 1142 1143 1145
1684 3 1139 1142 1143 1146
1685 4 1142 1143 1146 27
1686 5 1144 1143 1146 27
1687 5 1145 1143 1146 27
1688 11 201 23 1147 1127
1689 11 915 23 1147 1127
1690 6 1126 23 1147 1127
1691 7 23 1147 1127 1128
1692 7 23 1147 1127 1129
1693 8 23 1147 1127 1130
1694 10 1143 1146 27 1083
1695 10 1143 1146 27 1230
1696 9 1143 1146 27 1273
1697 1 1149 1148 1151 1152
1698 1 1150 1148 1151 1152
1699 2 1168 1148 1151 1152
1700 1 1148 1151 1152 1153
1701 1 1148 1151 1152 1154
1702 3 1148 1151 1152 1155
1703 3 1151 1152 1155 1156
1704 1 1153 1152 1155 1156
1705 1 1154 1152 1155 1156
1706 1 1152 1155 1156 1157
1707 1 1152 1155 1156 1158
1708 3 1152 1155 1156 1159
1709 3 1155 1156 1159 1160
1710 1 1157 1156 1159 1160
1711 1 1158 1156 1159 1160
1712 1 1156 1159 1160 1161
1713 1 1156 1159 1160 1162
1714 3 1156 1159 1160 1163
1715 3 1159 1160 1163 1164
1716 1 1161 1160 1163 1164
1717 1 1162 1160 1163 1164
1718 1 1160 1163 1164 1165
1719 1 1160 1163 1164 1166
1720 3 1160 1163 1164 1167
1721 4 1163 1164 1167 48
1722 5 1165 1164 1167 48
1723 5 1166 1164 1167 48
1724 11 264 24 1168 1148
1725 11 978 24 1168 1148
1726 11 1125 24 1168 1148
1727 7 24 1168 1148 1149
1728 7 24 1168 1148 1150
1729 8 24 1168 1148 1151
1730 10 1164 1167 48 1398
1731 9 1164 1167 48 2071
1732 1 1170 1169 1172 1173
1733 1 1171 1169 1172 1173
1734 2 1189 1169 1172 1173
1735 1 1169 1172 1173 1174
1736 1 1169 1172 1173 1175
1737 3 1169 1172 1173 1176
1738 3 1172 1173 1176 1177
1739 1 1174 1173 1176 1177
1740 1 1175 1173 1176 1177
1741 1 1173 1176 1177 1178
1742 1 1173 1176 1177 1179
1743 3 1173 1176 1177 1180
1744 3 1176 1177 1180 1181
1745 1 1178 1177 1180 1181
1746 1 1179 1177 1180 1181
1747 1 1177 1180 1181 1182
1748 1 1177 1180 1181 1183
1749 3 1177 1180 1181 1184
1750 3 1180 1181 1184 1185
1751 1 1182 1181 1184 1185
1752 1 1183 1181 1184 1185
1753 1 1181 1184 1185 1186
1754 1 1181 1184 1185 1187
1755 3 1181 1184 1185 1188
1756 4 1184 1185 1188 26
1757 5 1186 1185 1188 26
1758 5 1187 1185 1188 26
1759 11 327 25 1189 1169
1760 6 1210 25 1189 1169
1761 7 25 1189 1169 1170
1762 7 25 1189 1169 1171
1763 8 25 1189 1169 1172
1764 10 1185 1188 26 1041
1765 9 1185 1188 26 1231
1766 9 1185 1188 26 1252
1767 1 1191 1190 1193 1194
1768 1 1192 1190 1193 1194
1769 2 1210 1190 1193 1194
1770 1 1190 1193 1194 1195
1771 1 1190 1193 1194 1196
1772 3 1190 1193 1194 1197
1773 3 1193 1194 1197 1198
1774 1 1195 1194 1197 1198
1775 1 1196 1194 1197 1198
1776 1 1194 1197 1198 1199
1777 1 1194 1197 1198 1200
1778 3 1194 1197 1198 1201
1779 3 1197 1198 1201 1202
1780 1 1199 1198 1201 1202
1781 1 1200 1198 1201 1202
1782 1 1198 1201 1202 1203
1783 1 1198 1201 1202 1204
1784 3 1198 1201 1202 1205
1785 3 1201 1202 1205 1206
1786 1 1203 1202 1205 1206
1787 1 1204 1202 1205 1206
1788 1 1202 1205 1206 1207
1789 1 1202 1205 1206 1208
1790 3 1202 1205 1206 1209
1791 3 1205 1206 1209 49
1792 1 1207 1206 1209 49
1793 1 1208 1206 1209 49
1794 11 327 25 1210 1190
1795 6 1189 25 1210 1190
1796 7 25 1210 1190 1191
1797 7 25 1210 1190 1192
1798 8 25 1210 1190 1193
1799 1 1206 1209 49 50
1800 1 1206 1209 49 51
1801 1 1206 1209 49 52
1802 1 1212 1211 1214 1215
1803 1 1213 1211 1214 1215
1804 2 1231 1211 1214 1215
1805 1 1211 1214 1215 1216
1806 1 1211 1214 1215 1217
1807 3 1211 1214 1215 1218
1808 3 1214 1215 1218 1219
1809 1 1216 1215 1218 1219
1810 1 1217 1215 1218 1219
1811 1 1215 1218 1219 1220
1812 1 1215 1218 1219 1221
1813 3 1215 1218 1219 1222
1814 3 1218 1219 1222 1223
1815 1 1220 1219 1222 1223
1816 1 1221 1219 1222 1223
1817 1 1219 1222 1223 1224
1818 1 1219 1222 1223 1225
1819 3 1219 1222 1223 1226
1820 3 1222 1223 1226 1227
1821 1 1224 1223 1226 1227
1822 1 1225 1223 1226 1227
1823 1 1223 1226 1227 1228
1824 1 1223 1226 1227 1229
1825 3 1223 1226 1227 1230
1826 4 1226 1227 1230 27
1827 5 1228 1227 1230 27
1828 5 1229 1227 1230 27
1829 11 1041 26 1231 1211
1830 11 1188 26 1231 1211
1831 6 1252 26 1231 1211
1832 7 26 1231 1211 1212
1833 7 26 1231 1211 1213
1834 8 26 1231 1211 1214
1835 10 1227 1230 27 1083
1836 10 1227 1230 27 1146
1837 9 1227 1230 27 1273
1838 1 1233 1232 1235 1236
1839 1 1234 1232 1235 1236
1840 2 1252 1232 1235 1236
1841 1 1232 1235 1236 1237
1842 1 1232 1235 1236 1238
1843 3 1232 1235 1236 1239
1844 3 1235 1236 1239 1240
1845 1 1237 1236 1239 1240
1846 1 1238 1236 1239 1240
1847 1 1236 1239 1240 1241
1848 1 1236 1239 1240 1242
1849 3 1236 1239 1240 1243
1850 3 1239 1240 1243 1244
1851 1 1241 1240 1243 1244
1852 1 1242 1240 1243 1244
1853 1 1240 1243 1244 1245
1854 1 1240 1243 1244 1246
1855 3 1240 1243 1244 1247
1856 3 1243 1244 1247 1248
1857 1 1245 1244 1247 1248
1858 1 1246 1244 1247 1248
1859 1 1244 1247 1248 1249
1860 1 1244 1247 1248 1250
1861 3 1244 1247 1248 1251
1862 4 1247 1248 1251 53
1863 5 1249 1248 1251 53
1864 5 1250 1248 1251 53
1865 11 1041 26 1252 1232
1866 11 1188 26 1252 1232
1867 6 1231 26 1252 1232
1868 7 26 1252 1232 1233
1869 7 26 1252 1232 1234
1870 8 26 1252 1232 1235
1871 10 1248 1251 53 1503
1872 10 1248 1251 53 2007
1873 9 1248 1251 53 2092
1874 1 1254 1253 1256 1257
1875 1 1255 1253 1256 1257
1876 2 1273 1253 1256 1257
1877 1 1253 1256 1257 1258
1878 1 1253 1256 1257 1259
1879 3 1253 1256 1257 1260
1880 3 1256 1257 1260 1261
1881 1 1258 1257 1260 1261
1882 1 1259 1257 1260 1261
1883 1 1257 1260 1261 1262
1884 1 1257 1260 1261 1263
1885 3 1257 1260 1261 1264
1886 3 1260 1261 1264 1265
1887 1 1262 1261 1264 1265
1888 1 1263 1261 1264 1265
1889 1 1261 1264 1265 1266
1890 1 1261 1264 1265 1267
1891 3 1261 1264 1265 1268
1892 3 1264 1265 1268 1269
1893 1 1266 1265 1268 1269
1894 1 1267 1265 1268 1269
1895 1 1265 1268 1269 1270
1896 1 1265 1268 1269 1271
1897 3 1265 1268 1269 1272
1898 4 1268 1269 1272 139
1899 5 1270 1269 1272 139
1900 5 1271 1269 1272 139
1901 11 1083 27 1273 1253
1902 11 1146 27 1273 1253
1903 11 1230 27 1273 1253
1904 7 27 1273 1253 1254
1905 7 27 1273 1253 1255
1906 8 27 1273 1253 1256
1907 10 1269 1272 139 4128
1908 10 1269 1272 139 4548
1909 1 1275 1274 1277 1278
1910 1 1276 1274 1277 1278
1911 2 1294 1274 1277 1278
1912 1 1274 1277 1278 1279
1913 1 1274 1277 1278 1280
1914 3 1274 1277 1278 1281
1915 3 1277 1278 1281 1282
1916 1 1279 1278 1281 1282
1917 1 1280 1278 1281 1282
1918 1 1278 1281 1282 1283
1919 1 1278 1281 1282 1284
1920 3 1278 1281 1282 1285
1921 3 1281 1282 1285 1286
1922 1 1283 1282 1285 1286
1923 1 1284 1282 1285 1286
1924 1 1282 1285 1286 1287
1925 1 1282 1285 1286 1288
1926 3 1282 1285 1286 1289
1927 3 1285 1286 1289 1290
1928 1 1287 1286 1289 1290
1929 1 1288 1286 1289 1290
1930 1 1286 1289 1290 1291
1931 1 1286 1289 1290 1292
1932 3 1286 1289 1290 1293
1933 3 1289 1290 1293 55
1934 1 1291 1290 1293 55
1935 1 1292 1290 1293 55
1936 6 1315 28 1294 1274
1937 6 1336 28 1294 1274
1938 7 28 1294 1274 1275
1939 7 28 1294 1274 1276
1940 8 28 1294 1274 1277
1941 1 1290 1293 55 56
1942 1 1290 1293 55 57
1943 1 1290 1293 55 58
1944 1 1296 1295 1298 1299
1945 1 1297 1295 1298 1299
1946 2 1315 1295 1298 1299
1947 1 1295 1298 1299 1300
1948 1 1295 1298 1299 1301
1949 3 1295 1298 1299 1302
1950 3 1298 1299 1302 1303
1951 1 1300 1299 1302 1303
1952 1 1301 1299 1302 1303
1953 1 1299 1302 1303 1304
1954 1 1299 1302 1303 1305
1955 3 1299 1302 1303 1306
1956 3 1302 1303 1306 1307
1957 1 1304 1303 1306 1307
1958 1 1305 1303 1306 1307
1959 1 1303 1306 1307 1308
1960 1 1303 1306 1307 1309
1961 3 1303 1306 1307 1310
1962 3 1306 1307 1310 1311
1963 1 1308 1307 1310 1311
1964 1 1309 1307 1310 1311
1965 1 1307 1310 1311 1312
1966 1 1307 1310 1311 1313
1967 3 1307 1310 1311 1314
1968 4 1310 1311 1314 32
1969 5 1312 1311 1314 32
1970 5 1313 1311 1314 32
1971 6 1294 28 1315 1295
1972 6 1336 28 1315 1295
1973 7 28 1315 1295 1296
1974 7 28 1315 1295 1297
1975 8 28 1315 1295 1298
1976 10 1311 1314 32 432
1977 10 1311 1314 32 1461
1978 9 1311 1314 32 1525
1979 1 1317 1316 1319 1320
1980 1 1318 1316 1319 1320
1981 2 1336 1316 1319 1320
1982 1 1316 1319 1320 1321
1983 1 1316 1319 1320 1322
1984 3 1316 1319 1320 1323
1985 3 1319 1320 1323 1324
1986 1 1321 1320 1323 1324
1987 1 1322 1320 1323 1324
1988 1 1320 1323 1324 1325
1989 1 1320 1323 1324 1326
1990 3 1320 1323 1324 1327
1991 3 1323 1324 1327 1328
1992 1 1325 1324 1327 1328
1993 1 1326 1324 1327 1328
1994 1 1324 1327 1328 1329
1995 1 1324 1327 1328 1330
1996 3 1324 1327 1328 1331
1997 3 1327 1328 1331 1332
1998 1 1329 1328 1331 1332
1999 1 1330 1328 1331 1332
2000 1 1328 1331 1332 1333
2001 1 1328 1331 1332 1334
2002 3 1328 1331 1332 1335
2003 4 1331 1332 1335 47
2004 5 1333 1332 1335 47
2005 5 1334 1332 1335 47
2006 6 1294 28 1336 1316
2007 6 1315 28 1336 1316
2008 7 28 1336 1316 1317
2009 7 28 1336 1316 1318
2010 8 28 1336 1316 1319
2011 10 1332 1335 47 1923
2012 9 1332 1335 47 2050
2013 1 1338 1337 1340 1341
2014 1 1339 1337 1340 1341
2015 2 1357 1337 1340 1341
2016 1 1337 1340 1341 1342
2017 1 1337 1340 1341 1343
2018 3 1337 1340 1341 1344
2019 3 1340 1341 1344 1345
2020 1 1342 1341 1344 1345
2021 1 1343 1341 1344 1345
2022 1 1341 1344 1345 1346
2023 1 1341 1344 1345 1347
2024 3 1341 1344 1345 1348
2025 3 1344 1345 1348 1349
2026 1 1346 1345 1348 1349
2027 1 1347 1345 1348 1349
2028 1 1345 1348 1349 1350
2029 1 1345 1348 1349 1351
2030 3 1345 1348 1349 1352
2031 3 1348 1349 1352 1353
2032 1 1350 1349 1352 1353
2033 1 1351 1349 1352 1353
2034 1 1349 1352 1353 1354
2035 1 1349 1352 1353 1355
2036 3 1349 1352 1353 1356
2037 4 1352 1353 1356 30
2038 5 1354 1353 1356 30
2039 5 1355 1353 1356 30
2040 11 243 29 1357 1337
2041 6 1378 29 1357 1337
2042 6 1399 29 1357 1337
2043 7 29 1357 1337 1338
2044 7 29 1357 1337 1339
2045 8 29 1357 1337 1340
2046 10 1353 1356 30 306
2047 9 1353 1356 30 1420
2048 9 1353 1356 30 1441
2049 1 1359 1358 1361 1362
2050 1 1360 1358 1361 1362
2051 2 1378 1358 1361 1362
2052 1 1358 1361 1362 1363
2053 1 1358 1361 1362 1364
2054 3 1358 1361 1362 1365
2055 3 1361 1362 1365 1366
2056 1 1363 1362 1365 1366
2057 1 1364 1362 1365 1366
2058 1 1362 1365 1366 1367
2059 1 1362 1365 1366 1368
2060 3 1362 1365 1366 1369
2061 3 1365 1366 1369 1370
2062 1 1367 1366 1369 1370
2063 1 1368 1366 1369 1370
2064 1 1366 1369 1370 1371
2065 1 1366 1369 1370 1372
2066 3 1366 1369 1370 1373
2067 3 1369 1370 1373 1374
2068 1 1371 1370 1373 1374
2069 1 1372 1370 1373 1374
2070 1 1370 1373 1374 1375
2071 1 1370 1373 1374 1376
2072 3 1370 1373 1374 1377
2073 4 1373 1374 1377 34
2074 5 1375 1374 1377 34
2075 5 1376 1374 1377 34
2076 11 243 29 1378 1358
2077 6 1357 29 1378 1358
2078 6 1399 29 1378 1358
2079 7 29 1378 1358 1359
2080 7 29 1378 1358 1360
2081 8 29 1378 1358 1361
2082 10 1374 1377 34 1545
2083 9 1374 1377 34 1588
2084 9 1374 1377 34 1609
2085 1 1380 1379 1382 1383
2086 1 1381 1379 1382 1383
2087 2 1399 1379 1382 1383
2088 1 1379 1382 1383 1384
2089 1 1379 1382 1383 1385
2090 3 1379 1382 1383 1386
2091 3 1382 1383 1386 1387
2092 1 1384 1383 1386 1387
2093 1 1385 1383 1386 1387
2094 1 1383 1386 1387 1388
2095 1 1383 1386 1387 1389
2096 3 1383 1386 1387 1390
2097 3 1386 1387 1390 1391
2098 1 1388 1387 1390 1391
2099 1 1389 1387 1390 1391
2100 1 1387 1390 1391 1392
2101 1 1387 1390 1391 1393
2102 3 1387 1390 1391 1394
2103 3 1390 1391 1394 1395
2104 1 1392 1391 1394 1395
2105 1 1393 1391 1394 1395
2106 1 1391 1394 1395 1396
2107 1 1391 1394 1395 1397
2108 3 1391 1394 1395 1398
2109 4 1394 1395 1398 48
2110 5 1396 1395 1398 48
2111 5 1397 1395 1398 48
2112 11 243 29 1399 1379
2113 6 1357 29 1399 1379
2114 6 1378 29 1399 1379
2115 7 29 1399 1379 1380
2116 7 29 1399 1379 1381
2117 8 29 1399 1379 1382
2118 10 1395 1398 48 1167
2119 9 1395 1398 48 2071
2120 1 1401 1400 1403 1404
2121 1 1402 1400 1403 1404
2122 2 1420 1400 1403 1404
2123 1 1400 1403 1404 1405
2124 1 1400 1403 1404 1406
2125 3 1400 1403 1404 1407
2126 3 1403 1404 1407 1408
2127 1 1405 1404 1407 1408
2128 1 1406 1404 1407 1408
2129 1 1404 1407 1408 1409
2130 1 1404 1407 1408 1410
2131 3 1404 1407 1408 1411
2132 3 1407 1408 1411 1412
2133 1 1409 1408 1411 1412
2134 1 1410 1408 1411 1412
2135 1 1408 1411 1412 1413
2136 1 1408 1411 1412 1414
2137 3 1408 1411 1412 1415
2138 3 1411 1412 1415 1416
2139 1 1413 1412 1415 1416
2140 1 1414 1412 1415 1416
2141 1 1412 1415 1416 1417
2142 1 1412 1415 1416 1418
2143 3 1412 1415 1416 1419
2144 4 1415 1416 1419 35
2145 5 1417 1416 1419 35
2146 5 1418 1416 1419 35
2147 11 306 30 1420 1400
2148 11 1356 30 1420 1400
2149 6 1441 30 1420 1400
2150 7 30 1420 1400 1401
2151 7 30 1420 1400 1402
2152 8 30 1420 1400 1403
2153 10 1416 1419 35 558
2154 9 1416 1419 35 1630
2155 9 1416 1419 35 1651
2156 1 1422 1421 1424 1425
2157 1 1423 1421 1424 1425
2158 2 1441 1421 1424 1425
2159 1 1421 1424 1425 1426
2160 1 1421 1424 1425 1427
2161 3 1421 1424 1425 1428
2162 3 1424 1425 1428 1429
2163 1 1426 1425 1428 1429
2164 1 1427 1425 1428 1429
2165 1 1425 1428 1429 1430
2166 1 1425 1428 1429 1431
2167 3 1425 1428 1429 1432
2168 3 1428 1429 1432 1433
2169 1 1430 1429 1432 1433
2170 1 1431 1429 1432 1433
2171 1 1429 1432 1433 1434
2172 1 1429 1432 1433 1435
2173 3 1429 1432 1433 1436
2174 3 1432 1433 1436 1437
2175 1 1434 1433 1436 1437
2176 1 1435 1433 1436 1437
2177 1 1433 1436 1437 1438
2178 1 1433 1436 1437 1439
2179 3 1433 1436 1437 1440
2180 4 1436 1437 1440 59
2181 5 1438 1437 1440 59
2182 5 1439 1437 1440 59
2183 11 306 30 1441 1421
2184 11 1356 30 1441 1421
2185 6 1420 30 1441 1421
2186 7 30 1441 1421 1422
2187 7 30 1441 1421 1423
2188 8 30 1441 1421 1424
2189 9 1437 1440 59 2134
2190 9 1437 1440 59 2155
2191 9 1437 1440 59 2176
2192 1 1443 1442 1445 1446
2193 1 1444 1442 1445 1446
2194 2 1462 1442 1445 1446
2195 1 1442 1445 1446 1447
2196 1 1442 1445 1446 1448
2197 3 1442 1445 1446 1449
2198 3 1445 1446 1449 1450
2199 1 1447 1446 1449 1450
2200 1 1448 1446 1449 1450
2201 1 1446 1449 1450 1451
2202 1 1446 1449 1450 1452
2203 3 1446 1449 1450 1453
2204 3 1449 1450 1453 1454
2205 1 1451 1450 1453 1454
2206 1 1452 1450 1453 1454
2207 1 1450 1453 1454 1455
2208 1 1450 1453 1454 1456
2209 3 1450 1453 1454 1457
2210 3 1453 1454 1457 1458
2211 1 1455 1454 1457 1458
2212 1 1456 1454 1457 1458
2213 1 1454 1457 1458 1459
2214 1 1454 1457 1458 1460
2215 3 1454 1457 1458 1461
2216 4 1457 1458 1461 32
2217 5 1459 1458 1461 32
2218 5 1460 1458 1461 32
2219 11 390 31 1462 1442
2220 6 1483 31 1462 1442
2221 6 1504 31 1462 1442
2222 7 31 1462 1442 1443
2223 7 31 1462 1442 1444
2224 8 31 1462 1442 1445
2225 10 1458 1461 32 432
2226 10 1458 1461 32 1314
2227 9 1458 1461 32 1525
2228 1 1464 1463 1466 1467
2229 1 1465 1463 1466 1467
2230 2 1483 1463 1466 1467
2231 1 1463 1466 1467 1468
2232 1 1463 1466 1467 1469
2233 3 1463 1466 1467 1470
2234 3 1466 1467 1470 1471
2235 1 1468 1467 1470 1471
2236 1 1469 1467 1470 1471
2237 1 1467 1470 1471 1472
2238 1 1467 1470 1471 1473
2239 3 1467 1470 1471 1474
2240 3 1470 1471 1474 1475
2241 1 1472 1471 1474 1475
2242 1 1473 1471 1474 1475
2243 1 1471 1474 1475 1476
2244 1 1471 1474 1475 1477
2245 3 1471 1474 1475 1478
2246 3 1474 1475 1478 1479
2247 1 1476 1475 1478 1479
2248 1 1477 1475 1478 1479
2249 1 1475 1478 1479 1480
2250 1 1475 1478 1479 1481
2251 3 1475 1478 1479 1482
2252 4 1478 1479 1482 36
2253 5 1480 1479 1482 36
2254 5 1481 1479 1482 36
2255 11 390 31 1483 1463
2256 6 1462 31 1483 1463
2257 6 1504 31 1483 1463
2258 7 31 1483 1463 1464
2259 7 31 1483 1463 1465
2260 8 31 1483 1463 1466
2261 9 1479 1482 36 1672
2262 9 1479 1482 36 1693
2263 1 1485 1484 1487 1488
2264 1 1486 1484 1487 1488
2265 2 1504 1484 1487 1488
2266 1 1484 1487 1488 1489
2267 1 1484 1487 1488 1490
2268 3 1484 1487 1488 1491
2269 3 1487 1488 1491 1492
2270 1 1489 1488 1491 1492
2271 1 1490 1488 1491 1492
2272 1 1488 1491 1492 1493
2273 1 1488 1491 1492 1494
2274 3 1488 1491 1492 1495
2275 3 1491 1492 1495 1496
2276 1 1493 1492 1495 1496
2277 1 1494 1492 1495 1496
2278 1 1492 1495 1496 1497
2279 1 1492 1495 1496 1498
2280 3 1492 1495 1496 1499
2281 3 1495 1496 1499 1500
2282 1 1497 1496 1499 1500
2283 1 1498 1496 1499 1500
2284 1 1496 1499 1500 1501
2285 1 1496 1499 1500 1502
2286 3 1496 1499 1500 1503
2287 4 1499 1500 1503 53
2288 5 1501 1500 1503 53
2289 5 1502 1500 1503 53
2290 11 390 31 1504 1484
2291 6 1462 31 1504 1484
2292 6 1483 31 1504 1484
2293 7 31 1504 1484 1485
2294 7 31 1504 1484 1486
2295 8 31 1504 1484 1487
2296 10 1500 1503 53 1251
2297 10 1500 1503 53 2007
2298 9 1500 1503 53 2092
2299 1 1506 1505 1508 1509
2300 1 1507 1505 1508 1509
2301 2 1525 1505 1508 1509
2302 1 1505 1508 1509 1510
2303 1 1505 1508 1509 1511
2304 3 1505 1508 1509 1512
2305 3 1508 1509 1512 1513
2306 1 1510 1509 1512 1513
2307 1 1511 1509 1512 1513
2308 1 1509 1512 1513 1514
2309 1 1509 1512 1513 1515
2310 3 1509 1512 1513 1516
2311 3 1512 1513 1516 1517
2312 1 1514 1513 1516 1517
2313 1 1515 1513 1516 1517
2314 1 1513 1516 1517 1518
2315 1 1513 1516 1517 1519
2316 3 1513 1516 1517 1520
2317 3 1516 1517 1520 1521
2318 1 1518 1517 1520 1521
2319 1 1519 1517 1520 1521
2320 1 1517 1520 1521 1522
2321 1 1517 1520 1521 1523
2322 3 1517 1520 1521 1524
2323 4 1520 1521 1524 61
2324 5 1522 1521 1524 61
2325 5 1523 1521 1524 61
2326 11 432 32 1525 1505
2327 11 1314 32 1525 1505
2328 11 1461 32 1525 1505
2329 7 32 1525 1505 1506
2330 7 32 1525 1505 1507
2331 8 32 1525 1505 1508
2332 9 1521 1524 61 2260
2333 9 1521 1524 61 2281
2334 9 1521 1524 61 2302
2335 1 1527 1526 1529 1530
2336 1 1528 1526 1529 1530
2337 2 1546 1526 1529 1530
2338 1 1526 1529 1530 1531
2339 1 1526 1529 1530 1532
2340 3 1526 1529 1530 1533
2341 3 1529 1530 1533 1534
2342 1 1531 1530 1533 1534
2343 1 1532 1530 1533 1534
2344 1 1530 1533 1534 1535
2345 1 1530 1533 1534 1536
2346 3 1530 1533 1534 1537
2347 3 1533 1534 1537 1538
2348 1 1535 1534 1537 1538
2349 1 1536 1534 1537 1538
2350 1 1534 1537 1538 1539
2351 1 1534 1537 1538 1540
2352 3 1534 1537 1538 1541
2353 3 1537 1538 1541 1542
2354 1 1539 1538 1541 1542
2355 1 1540 1538 1541 1542
2356 1 1538 1541 1542 1543
2357 1 1538 1541 1542 1544
2358 3 1538 1541 1542 1545
2359 4 1541 1542 1545 34
2360 5 1543 1542 1545 34
2361 5 1544 1542 1545 34
2362 11 453 33 1546 1526
2363 6 1567 33 1546 1526
2364 7 33 1546 1526 1527
2365 7 33 1546 1526 1528
2366 8 33 1546 1526 1529
2367 10 1542 1545 34 1377
2368 9 1542 1545 34 1588
2369 9 1542 1545 34 1609
2370 1 1548 1547 1550 1551
2371 1 1549 1547 1550 1551
2372 2 1567 1547 1550 1551
2373 1 1547 1550 1551 1552
2374 1 1547 1550 1551 1553
2375 3 1547 1550 1551 1554
2376 3 1550 1551 1554 1555
2377 1 1552 1551 1554 1555
2378 1 1553 1551 1554 1555
2379 1 1551 1554 1555 1556
2380 1 1551 1554 1555 1557
2381 3 1551 1554 1555 1558
2382 3 1554 1555 1558 1559
2383 1 1556 1555 1558 1559
2384 1 1557 1555 1558 1559
2385 1 1555 1558 1559 1560
2386 1 1555 1558 1559 1561
2387 3 1555 1558 1559 1562
2388 3 1558 1559 1562 1563
2389 1 1560 1559 1562 1563
2390 1 1561 1559 1562 1563
2391 1 1559 1562 1563 1564
2392 1 1559 1562 1563 1565
2393 3 1559 1562 1563 1566
2394 4 1562 1563 1566 38
2395 5 1564 1563 1566 38
2396 5 1565 1563 1566 38
2397 11 453 33 1567 1547
2398 6 1546 33 1567 1547
2399 7 33 1567 1547 1548
2400 7 33 1567 1547 1549
2401 8 33 1567 1547 1550
2402 10 1563 1566 38 684
2403 9 1563 1566 38 1735
2404 1 1569 1568 1571 1572
2405 1 1570 1568 1571 1572
2406 2 1588 1568 1571 1572
2407 1 1568 1571 1572 1573
2408 1 1568 1571 1572 1574
2409 3 1568 1571 1572 1575
2410 3 1571 1572 1575 1576
2411 1 1573 1572 1575 1576
2412 1 1574 1572 1575 1576
2413 1 1572 1575 1576 1577
2414 1 1572 1575 1576 1578
2415 3 1572 1575 1576 1579
2416 3 1575 1576 1579 1580
2417 1 1577 1576 1579 1580
2418 1 1578 1576 1579 1580
2419 1 1576 1579 1580 1581
2420 1 1576 1579 1580 1582
2421 3 1576 1579 1580 1583
2422 3 1579 1580 1583 1584
2423 1 1581 1580 1583 1584
2424 1 1582 1580 1583 1584
2425 1 1580 1583 1584 1585
2426 1 1580 1583 1584 1586
2427 3 1580 1583 1584 1587
2428 4 1583 1584 1587 39
2429 5 1585 1584 1587 39
2430 5 1586 1584 1587 39
2431 11 1377 34 1588 1568
2432 11 1545 34 1588 1568
2433 6 1609 34 1588 1568
2434 7 34 1588 1568 1569
2435 7 34 1588 1568 1570
2436 8 34 1588 1568 1571
2437 10 1584 1587 39 768
2438 9 1584 1587 39 1756
2439 1 1590 1589 1592 1593
2440 1 1591 1589 1592 1593
2441 2 1609 1589 1592 1593
2442 1 1589 1592 1593 1594
2443 1 1589 1592 1593 1595
2444 3 1589 1592 1593 1596
2445 3 1592 1593 1596 1597
2446 1 1594 1593 1596 1597
2447 1 1595 1593 1596 1597
2448 1 1593 1596 1597 1598
2449 1 1593 1596 1597 1599
2450 3 1593 1596 1597 1600
2451 3 1596 1597 1600 1601
2452 1 1598 1597 1600 1601
2453 1 1599 1597 1600 1601
2454 1 1597 1600 1601 1602
2455 1 1597 1600 1601 1603
2456 3 1597 1600 1601 1604
2457 3 1600 1601 1604 1605
2458 1 1602 1601 1604 1605
2459 1 1603 1601 1604 1605
2460 1 1601 1604 1605 1606
2461 1 1601 1604 1605 1607
2462 3 1601 1604 1605 1608
2463 4 1604 1605 1608 63
2464 5 1606 1605 1608 63
2465 5 1607 1605 1608 63
2466 11 1377 34 1609 1589
2467 11 1545 34 1609 1589
2468 6 1588 34 1609 1589
2469 7 34 1609 1589 1590
2470 7 34 1609 1589 1591
2471 8 34 1609 1589 1592
2472 10 1605 1608 63 2322
2473 9 1605 1608 63 2407
2474 9 1605 1608 63 2428
2475 1 1611 1610 1613 1614
2476 1 1612 1610 1613 1614
2477 2 1630 1610 1613 1614
2478 1 1610 1613 1614 1615
2479 1 1610 1613 1614 1616
2480 3 1610 1613 1614 1617
2481 3 1613 1614 1617 1618
2482 1 1615 1614 1617 1618
2483 1 1616 1614 1617 1618
2484 1 1614 1617 1618 1619
2485 1 1614 1617 1618 1620
2486 3 1614 1617 1618 1621
2487 3 1617 1618 1621 1622
2488 1 1619 1618 1621 1622
2489 1 1620 1618 1621 1622
2490 1 1618 1621 1622 1623
2491 1 1618 1621 1622 1624
2492 3 1618 1621 1622 1625
2493 3 1621 1622 1625 1626
2494 1 1623 1622 1625 1626
2495 1 1624 1622 1625 1626
2496 1 1622 1625 1626 1627
2497 1 1622 1625 1626 1628
2498 3 1622 1625 1626 1629
2499 4 1625 1626 1629 40
2500 5 1627 1626 1629 40
2501 5 1628 1626 1629 40
2502 11 558 35 1630 1610
2503 11 1419 35 1630 1610
2504 6 1651 35 1630 1610
2505 7 35 1630 1610 1611
2506 7 35 1630 1610 1612
2507 8 35 1630 1610 1613
2508 10 1626 1629 40 789
2509 9 1626 1629 40 1777
2510 9 1626 1629 40 1798
2511 1 1632 1631 1634 1635
2512 1 1633 1631 1634 1635
2513 2 1651 1631 1634 1635
2514 1 1631 1634 1635 1636
2515 1 1631 1634 1635 1637
2516 3 1631 1634 1635 1638
2517 3 1634 1635 1638 1639
2518 1 1636 1635 1638 1639
2519 1 1637 1635 1638 1639
2520 1 1635 1638 1639 1640
2521 1 1635 1638 1639 1641
2522 3 1635 1638 1639 1642
2523 3 1638 1639 1642 1643
2524 1 1640 1639 1642 1643
2525 1 1641 1639 1642 1643
2526 1 1639 1642 1643 1644
2527 1 1639 1642 1643 1645
2528 3 1639 1642 1643 1646
2529 3 1642 1643 1646 1647
2530 1 1644 1643 1646 1647
2531 1 1645 1643 1646 1647
2532 1 1643 1646 1647 1648
2533 1 1643 1646 1647 1649
2534 3 1643 1646 1647 1650
2535 4 1646 1647 1650 64
2536 5 1648 1647 1650 64
2537 5 1649 1647 1650 64
2538 11 558 35 1651 1631
2539 11 1419 35 1651 1631
2540 6 1630 35 1651 1631
2541 7 35 1651 1631 1632
2542 7 35 1651 1631 1633
2543 8 35 1651 1631 1634
2544 10 1647 1650 64 2154
2545 9 1647 1650 64 2449
2546 1 1653 1652 1655 1656
2547 1 1654 1652 1655 1656
2548 2 1672 1652 1655 1656
2549 1 1652 1655 1656 1657
2550 1 1652 1655 1656 1658
2551 3 1652 1655 1656 1659
2552 3 1655 1656 1659 1660
2553 1 1657 1656 1659 1660
2554 1 1658 1656 1659 1660
2555 1 1656 1659 1660 1661
2556 1 1656 1659 1660 1662
2557 3 1656 1659 1660 1663
2558 3 1659 1660 1663 1664
2559 1 1661 1660 1663 1664
2560 1 1662 1660 1663 1664
2561 1 1660 1663 1664 1665
2562 1 1660 1663 1664 1666
2563 3 1660 1663 1664 1667
2564 3 1663 1664 1667 1668
2565 1 1665 1664 1667 1668
2566 1 1666 1664 1667 1668
2567 1 1664 1667 1668 1669
2568 1 1664 1667 1668 1670
2569 3 1664 1667 1668 1671
2570 4 1667 1668 1671 37
2571 5 1669 1668 1671 37
2572 5 1670 1668 1671 37
2573 11 1482 36 1672 1652
2574 6 1693 36 1672 1652
2575 7 36 1672 1652 1653
2576 7 36 1672 1652 1654
2577 8 36 1672 1652 1655
2578 10 1668 1671 37 642
2579 9 1668 1671 37 1714
2580 1 1674 1673 1676 1677
2581 1 1675 1673 1676 1677
2582 2 1693 1673 1676 1677
2583 1 1673 1676 1677 1678
2584 1 1673 1676 1677 1679
2585 3 1673 1676 1677 1680
2586 3 1676 1677 1680 1681
2587 1 1678 1677 1680 1681
2588 1 1679 1677 1680 1681
2589 1 1677 1680 1681 1682
2590 1 1677 1680 1681 1683
2591 3 1677 1680 1681 1684
2592 3 1680 1681 1684 1685
2593 1 1682 1681 1684 1685
2594 1 1683 1681 1684 1685
2595 1 1681 1684 1685 1686
2596 1 1681 1684 1685 1687
2597 3 1681 1684 1685 1688
2598 3 1684 1685 1688 1689
2599 1 1686 1685 1688 1689
2600 1 1687 1685 1688 1689
2601 1 1685 1688 1689 1690
2602 1 1685 1688 1689 1691
2603 3 1685 1688 1689 1692
2604 4 1688 1689 1692 65
2605 5 1690 1689 1692 65
2606 5 1691 1689 1692 65
2607 11 1482 36 1693 1673
2608 6 1672 36 1693 1673
2609 7 36 1693 1673 1674
2610 7 36 1693 1673 1675
2611 8 36 1693 1673 1676
2612 10 1689 1692 65 2196
2613 10 1689 1692 65 2448
2614 1 1695 1694 1697 1698
2615 1 1696 1694 1697 1698
2616 2 1714 1694 1697 1698
2617 1 1694 1697 1698 1699
2618 1 1694 1697 1698 1700
2619 3 1694 1697 1698 1701
2620 3 1697 1698 1701 1702
2621 1 1699 1698 1701 1702
2622 1 1700 1698 1701 1702
2623 1 1698 1701 1702 1703
2624 1 1698 1701 1702 1704
2625 3 1698 1701 1702 1705
2626 3 1701 1702 1705 1706
2627 1 1703 1702 1705 1706
2628 1 1704 1702 1705 1706
2629 1 1702 1705 1706 1707
2630 1 1702 1705 1706 1708
2631 3 1702 1705 1706 1709
2632 3 1705 1706 1709 1710
2633 1 1707 1706 1709 1710
2634 1 1708 1706 1709 1710
2635 1 1706 1709 1710 1711
2636 1 1706 1709 1710 1712
2637 3 1706 1709 1710 1713
2638 4 1709 1710 1713 42
2639 5 1711 1710 1713 42
2640 5 1712 1710 1713 42
2641 11 642 37 1714 1694
2642 11 1671 37 1714 1694
2643 7 37 1714 1694 1695
2644 7 37 1714 1694 1696
2645 8 37 1714 1694 1697
2646 10 1710 1713 42 1818
2647 9 1710 1713 42 1882
2648 9 1710 1713 42 1903
2649 1 1716 1715 1718 1719
2650 1 1717 1715 1718 1719
2651 2 1735 1715 1718 1719
2652 1 1715 1718 1719 1720
2653 1 1715 1718 1719 1721
2654 3 1715 1718 1719 1722
2655 3 1718 1719 1722 1723
2656 1 1720 1719 1722 1723
2657 1 1721 1719 1722 1723
2658 1 1719 1722 1723 1724
2659 1 1719 1722 1723 1725
2660 3 1719 1722 1723 1726
2661 3 1722 1723 1726 1727
2662 1 1724 1723 1726 1727
2663 1 1725 1723 1726 1727
2664 1 1723 1726 1727 1728
2665 1 1723 1726 1727 1729
2666 3 1723 1726 1727 1730
2667 3 1726 1727 1730 1731
2668 1 1728 1727 1730 1731
2669 1 1729 1727 1730 1731
2670 1 1727 1730 1731 1732
2671 1 1727 1730 1731 1733
2672 3 1727 1730 1731 1734
2673 4 1730 1731 1734 43
2674 5 1732 1731 1734 43
2675 5 1733 1731 1734 43
2676 11 684 38 1735 1715
2677 11 1566 38 1735 1715
2678 7 38 1735 1715 1716
2679 7 38 1735 1715 1717
2680 8 38 1735 1715 1718
2681 10 1731 1734 43 936
2682 9 1731 1734 43 1924
2683 9 1731 1734 43 1945
2684 1 1737 1736 1739 1740
2685 1 1738 1736 1739 1740
2686 2 1756 1736 1739 1740
2687 1 1736 1739 1740 1741
2688 1 1736 1739 1740 1742
2689 3 1736 1739 1740 1743
2690 3 1739 1740 1743 1744
2691 1 1741 1740 1743 1744
2692 1 1742 1740 1743 1744
2693 1 1740 1743 1744 1745
2694 1 1740 1743 1744 1746
2695 3 1740 1743 1744 1747
2696 3 1743 1744 1747 1748
2697 1 1745 1744 1747 1748
2698 1 1746 1744 1747 1748
2699 1 1744 1747 1748 1749
2700 1 1744 1747 1748 1750
2701 3 1744 1747 1748 1751
2702 3 1747 1748 1751 1752
2703 1 1749 1748 1751 1752
2704 1 1750 1748 1751 1752
2705 1 1748 1751 1752 1753
2706 1 1748 1751 1752 1754
2707 3 1748 1751 1752 1755
2708 4 1751 1752 1755 68
2709 5 1753 1752 1755 68
2710 5 1754 1752 1755 68
2711 11 768 39 1756 1736
2712 11 1587 39 1756 1736
2713 7 39 1756 1736 1737
2714 7 39 1756 1736 1738
2715 8 39 1756 1736 1739
2716 10 1752 1755 68 2406
2717 9 1752 1755 68 2554
2718 9 1752 1755 68 2575
2719 1 1758 1757 1760 1761
2720 1 1759 1757 1760 1761
2721 2 1777 1757 1760 1761
2722 1 1757 1760 1761 1762
2723 1 1757 1760 1761 1763
2724 3 1757 1760 1761 1764
2725 3 1760 1761 1764 1765
2726 1 1762 1761 1764 1765
2727 1 1763 1761 1764 1765
2728 1 1761 1764 1765 1766
2729 1 1761 1764 1765 1767
2730 3 1761 1764 1765 1768
2731 3 1764 1765 1768 1769
2732 1 1766 1765 1768 1769
2733 1 1767 1765 1768 1769
2734 1 1765 1768 1769 1770
2735 1 1765 1768 1769 1771
2736 3 1765 1768 1769 1772
2737 3 1768 1769 1772 1773
2738 1 1770 1769 1772 1773
2739 1 1771 1769 1772 1773
2740 1 1769 1772 1773 1774
2741 1 1769 1772 1773 1775
2742 3 1769 1772 1773 1776
2743 4 1772 1773 1776 41
2744 5 1774 1773 1776 41
2745 5 1775 1773 1776 41
2746 11 789 40 1777 1757
2747 11 1629 40 1777 1757
2748 6 1798 40 1777 1757
2749 7 40 1777 1757 1758
2750 7 40 1777 1757 1759
2751 8 40 1777 1757 1760
2752 9 1773 1776 41 1819
2753 9 1773 1776 41 1840
2754 9 1773 1776 41 1861
2755 1 1779 1778 1781 1782
2756 1 1780 1778 1781 1782
2757 2 1798 1778 1781 1782
2758 1 1778 1781 1782 1783
2759 1 1778 1781 1782 1784
2760 3 1778 1781 1782 1785
2761 3 1781 1782 1785 1786
2762 1 1783 1782 1785 1786
2763 1 1784 1782 1785 1786
2764 1 1782 1785 1786 1787
2765 1 1782 1785 1786 1788
2766 3 1782 1785 1786 1789
2767 3 1785 1786 1789 1790
2768 1 1787 1786 1789 1790
2769 1 1788 1786 1789 1790
2770 1 1786 1789 1790 1791
2771 1 1786 1789 1790 1792
2772 3 1786 1789 1790 1793
2773 3 1789 1790 1793 1794
2774 1 1791 1790 1793 1794
2775 1 1792 1790 1793 1794
2776 1 1790 1793 1794 1795
2777 1 1790 1793 1794 1796
2778 3 1790 1793 1794 1797
2779 4 1793 1794 1797 69
2780 5 1795 1794 1797 69
2781 5 1796 1794 1797 69
2782 11 789 40 1798 1778
2783 11 1629 40 1798 1778
2784 6 1777 40 1798 1778
2785 7 40 1798 1778 1779
2786 7 40 1798 1778 1780
2787 8 40 1798 1778 1781
2788 9 1794 1797 69 2596
2789 9 1794 1797 69 2617
2790 9 1794 1797 69 2638
2791 1 1800 1799 1802 1803
2792 1 1801 1799 1802 1803
2793 2 1819 1799 1802 1803
2794 1 1799 1802 1803 1804
2795 1 1799 1802 1803 1805
2796 3 1799 1802 1803 1806
2797 3 1802 1803 1806 1807
2798 1 1804 1803 1806 1807
2799 1 1805 1803 1806 1807
2800 1 1803 1806 1807 1808
2801 1 1803 1806 1807 1809
2802 3 1803 1806 1807 1810
2803 3 1806 1807 1810 1811
2804 1 1808 1807 1810 1811
2805 1 1809 1807 1810 1811
2806 1 1807 1810 1811 1812
2807 1 1807 1810 1811 1813
2808 3 1807 1810 1811 1814
2809 3 1810 1811 1814 1815
2810 1 1812 1811 1814 1815
2811 1 1813 1811 1814 1815
2812 1 1811 1814 1815 1816
2813 1 1811 1814 1815 1817
2814 3 1811 1814 1815 1818
2815 4 1814 1815 1818 42
2816 5 1816 1815 1818 42
2817 5 1817 1815 1818 42
2818 11 1776 41 1819 1799
2819 6 1840 41 1819 1799
2820 6 1861 41 1819 1799
2821 7 41 1819 1799 1800
2822 7 41 1819 1799 1801
2823 8 41 1819 1799 1802
2824 10 1815 1818 42 1713
2825 9 1815 1818 42 1882
2826 9 1815 1818 42 1903
2827 1 1821 1820 1823 1824
2828 1 1822 1820 1823 1824
2829 2 1840 1820 1823 1824
2830 1 1820 1823 1824 1825
2831 1 1820 1823 1824 1826
2832 3 1820 1823 1824 1827
2833 3 1823 1824 1827 1828
2834 1 1825 1824 1827 1828
2835 1 1826 1824 1827 1828
2836 1 1824 1827 1828 1829
2837 1 1824 1827 1828 1830
2838 3 1824 1827 1828 1831
2839 3 1827 1828 1831 1832
2840 1 1829 1828 1831 1832
2841 1 1830 1828 1831 1832
2842 1 1828 1831 1832 1833
2843 1 1828 1831 1832 1834
2844 3 1828 1831 1832 1835
2845 3 1831 1832 1835 1836
2846 1 1833 1832 1835 1836
2847 1 1834 1832 1835 1836
2848 1 1832 1835 1836 1837
2849 1 1832 1835 1836 1838
2850 3 1832 1835 1836 1839
2851 4 1835 1836 1839 45
2852 5 1837 1836 1839 45
2853 5 1838 1836 1839 45
2854 11 1776 41 1840 1820
2855 6 1819 41 1840 1820
2856 6 1861 41 1840 1820
2857 7 41 1840 1820 1821
2858 7 41 1840 1820 1822
2859 8 41 1840 1820 1823
2860 10 1836 1839 45 1965
2861 9 1836 1839 45 2008
2862 1 1842 1841 1844 1845
2863 1 1843 1841 1844 1845
2864 2 1861 1841 1844 1845
2865 1 1841 1844 1845 1846
2866 1 1841 1844 1845 1847
2867 3 1841 1844 1845 1848
2868 3 1844 1845 1848 1849
2869 1 1846 1845 1848 1849
2870 1 1847 1845 1848 1849
2871 1 1845 1848 1849 1850
2872 1 1845 1848 1849 1851
2873 3 1845 1848 1849 1852
2874 3 1848 1849 1852 1853
2875 1 1850 1849 1852 1853
2876 1 1851 1849 1852 1853
2877 1 1849 1852 1853 1854
2878 1 1849 1852 1853 1855
2879 3 1849 1852 1853 1856
2880 3 1852 1853 1856 1857
2881 1 1854 1853 1856 1857
2882 1 1855 1853 1856 1857
2883 1 1853 1856 1857 1858
2884 1 1853 1856 1857 1859
2885 3 1853 1856 1857 1860
2886 4 1856 1857 1860 70
2887 5 1858 1857 1860 70
2888 5 1859 1857 1860 70
2889 11 1776 41 1861 1841
2890 6 1819 41 1861 1841
2891 6 1840 41 1861 1841
2892 7 41 1861 1841 1842
2893 7 41 1861 1841 1843
2894 8 41 1861 1841 1844
2895 10 1857 1860 70 2595
2896 9 1857 1860 70 2659
2897 9 1857 1860 70 2680
2898 1 1863 1862 1865 1866
2899 1 1864 1862 1865 1866
2900 2 1882 1862 1865 1866
2901 1 1862 1865 1866 1867
2902 1 1862 1865 1866 1868
2903 3 1862 1865 1866 1869
2904 3 1865 1866 1869 1870
2905 1 1867 1866 1869 1870
2906 1 1868 1866 1869 1870
2907 1 1866 1869 1870 1871
2908 1 1866 1869 1870 1872
2909 3 1866 1869 1870 1873
2910 3 1869 1870 1873 1874
2911 1 1871 1870 1873 1874
2912 1 1872 1870 1873 1874
2913 1 1870 1873 1874 1875
2914 1 1870 1873 1874 1876
2915 3 1870 1873 1874 1877
2916 3 1873 1874 1877 1878
2917 1 1875 1874 1877 1878
2918 1 1876 1874 1877 1878
2919 1 1874 1877 1878 1879
2920 1 1874 1877 1878 1880
2921 3 1874 1877 1878 1881
2922 4 1877 1878 1881 46
2923 5 1879 1878 1881 46
2924 5 1880 1878 1881 46
2925 11 1713 42 1882 1862
2926 11 1818 42 1882 1862
2927 6 1903 42 1882 1862
2928 7 42 1882 1862 1863
2929 7 42 1882 1862 1864
2930 8 42 1882 1862 1865
2931 10 1878 1881 46 1944
2932 9 1878 1881 46 2029
2933 1 1884 1883 1886 1887
2934 1 1885 1883 1886 1887
2935 2 1903 1883 1886 1887
2936 1 1883 1886 1887 1888
2937 1 1883 1886 1887 1889
2938 3 1883 1886 1887 1890
2939 3 1886 1887 1890 1891
2940 1 1888 1887 1890 1891
2941 1 1889 1887 1890 1891
2942 1 1887 1890 1891 1892
2943 1 1887 1890 1891 1893
2944 3 1887 1890 1891 1894
2945 3 1890 1891 1894 1895
2946 1 1892 1891 1894 1895
2947 1 1893 1891 1894 1895
2948 1 1891 1894 1895 1896
2949 1 1891 1894 1895 1897
2950 3 1891 1894 1895 1898
2951 3 1894 1895 1898 1899
2952 1 1896 1895 1898 1899
2953 1 1897 1895 1898 1899
2954 1 1895 1898 1899 1900
2955 1 1895 1898 1899 1901
2956 3 1895 1898 1899 1902
2957 4 1898 1899 1902 71
2958 5 1900 1899 1902 71
2959 5 1901 1899 1902 71
2960 11 1713 42 1903 1883
2961 11 1818 42 1903 1883
2962 6 1882 42 1903 1883
2963 7 42 1903 1883 1884
2964 7 42 1903 1883 1885
2965 8 42 1903 1883 1886
2966 10 1899 1902 71 2469
2967 10 1899 1902 71 2532
2968 9 1899 1902 71 2701
2969 1 1905 1904 1907 1908
2970 1 1906 1904 1907 1908
2971 2 1924 1904 1907 1908
2972 1 1904 1907 1908 1909
2973 1 1904 1907 1908 1910
2974 3 1904 1907 1908 1911
2975 3 1907 1908 1911 1912
2976 1 1909 1908 1911 1912
2977 1 1910 1908 1911 1912
2978 1 1908 1911 1912 1913
2979 1 1908 1911 1912 1914
2980 3 1908 1911 1912 1915
2981 3 1911 1912 1915 1916
2982 1 1913 1912 1915 1916
2983 1 1914 1912 1915 1916
2984 1 1912 1915 1916 1917
2985 1 1912 1915 1916 1918
2986 3 1912 1915 1916 1919
2987 3 1915 1916 1919 1920
2988 1 1917 1916 1919 1920
2989 1 1918 1916 1919 1920
2990 1 1916 1919 1920 1921
2991 1 1916 1919 1920 1922
2992 3 1916 1919 1920 1923
2993 4 1919 1920 1923 47
2994 5 1921 1920 1923 47
2995 5 1922 1920 1923 47
2996 11 936 43 1924 1904
2997 11 1734 43 1924 1904
2998 6 1945 43 1924 1904
2999 7 43 1924 1904 1905
3000 7 43 1924 1904 1906
3001 8 43 1924 1904 1907
3002 10 1920 1923 47 1335
3003 9 1920 1923 47 2050
3004 1 1926 1925 1928 1929
3005 1 1927 1925 1928 1929
3006 2 1945 1925 1928 1929
3007 1 1925 1928 1929 1930
3008 1 1925 1928 1929 1931
3009 3 1925 1928 1929 1932
3010 3 1928 1929 1932 1933
3011 1 1930 1929 1932 1933
3012 1 1931 1929 1932 1933
3013 1 1929 1932 1933 1934
3014 1 1929 1932 1933 1935
3015 3 1929 1932 1933 1936
3016 3 1932 1933 1936 1937
3017 1 1934 1933 1936 1937
3018 1 1935 1933 1936 1937
3019 1 1933 1936 1937 1938
3020 1 1933 1936 1937 1939
3021 3 1933 1936 1937 1940
3022 3 1936 1937 1940 1941
3023 1 1938 1937 1940 1941
3024 1 1939 1937 1940 1941
3025 1 1937 1940 1941 1942
3026 1 1937 1940 1941 1943
3027 3 1937 1940 1941 1944
3028 4 1940 1941 1944 46
3029 5 1942 1941 1944 46
3030 5 1943 1941 1944 46
3031 11 936 43 1945 1925
3032 11 1734 43 1945 1925
3033 6 1924 43 1945 1925
3034 7 43 1945 1925 1926
3035 7 43 1945 1925 1927
3036 8 43 1945 1925 1928
3037 10 1941 1944 46 1881
3038 9 1941 1944 46 2029
3039 1 1947 1946 1949 1950
3040 1 1948 1946 1949 1950
3041 2 1966 1946 1949 1950
3042 1 1946 1949 1950 1951
3043 1 1946 1949 1950 1952
3044 3 1946 1949 1950 1953
3045 3 1949 1950 1953 1954
3046 1 1951 1950 1953 1954
3047 1 1952 1950 1953 1954
3048 1 1950 1953 1954 1955
3049 1 1950 1953 1954 1956
3050 3 1950 1953 1954 1957
3051 3 1953 1954 1957 1958
3052 1 1955 1954 1957 1958
3053 1 1956 1954 1957 1958
3054 1 1954 1957 1958 1959
3055 1 1954 1957 1958 1960
3056 3 1954 1957 1958 1961
3057 3 1957 1958 1961 1962
3058 1 1959 1958 1961 1962
3059 1 1960 1958 1961 1962
3060 1 1958 1961 1962 1963
3061 1 1958 1961 1962 1964
3062 3 1958 1961 1962 1965
3063 4 1961 1962 1965 45
3064 5 1963 1962 1965 45
3065 5 1964 1962 1965 45
3066 11 1020 44 1966 1946
3067 6 1987 44 1966 1946
3068 7 44 1966 1946 1947
3069 7 44 1966 1946 1948
3070 8 44 1966 1946 1949
3071 10 1962 1965 45 1839
3072 9 1962 1965 45 2008
3073 1 1968 1967 1970 1971
3074 1 1969 1967 1970 1971
3075 2 1987 1967 1970 1971
3076 1 1967 1970 1971 1972
3077 1 1967 1970 1971 1973
3078 3 1967 1970 1971 1974
3079 3 1970 1971 1974 1975
3080 1 1972 1971 1974 1975
3081 1 1973 1971 1974 1975
3082 1 1971 1974 1975 1976
3083 1 1971 1974 1975 1977
3084 3 1971 1974 1975 1978
3085 3 1974 1975 1978 1979
3086 1 1976 1975 1978 1979
3087 1 1977 1975 1978 1979
3088 1 1975 1978 1979 1980
3089 1 1975 1978 1979 1981
3090 3 1975 1978 1979 1982
3091 3 1978 1979 1982 1983
3092 1 1980 1979 1982 1983
3093 1 1981 1979 1982 1983
3094 1 1979 1982 1983 1984
3095 1 1979 1982 1983 1985
3096 3 1979 1982 1983 1986
3097 4 1982 1983 1986 73
3098 5 1984 1983 1986 73
3099 5 1985 1983 1986 73
3100 11 1020 44 1987 1967
3101 6 1966 44 1987 1967
3102 7 44 1987 1967 1968
3103 7 44 1987 1967 1969
3104 8 44 1987 1967 1970
3105 10 1983 1986 73 2616
3106 9 1983 1986 73 2764
3107 9 1983 1986 73 2785
3108 1 1989 1988 1991 1992
3109 1 1990 1988 1991 1992
3110 2 2008 1988 1991 1992
3111 1 1988 1991 1992 1993
3112 1 1988 1991 1992 1994
3113 3 1988 1991 1992 1995
3114 3 1991 1992 1995 1996
3115 1 1993 1992 1995 1996
3116 1 1994 1992 1995 1996
3117 1 1992 1995 1996 1997
3118 1 1992 1995 1996 1998
3119 3 1992 1995 1996 1999
3120 3 1995 1996 1999 2000
3121 1 1997 1996 1999 2000
3122 1 1998 1996 1999 2000
3123 1 1996 1999 2000 2001
3124 1 1996 1999 2000 2002
3125 3 1996 1999 2000 2003
3126 3 1999 2000 2003 2004
3127 1 2001 2000 2003 2004
3128 1 2002 2000 2003 2004
3129 1 2000 2003 2004 2005
3130 1 2000 2003 2004 2006
3131 3 2000 2003 2004 2007
3132 4 2003 2004 2007 53
3133 5 2005 2004 2007 53
3134 5 2006 2004 2007 53
3135 11 1839 45 2008 1988
3136 11 1965 45 2008 1988
3137 7 45 2008 1988 1989
3138 7 45 2008 1988 1990
3139 8 45 2008 1988 1991
3140 10 2004 2007 53 1251
3141 10 2004 2007 53 1503
3142 9 2004 2007 53 2092
3143 1 2010 2009 2012 2013
3144 1 2011 2009 2012 2013
3145 2 2029 2009 2012 2013
3146 1 2009 2012 2013 2014
3147 1 2009 2012 2013 2015
3148 3 2009 2012 2013 2016
3149 3 2012 2013 2016 2017
3150 1 2014 2013 2016 2017
3151 1 2015 2013 2016 2017
3152 1 2013 2016 2017 2018
3153 1 2013 2016 2017 2019
3154 3 2013 2016 2017 2020
3155 3 2016 2017 2020 2021
3156 1 2018 2017 2020 2021
3157 1 2019 2017 2020 2021
3158 1 2017 2020 2021 2022
3159 1 2017 2020 2021 2023
3160 3 2017 2020 2021 2024
3161 3 2020 2021 2024 2025
3162 1 2022 2021 2024 2025
3163 1 2023 2021 2024 2025
3164 1 2021 2024 2025 2026
3165 1 2021 2024 2025 2027
3166 3 2021 2024 2025 2028
3167 4 2024 2025 2028 54
3168 5 2026 2025 2028 54
3169 5 2027 2025 2028 54
3170 11 1881 46 2029 2009
3171 11 1944 46 2029 2009
3172 7 46 2029 2009 2010
3173 7 46 2029 2009 2011
3174 8 46 2029 2009 2012
3175 10 2025 2028 54 2091
3176 9 2025 2028 54 2113
3177 1 2031 2030 2033 2034
3178 1 2032 2030 2033 2034
3179 2 2050 2030 2033 2034
3180 1 2030 2033 2034 2035
3181 1 2030 2033 2034 2036
3182 3 2030 2033 2034 2037
3183 3 2033 2034 2037 2038
3184 1 2035 2034 2037 2038
3185 1 2036 2034 2037 2038
3186 1 2034 2037 2038 2039
3187 1 2034 2037 2038 2040
3188 3 2034 2037 2038 2041
3189 3 2037 2038 2041 2042
3190 1 2039 2038 2041 2042
3191 1 2040 2038 2041 2042
3192 1 2038 2041 2042 2043
3193 1 2038 2041 2042 2044
3194 3 2038 2041 2042 2045
3195 3 2041 2042 2045 2046
3196 1 2043 2042 2045 2046
3197 1 2044 2042 2045 2046
3198 1 2042 2045 2046 2047
3199 1 2042 2045 2046 2048
3200 3 2042 2045 2046 2049
3201 4 2045 2046 2049 76
3202 5 2047 2046 2049 76
3203 5 2048 2046 2049 76
3204 11 1335 47 2050 2030
3205 11 1923 47 2050 2030
3206 7 47 2050 2030 2031
3207 7 47 2050 2030 2032
3208 8 47 2050 2030 2033
3209 9 2046 2049 76 2869
3210 9 2046 2049 76 2890
3211 1 2052 2051 2054 2055
3212 1 2053 2051 2054 2055
3213 2 2071 2051 2054 2055
3214 1 2051 2054 2055 2056
3215 1 2051 2054 2055 2057
3216 3 2051 2054 2055 2058
3217 3 2054 2055 2058 2059
3218 1 2056 2055 2058 2059
3219 1 2057 2055 2058 2059
3220 1 2055 2058 2059 2060
3221 1 2055 2058 2059 2061
3222 3 2055 2058 2059 2062
3223 3 2058 2059 2062 2063
3224 1 2060 2059 2062 2063
3225 1 2061 2059 2062 2063
3226 1 2059 2062 2063 2064
3227 1 2059 2062 2063 2065
3228 3 2059 2062 2063 2066
3229 3 2062 2063 2066 2067
3230 1 2064 2063 2066 2067
3231 1 2065 2063 2066 2067
3232 1 2063 2066 2067 2068
3233 1 2063 2066 2067 2069
3234 3 2063 2066 2067 2070
3235 4 2066 2067 2070 77
3236 5 2068 2067 2070 77
3237 5 2069 2067 2070 77
3238 11 1167 48 2071 2051
3239 11 1398 48 2071 2051
3240 7 48 2071 2051 2052
3241 7 48 2071 2051 2053
3242 8 48 2071 2051 2054
3243 10 2067 2070 77 2721
3244 10 2067 2070 77 2868
3245 9 2067 2070 77 2911
3246 1 2073 2072 2075 2076
3247 1 2074 2072 2075 2076
3248 2 2092 2072 2075 2076
3249 1 2072 2075 2076 2077
3250 1 2072 2075 2076 2078
3251 3 2072 2075 2076 2079
3252 3 2075 2076 2079 2080
3253 1 2077 2076 2079 2080
3254 1 2078 2076 2079 2080
3255 1 2076 2079 2080 2081
3256 1 2076 2079 2080 2082
3257 3 2076 2079 2080 2083
3258 3 2079 2080 2083 2084
3259 1 2081 2080 2083 2084
3260 1 2082 2080 2083 2084
3261 1 2080 2083 2084 2085
3262 1 2080 2083 2084 2086
3263 3 2080 2083 2084 2087
3264 3 2083 2084 2087 2088
3265 1 2085 2084 2087 2088
3266 1 2086 2084 2087 2088
3267 1 2084 2087 2088 2089
3268 1 2084 2087 2088 2090
3269 3 2084 2087 2088 2091
3270 4 2087 2088 2091 54
3271 5 2089 2088 2091 54
3272 5 2090 2088 2091 54
3273 11 1251 53 2092 2072
3274 11 1503 53 2092 2072
3275 11 2007 53 2092 2072
3276 7 53 2092 2072 2073
3277 7 53 2092 2072 2074
3278 8 53 2092 2072 2075
3279 10 2088 2091 54 2028
3280 9 2088 2091 54 2113
3281 1 2094 2093 2096 2097
3282 1 2095 2093 2096 2097
3283 2 2113 2093 2096 2097
3284 1 2093 2096 2097 2098
3285 1 2093 2096 2097 2099
3286 3 2093 2096 2097 2100
3287 3 2096 2097 2100 2101
3288 1 2098 2097 2100 2101
3289 1 2099 2097 2100 2101
3290 1 2097 2100 2101 2102
3291 1 2097 2100 2101 2103
3292 3 2097 2100 2101 2104
3293 3 2100 2101 2104 2105
3294 1 2102 2101 2104 2105
3295 1 2103 2101 2104 2105
3296 1 2101 2104 2105 2106
3297 1 2101 2104 2105 2107
3298 3 2101 2104 2105 2108
3299 3 2104 2105 2108 2109
3300 1 2106 2105 2108 2109
3301 1 2107 2105 2108 2109
3302 1 2105 2108 2109 2110
3303 1 2105 2108 2109 2111
3304 3 2105 2108 2109 2112
3305 4 2108 2109 2112 83
3306 5 2110 2109 2112 83
3307 5 2111 2109 2112 83
3308 11 2028 54 2113 2093
3309 11 2091 54 2113 2093
3310 7 54 2113 2093 2094
3311 7 54 2113 2093 2095
3312 8 54 2113 2093 2096
3313 10 2109 2112 83 2301
3314 10 2109 2112 83 2931
3315 9 2109 2112 83 2974
3316 1 2115 2114 2117 2118
3317 1 2116 2114 2117 2118
3318 2 2134 2114 2117 2118
3319 1 2114 2117 2118 2119
3320 1 2114 2117 2118 2120
3321 3 2114 2117 2118 2121
3322 3 2117 2118 2121 2122
3323 1 2119 2118 2121 2122
3324 1 2120 2118 2121 2122
3325 1 2118 2121 2122 2123
3326 1 2118 2121 2122 2124
3327 3 2118 2121 2122 2125
3328 3 2121 2122 2125 2126
3329 1 2123 2122 2125 2126
3330 1 2124 2122 2125 2126
3331 1 2122 2125 2126 2127
3332 1 2122 2125 2126 2128
3333 3 2122 2125 2126 2129
3334 3 2125 2126 2129 2130
3335 1 2127 2126 2129 2130
3336 1 2128 2126 2129 2130
3337 1 2126 2129 2130 2131
3338 1 2126 2129 2130 2132
3339 3 2126 2129 2130 2133
3340 4 2129 2130 2133 60
3341 5 2131 2130 2133 60
3342 5 2132 2130 2133 60
3343 11 1440 59 2134 2114
3344 6 2155 59 2134 2114
3345 6 2176 59 2134 2114
3346 7 59 2134 2114 2115
3347 7 59 2134 2114 2116
3348 8 59 2134 2114 2117
3349 9 2130 2133 60 2197
3350 9 2130 2133 60 2218
3351 9 2130 2133 60 2239
3352 1 2136 2135 2138 2139
3353 1 2137 2135 2138 2139
3354 2 2155 2135 2138 2139
3355 1 2135 2138 2139 2140
3356 1 2135 2138 2139 2141
3357 3 2135 2138 2139 2142
3358 3 2138 2139 2142 2143
3359 1 2140 2139 2142 2143
3360 1 2141 2139 2142 2143
3361 1 2139 2142 2143 2144
3362 1 2139 2142 2143 2145
3363 3 2139 2142 2143 2146
3364 3 2142 2143 2146 2147
3365 1 2144 2143 2146 2147
3366 1 2145 2143 2146 2147
3367 1 2143 2146 2147 2148
3368 1 2143 2146 2147 2149
3369 3 2143 2146 2147 2150
3370 3 2146 2147 2150 2151
3371 1 2148 2147 2150 2151
3372 1 2149 2147 2150 2151
3373 1 2147 2150 2151 2152
3374 1 2147 2150 2151 2153
3375 3 2147 2150 2151 2154
3376 4 2150 2151 2154 64
3377 5 2152 2151 2154 64
3378 5 2153 2151 2154 64
3379 11 1440 59 2155 2135
3380 6 2134 59 2155 2135
3381 6 2176 59 2155 2135
3382 7 59 2155 2135 2136
3383 7 59 2155 2135 2137
3384 8 59 2155 2135 2138
3385 10 2151 2154 64 1650
3386 9 2151 2154 64 2449
3387 1 2157 2156 2159 2160
3388 1 2158 2156 2159 2160
3389 2 2176 2156 2159 2160
3390 1 2156 2159 2160 2161
3391 1 2156 2159 2160 2162
3392 3 2156 2159 2160 2163
3393 3 2159 2160 2163 2164
3394 1 2161 2160 2163 2164
3395 1 2162 2160 2163 2164
3396 1 2160 2163 2164 2165
3397 1 2160 2163 2164 2166
3398 3 2160 2163 2164 2167
3399 3 2163 2164 2167 2168
3400 1 2165 2164 2167 2168
3401 1 2166 2164 2167 2168
3402 1 2164 2167 2168 2169
3403 1 2164 2167 2168 2170
3404 3 2164 2167 2168 2171
3405 3 2167 2168 2171 2172
3406 1 2169 2168 2171 2172
3407 1 2170 2168 2171 2172
3408 1 2168 2171 2172 2173
3409 1 2168 2171 2172 2174
3410 3 2168 2171 2172 2175
3411 4 2171 2172 2175 89
3412 5 2173 2172 2175 89
3413 5 2174 2172 2175 89
3414 11 1440 59 2176 2156
3415 6 2134 59 2176 2156
3416 6 2155 59 2176 2156
3417 7 59 2176 2156 2157
3418 7 59 2176 2156 2158
3419 8 59 2176 2156 2159
3420 9 2172 2175 89 3058
3421 9 2172 2175 89 3079
3422 9 2172 2175 89 3100
3423 1 2178 2177 2180 2181
3424 1 2179 2177 2180 2181
3425 2 2197 2177 2180 2181
3426 1 2177 2180 2181 2182
3427 1 2177 2180 2181 2183
3428 3 2177 2180 2181 2184
3429 3 2180 2181 2184 2185
3430 1 2182 2181 2184 2185
3431 1 2183 2181 2184 2185
3432 1 2181 2184 2185 2186
3433 1 2181 2184 2185 2187
3434 3 2181 2184 2185 2188
3435 3 2184 2185 2188 2189
3436 1 2186 2185 2188 2189
3437 1 2187 2185 2188 2189
3438 1 2185 2188 2189 2190
3439 1 2185 2188 2189 2191
3440 3 2185 2188 2189 2192
3441 3 2188 2189 2192 2193
3442 1 2190 2189 2192 2193
3443 1 2191 2189 2192 2193
3444 1 2189 2192 2193 2194
3445 1 2189 2192 2193 2195
3446 3 2189 2192 2193 2196
3447 4 2192 2193 2196 65
3448 5 2194 2193 2196 65
3449 5 2195 2193 2196 65
3450 11 2133 60 2197 2177
3451 6 2218 60 2197 2177
3452 6 2239 60 2197 2177
3453 7 60 2197 2177 2178
3454 7 60 2197 2177 2179
3455 8 60 2197 2177 2180
3456 10 2193 2196 65 1692
3457 10 2193 2196 65 2448
3458 1 2199 2198 2201 2202
3459 1 2200 2198 2201 2202
3460 2 2218 2198 2201 2202
3461 1 2198 2201 2202 2203
3462 1 2198 2201 2202 2204
3463 3 2198 2201 2202 2205
3464 3 2201 2202 2205 2206
3465 1 2203 2202 2205 2206
3466 1 2204 2202 2205 2206
3467 1 2202 2205 2206 2207
3468 1 2202 2205 2206 2208
3469 3 2202 2205 2206 2209
3470 3 2205 2206 2209 2210
3471 1 2207 2206 2209 2210
3472 1 2208 2206 2209 2210
3473 1 2206 2209 2210 2211
3474 1 2206 2209 2210 2212
3475 3 2206 2209 2210 2213
3476 3 2209 2210 2213 2214
3477 1 2211 2210 2213 2214
3478 1 2212 2210 2213 2214
3479 1 2210 2213 2214 2215
3480 1 2210 2213 2214 2216
3481 3 2210 2213 2214 2217
3482 4 2213 2214 2217 90
3483 5 2215 2214 2217 90
3484 5 2216 2214 2217 90
3485 11 2133 60 2218 2198
3486 6 2197 60 2218 2198
3487 6 2239 60 2218 2198
3488 7 60 2218 2198 2199
3489 7 60 2218 2198 2200
3490 8 60 2218 2198 2201
3491 10 2214 2217 90 3057
3492 9 2214 2217 90 3121
3493 9 2214 2217 90 3142
3494 1 2220 2219 2222 2223
3495 1 2221 2219 2222 2223
3496 2 2239 2219 2222 2223
3497 1 2219 2222 2223 2224
3498 1 2219 2222 2223 2225
3499 3 2219 2222 2223 2226
3500 3 2222 2223 2226 2227
3501 1 2224 2223 2226 2227
3502 1 2225 2223 2226 2227
3503 1 2223 2226 2227 2228
3504 1 2223 2226 2227 2229
3505 3 2223 2226 2227 2230
3506 3 2226 2227 2230 2231
3507 1 2228 2227 2230 2231
3508 1 2229 2227 2230 2231
3509 1 2227 2230 2231 2232
3510 1 2227 2230 2231 2233
3511 3 2227 2230 2231 2234
3512 3 2230 2231 2234 2235
3513 1 2232 2231 2234 2235
3514 1 2233 2231 2234 2235
3515 1 2231 2234 2235 2236
3516 1 2231 2234 2235 2237
3517 3 2231 2234 2235 2238
3518 4 2234 2235 2238 82
3519 5 2236 2235 2238 82
3520 5 2237 2235 2238 82
3521 11 2133 60 2239 2219
3522 6 2197 60 2239 2219
3523 6 2218 60 2239 2219
3524 7 60 2239 2219 2220
3525 7 60 2239 2219 2221
3526 8 60 2239 2219 2222
3527 10 2235 2238 82 2826
3528 9 2235 2238 82 2932
3529 9 2235 2238 82 2953
3530 1 2241 2240 2243 2244
3531 1 2242 2240 2243 2244
3532 2 2260 2240 2243 2244
3533 1 2240 2243 2244 2245
3534 1 2240 2243 2244 2246
3535 3 2240 2243 2244 2247
3536 3 2243 2244 2247 2248
3537 1 2245 2244 2247 2248
3538 1 2246 2244 2247 2248
3539 1 2244 2247 2248 2249
3540 1 2244 2247 2248 2250
3541 3 2244 2247 2248 2251
3542 3 2247 2248 2251 2252
3543 1 2249 2248 2251 2252
3544 1 2250 2248 2251 2252
3545 1 2248 2251 2252 2253
3546 1 2248 2251 2252 2254
3547 3 2248 2251 2252 2255
3548 3 2251 2252 2255 2256
3549 1 2253 2252 2255 2256
3550 1 2254 2252 2255 2256
3551 1 2252 2255 2256 2257
3552 1 2252 2255 2256 2258
3553 3 2252 2255 2256 2259
3554 4 2255 2256 2259 66
3555 5 2257 2256 2259 66
3556 5 2258 2256 2259 66
3557 11 1524 61 2260 2240
3558 6 2281 61 2260 2240
3559 6 2302 61 2260 2240
3560 7 61 2260 2240 2241
3561 7 61 2260 2240 2242
3562 8 61 2260 2240 2243
3563 10 2256 2259 66 2385
3564 9 2256 2259 66 2470
3565 9 2256 2259 66 2491
3566 1 2262 2261 2264 2265
3567 1 2263 2261 2264 2265
3568 2 2281 2261 2264 2265
3569 1 2261 2264 2265 2266
3570 1 2261 2264 2265 2267
3571 3 2261 2264 2265 2268
3572 3 2264 2265 2268 2269
3573 1 2266 2265 2268 2269
3574 1 2267 2265 2268 2269
3575 1 2265 2268 2269 2270
3576 1 2265 2268 2269 2271
3577 3 2265 2268 2269 2272
3578 3 2268 2269 2272 2273
3579 1 2270 2269 2272 2273
3580 1 2271 2269 2272 2273
3581 1 2269 2272 2273 2274
3582 1 2269 2272 2273 2275
3583 3 2269 2272 2273 2276
3584 3 2272 2273 2276 2277
3585 1 2274 2273 2276 2277
3586 1 2275 2273 2276 2277
3587 1 2273 2276 2277 2278
3588 1 2273 2276 2277 2279
3589 3 2273 2276 2277 2280
3590 4 2276 2277 2280 91
3591 5 2278 2277 2280 91
3592 5 2279 2277 2280 91
3593 11 1524 61 2281 2261
3594 6 2260 61 2281 2261
3595 6 2302 61 2281 2261
3596 7 61 2281 2261 2262
3597 7 61 2281 2261 2263
3598 8 61 2281 2261 2264
3599 9 2277 2280 91 3163
3600 9 2277 2280 91 3184
3601 1 2283 2282 2285 2286
3602 1 2284 2282 2285 2286
3603 2 2302 2282 2285 2286
3604 1 2282 2285 2286 2287
3605 1 2282 2285 2286 2288
3606 3 2282 2285 2286 2289
3607 3 2285 2286 2289 2290
3608 1 2287 2286 2289 2290
3609 1 2288 2286 2289 2290
3610 1 2286 2289 2290 2291
3611 1 2286 2289 2290 2292
3612 3 2286 2289 2290 2293
3613 3 2289 2290 2293 2294
3614 1 2291 2290 2293 2294
3615 1 2292 2290 2293 2294
3616 1 2290 2293 2294 2295
3617 1 2290 2293 2294 2296
3618 3 2290 2293 2294 2297
3619 3 2293 2294 2297 2298
3620 1 2295 2294 2297 2298
3621 1 2296 2294 2297 2298
3622 1 2294 2297 2298 2299
3623 1 2294 2297 2298 2300
3624 3 2294 2297 2298 2301
3625 4 2297 2298 2301 83
3626 5 2299 2298 2301 83
3627 5 2300 2298 2301 83
3628 11 1524 61 2302 2282
3629 6 2260 61 2302 2282
3630 6 2281 61 2302 2282
3631 7 61 2302 2282 2283
3632 7 61 2302 2282 2284
3633 8 61 2302 2282 2285
3634 10 2298 2301 83 2112
3635 10 2298 2301 83 2931
3636 9 2298 2301 83 2974
3637 1 2304 2303 2306 2307
3638 1 2305 2303 2306 2307
3639 2 2323 2303 2306 2307
3640 1 2303 2306 2307 2308
3641 1 2303 2306 2307 2309
3642 3 2303 2306 2307 2310
3643 3 2306 2307 2310 2311
3644 1 2308 2307 2310 2311
3645 1 2309 2307 2310 2311
3646 1 2307 2310 2311 2312
3647 1 2307 2310 2311 2313
3648 3 2307 2310 2311 2314
3649 3 2310 2311 2314 2315
3650 1 2312 2311 2314 2315
3651 1 2313 2311 2314 2315
3652 1 2311 2314 2315 2316
3653 1 2311 2314 2315 2317
3654 3 2311 2314 2315 2318
3655 3 2314 2315 2318 2319
3656 1 2316 2315 2318 2319
3657 1 2317 2315 2318 2319
3658 1 2315 2318 2319 2320
3659 1 2315 2318 2319 2321
3660 3 2315 2318 2319 2322
3661 4 2318 2319 2322 63
3662 5 2320 2319 2322 63
3663 5 2321 2319 2322 63
3664 6 2344 62 2323 2303
3665 6 2365 62 2323 2303
3666 6 2386 62 2323 2303
3667 7 62 2323 2303 2304
3668 7 62 2323 2303 2305
3669 8 62 2323 2303 2306
3670 10 2319 2322 63 1608
3671 9 2319 2322 63 2407
3672 9 2319 2322 63 2428
3673 1 2325 2324 2327 2328
3674 1 2326 2324 2327 2328
3675 2 2344 2324 2327 2328
3676 1 2324 2327 2328 2329
3677 1 2324 2327 2328 2330
3678 3 2324 2327 2328 2331
3679 3 2327 2328 2331 2332
3680 1 2329 2328 2331 2332
3681 1 2330 2328 2331 2332
3682 1 2328 2331 2332 2333
3683 1 2328 2331 2332 2334
3684 3 2328 2331 2332 2335
3685 3 2331 2332 2335 2336
3686 1 2333 2332 2335 2336
3687 1 2334 2332 2335 2336
3688 1 2332 2335 2336 2337
3689 1 2332 2335 2336 2338
3690 3 2332 2335 2336 2339
3691 3 2335 2336 2339 2340
3692 1 2337 2336 2339 2340
3693 1 2338 2336 2339 2340
3694 1 2336 2339 2340 2341
3695 1 2336 2339 2340 2342
3696 3 2336 2339 2340 2343
3697 4 2339 2340 2343 67
3698 5 2341 2340 2343 67
3699 5 2342 2340 2343 67
3700 6 2323 62 2344 2324
3701 6 2365 62 2344 2324
3702 6 2386 62 2344 2324
3703 7 62 2344 2324 2325
3704 7 62 2344 2324 2326
3705 8 62 2344 2324 2327
3706 9 2340 2343 67 2512
3707 9 2340 2343 67 2533
3708 1 2346 2345 2348 2349
3709 1 2347 2345 2348 2349
3710 2 2365 2345 2348 2349
3711 1 2345 2348 2349 2350
3712 1 2345 2348 2349 2351
3713 3 2345 2348 2349 2352
3714 3 2348 2349 2352 2353
3715 1 2350 2349 2352 2353
3716 1 2351 2349 2352 2353
3717 1 2349 2352 2353 2354
3718 1 2349 2352 2353 2355
3719 3 2349 2352 2353 2356
3720 3 2352 2353 2356 2357
3721 1 2354 2353 2356 2357
3722 1 2355 2353 2356 2357
3723 1 2353 2356 2357 2358
3724 1 2353 2356 2357 2359
3725 3 2353 2356 2357 2360
3726 3 2356 2357 2360 2361
3727 1 2358 2357 2360 2361
3728 1 2359 2357 2360 2361
3729 1 2357 2360 2361 2362
3730 1 2357 2360 2361 2363
3731 3 2357 2360 2361 2364
3732 4 2360 2361 2364 92
3733 5 2362 2361 2364 92
3734 5 2363 2361 2364 92
3735 6 2323 62 2365 2345
3736 6 2344 62 2365 2345
3737 6 2386 62 2365 2345
3738 7 62 2365 2345 2346
3739 7 62 2365 2345 2347
3740 8 62 2365 2345 2348
3741 9 2361 2364 92 3205
3742 9 2361 2364 92 3226
3743 1 2367 2366 2369 2370
3744 1 2368 2366 2369 2370
3745 2 2386 2366 2369 2370
3746 1 2366 2369 2370 2371
3747 1 2366 2369 2370 2372
3748 3 2366 2369 2370 2373
3749 3 2369 2370 2373 2374
3750 1 2371 2370 2373 2374
3751 1 2372 2370 2373 2374
3752 1 2370 2373 2374 2375
3753 1 2370 2373 2374 2376
3754 3 2370 2373 2374 2377
3755 3 2373 2374 2377 2378
3756 1 2375 2374 2377 2378
3757 1 2376 2374 2377 2378
3758 1 2374 2377 2378 2379
3759 1 2374 2377 2378 2380
3760 3 2374 2377 2378 2381
3761 3 2377 2378 2381 2382
3762 1 2379 2378 2381 2382
3763 1 2380 2378 2381 2382
3764 1 2378 2381 2382 2383
3765 1 2378 2381 2382 2384
3766 3 2378 2381 2382 2385
3767 4 2381 2382 2385 66
3768 5 2383 2382 2385 66
3769 5 2384 2382 2385 66
3770 6 2323 62 2386 2366
3771 6 2344 62 2386 2366
3772 6 2365 62 2386 2366
3773 7 62 2386 2366 2367
3774 7 62 2386 2366 2368
3775 8 62 2386 2366 2369
3776 10 2382 2385 66 2259
3777 9 2382 2385 66 2470
3778 9 2382 2385 66 2491
3779 1 2388 2387 2390 2391
3780 1 2389 2387 2390 2391
3781 2 2407 2387 2390 2391
3782 1 2387 2390 2391 2392
3783 1 2387 2390 2391 2393
3784 3 2387 2390 2391 2394
3785 3 2390 2391 2394 2395
3786 1 2392 2391 2394 2395
3787 1 2393 2391 2394 2395
3788 1 2391 2394 2395 2396
3789 1 2391 2394 2395 2397
3790 3 2391 2394 2395 2398
3791 3 2394 2395 2398 2399
3792 1 2396 2395 2398 2399
3793 1 2397 2395 2398 2399
3794 1 2395 2398 2399 2400
3795 1 2395 2398 2399 2401
3796 3 2395 2398 2399 2402
3797 3 2398 2399 2402 2403
3798 1 2400 2399 2402 2403
3799 1 2401 2399 2402 2403
3800 1 2399 2402 2403 2404
3801 1 2399 2402 2403 2405
3802 3 2399 2402 2403 2406
3803 4 2402 2403 2406 68
3804 5 2404 2403 2406 68
3805 5 2405 2403 2406 68
3806 11 1608 63 2407 2387
3807 11 2322 63 2407 2387
3808 6 2428 63 2407 2387
3809 7 63 2407 2387 2388
3810 7 63 2407 2387 2389
3811 8 63 2407 2387 2390
3812 10 2403 2406 68 1755
3813 9 2403 2406 68 2554
3814 9 2403 2406 68 2575
3815 1 2409 2408 2411 2412
3816 1 2410 2408 2411 2412
3817 2 2428 2408 2411 2412
3818 1 2408 2411 2412 2413
3819 1 2408 2411 2412 2414
3820 3 2408 2411 2412 2415
3821 3 2411 2412 2415 2416
3822 1 2413 2412 2415 2416
3823 1 2414 2412 2415 2416
3824 1 2412 2415 2416 2417
3825 1 2412 2415 2416 2418
3826 3 2412 2415 2416 2419
3827 3 2415 2416 2419 2420
3828 1 2417 2416 2419 2420
3829 1 2418 2416 2419 2420
3830 1 2416 2419 2420 2421
3831 1 2416 2419 2420 2422
3832 3 2416 2419 2420 2423
3833 3 2419 2420 2423 2424
3834 1 2421 2420 2423 2424
3835 1 2422 2420 2423 2424
3836 1 2420 2423 2424 2425
3837 1 2420 2423 2424 2426
3838 3 2420 2423 2424 2427
3839 4 2423 2424 2427 93
3840 5 2425 2424 2427 93
3841 5 2426 2424 2427 93
3842 11 1608 63 2428 2408
3843 11 2322 63 2428 2408
3844 6 2407 63 2428 2408
3845 7 63 2428 2408 2409
3846 7 63 2428 2408 2410
3847 8 63 2428 2408 2411
3848 10 2424 2427 93 3204
3849 9 2424 2427 93 3247
3850 9 2424 2427 93 3268
3851 1 2430 2429 2432 2433
3852 1 2431 2429 2432 2433
3853 2 2449 2429 2432 2433
3854 1 2429 2432 2433 2434
3855 1 2429 2432 2433 2435
3856 3 2429 2432 2433 2436
3857 3 2432 2433 2436 2437
3858 1 2434 2433 2436 2437
3859 1 2435 2433 2436 2437
3860 1 2433 2436 2437 2438
3861 1 2433 2436 2437 2439
3862 3 2433 2436 2437 2440
3863 3 2436 2437 2440 2441
3864 1 2438 2437 2440 2441
3865 1 2439 2437 2440 2441
3866 1 2437 2440 2441 2442
3867 1 2437 2440 2441 2443
3868 3 2437 2440 2441 2444
3869 3 2440 2441 2444 2445
3870 1 2442 2441 2444 2445
3871 1 2443 2441 2444 2445
3872 1 2441 2444 2445 2446
3873 1 2441 2444 2445 2447
3874 3 2441 2444 2445 2448
3875 4 2444 2445 2448 65
3876 5 2446 2445 2448 65
3877 5 2447 2445 2448 65
3878 11 1650 64 2449 2429
3879 11 2154 64 2449 2429
3880 7 64 2449 2429 2430
3881 7 64 2449 2429 2431
3882 8 64 2449 2429 2432
3883 10 2445 2448 65 1692
3884 10 2445 2448 65 2196
3885 1 2451 2450 2453 2454
3886 1 2452 2450 2453 2454
3887 2 2470 2450 2453 2454
3888 1 2450 2453 2454 2455
3889 1 2450 2453 2454 2456
3890 3 2450 2453 2454 2457
3891 3 2453 2454 2457 2458
3892 1 2455 2454 2457 2458
3893 1 2456 2454 2457 2458
3894 1 2454 2457 2458 2459
3895 1 2454 2457 2458 2460
3896 3 2454 2457 2458 2461
3897 3 2457 2458 2461 2462
3898 1 2459 2458 2461 2462
3899 1 2460 2458 2461 2462
3900 1 2458 2461 2462 2463
3901 1 2458 2461 2462 2464
3902 3 2458 2461 2462 2465
3903 3 2461 2462 2465 2466
3904 1 2463 2462 2465 2466
3905 1 2464 2462 2465 2466
3906 1 2462 2465 2466 2467
3907 1 2462 2465 2466 2468
3908 3 2462 2465 2466 2469
3909 4 2465 2466 2469 71
3910 5 2467 2466 2469 71
3911 5 2468 2466 2469 71
3912 11 2259 66 2470 2450
3913 11 2385 66 2470 2450
3914 6 2491 66 2470 2450
3915 7 66 2470 2450 2451
3916 7 66 2470 2450 2452
3917 8 66 2470 2450 2453
3918 10 2466 2469 71 1902
3919 10 2466 2469 71 2532
3920 9 2466 2469 71 2701
3921 1 2472 2471 2474 2475
3922 1 2473 2471 2474 2475
3923 2 2491 2471 2474 2475
3924 1 2471 2474 2475 2476
3925 1 2471 2474 2475 2477
3926 3 2471 2474 2475 2478
3927 3 2474 2475 2478 2479
3928 1 2476 2475 2478 2479
3929 1 2477 2475 2478 2479
3930 1 2475 2478 2479 2480
3931 1 2475 2478 2479 2481
3932 3 2475 2478 2479 2482
3933 3 2478 2479 2482 2483
3934 1 2480 2479 2482 2483
3935 1 2481 2479 2482 2483
3936 1 2479 2482 2483 2484
3937 1 2479 2482 2483 2485
3938 3 2479 2482 2483 2486
3939 3 2482 2483 2486 2487
3940 1 2484 2483 2486 2487
3941 1 2485 2483 2486 2487
3942 1 2483 2486 2487 2488
3943 1 2483 2486 2487 2489
3944 3 2483 2486 2487 2490
3945 4 2486 2487 2490 96
3946 5 2488 2487 2490 96
3947 5 2489 2487 2490 96
3948 11 2259 66 2491 2471
3949 11 2385 66 2491 2471
3950 6 2470 66 2491 2471
3951 7 66 2491 2471 2472
3952 7 66 2491 2471 2473
3953 8 66 2491 2471 2474
3954 9 2487 2490 96 3373
3955 9 2487 2490 96 3394
3956 1 2493 2492 2495 2496
3957 1 2494 2492 2495 2496
3958 2 2512 2492 2495 2496
3959 1 2492 2495 2496 2497
3960 1 2492 2495 2496 2498
3961 3 2492 2495 2496 2499
3962 3 2495 2496 2499 2500
3963 1 2497 2496 2499 2500
3964 1 2498 2496 2499 2500
3965 1 2496 2499 2500 2501
3966 1 2496 2499 2500 2502
3967 3 2496 2499 2500 2503
3968 3 2499 2500 2503 2504
3969 1 2501 2500 2503 2504
3970 1 2502 2500 2503 2504
3971 1 2500 2503 2504 2505
3972 1 2500 2503 2504 2506
3973 3 2500 2503 2504 2507
3974 3 2503 2504 2507 2508
3975 1 2505 2504 2507 2508
3976 1 2506 2504 2507 2508
3977 1 2504 2507 2508 2509
3978 1 2504 2507 2508 2510
3979 3 2504 2507 2508 2511
3980 4 2507 2508 2511 97
3981 5 2509 2508 2511 97
3982 5 2510 2508 2511 97
3983 11 2343 67 2512 2492
3984 6 2533 67 2512 2492
3985 7 67 2512 2492 2493
3986 7 67 2512 2492 2494
3987 8 67 2512 2492 2495
3988 9 2508 2511 97 3415
3989 9 2508 2511 97 3436
3990 9 2508 2511 97 3457
3991 1 2514 2513 2516 2517
3992 1 2515 2513 2516 2517
3993 2 2533 2513 2516 2517
3994 1 2513 2516 2517 2518
3995 1 2513 2516 2517 2519
3996 3 2513 2516 2517 2520
3997 3 2516 2517 2520 2521
3998 1 2518 2517 2520 2521
3999 1 2519 2517 2520 2521
4000 1 2517 2520 2521 2522
4001 1 2517 2520 2521 2523
4002 3 2517 2520 2521 2524
4003 3 2520 2521 2524 2525
4004 1 2522 2521 2524 2525
4005 1 2523 2521 2524 2525
4006 1 2521 2524 2525 2526
4007 1 2521 2524 2525 2527
4008 3 2521 2524 2525 2528
4009 3 2524 2525 2528 2529
4010 1 2526 2525 2528 2529
4011 1 2527 2525 2528 2529
4012 1 2525 2528 2529 2530
4013 1 2525 2528 2529 2531
4014 3 2525 2528 2529 2532
4015 4 2528 2529 2532 71
4016 5 2530 2529 2532 71
4017 5 2531 2529 2532 71
4018 11 2343 67 2533 2513
4019 6 2512 67 2533 2513
4020 7 67 2533 2513 2514
4021 7 67 2533 2513 2515
4022 8 67 2533 2513 2516
4023 10 2529 2532 71 1902
4024 10 2529 2532 71 2469
4025 9 2529 2532 71 2701
4026 1 2535 2534 2537 2538
4027 1 2536 2534 2537 2538
4028 2 2554 2534 2537 2538
4029 1 2534 2537 2538 2539
4030 1 2534 2537 2538 2540
4031 3 2534 2537 2538 2541
4032 3 2537 2538 2541 2542
4033 1 2539 2538 2541 2542
4034 1 2540 2538 2541 2542
4035 1 2538 2541 2542 2543
4036 1 2538 2541 2542 2544
4037 3 2538 2541 2542 2545
4038 3 2541 2542 2545 2546
4039 1 2543 2542 2545 2546
4040 1 2544 2542 2545 2546
4041 1 2542 2545 2546 2547
4042 1 2542 2545 2546 2548
4043 3 2542 2545 2546 2549
4044 3 2545 2546 2549 2550
4045 1 2547 2546 2549 2550
4046 1 2548 2546 2549 2550
4047 1 2546 2549 2550 2551
4048 1 2546 2549 2550 2552
4049 3 2546 2549 2550 2553
4050 4 2549 2550 2553 72
4051 5 2551 2550 2553 72
4052 5 2552 2550 2553 72
4053 11 1755 68 2554 2534
4054 11 2406 68 2554 2534
4055 6 2575 68 2554 2534
4056 7 68 2554 2534 2535
4057 7 68 2554 2534 2536
4058 8 68 2554 2534 2537
4059 9 2550 2553 72 2722
4060 9 2550 2553 72 2743
4061 1 2556 2555 2558 2559
4062 1 2557 2555 2558 2559
4063 2 2575 2555 2558 2559
4064 1 2555 2558 2559 2560
4065 1 2555 2558 2559 2561
4066 3 2555 2558 2559 2562
4067 3 2558 2559 2562 2563
4068 1 2560 2559 2562 2563
4069 1 2561 2559 2562 2563
4070 1 2559 2562 2563 2564
4071 1 2559 2562 2563 2565
4072 3 2559 2562 2563 2566
4073 3 2562 2563 2566 2567
4074 1 2564 2563 2566 2567
4075 1 2565 2563 2566 2567
4076 1 2563 2566 2567 2568
4077 1 2563 2566 2567 2569
4078 3 2563 2566 2567 2570
4079 3 2566 2567 2570 2571
4080 1 2568 2567 2570 2571
4081 1 2569 2567 2570 2571
4082 1 2567 2570 2571 2572
4083 1 2567 2570 2571 2573
4084 3 2567 2570 2571 2574
4085 4 2570 2571 2574 98
4086 5 2572 2571 2574 98
4087 5 2573 2571 2574 98
4088 11 1755 68 2575 2555
4089 11 2406 68 2575 2555
4090 6 2554 68 2575 2555
4091 7 68 2575 2555 2556
4092 7 68 2575 2555 2557
4093 8 68 2575 2555 2558
4094 9 2571 2574 98 3478
4095 9 2571 2574 98 3499
4096 1 2577 2576 2579 2580
4097 1 2578 2576 2579 2580
4098 2 2596 2576 2579 2580
4099 1 2576 2579 2580 2581
4100 1 2576 2579 2580 2582
4101 3 2576 2579 2580 2583
4102 3 2579 2580 2583 2584
4103 1 2581 2580 2583 2584
4104 1 2582 2580 2583 2584
4105 1 2580 2583 2584 2585
4106 1 2580 2583 2584 2586
4107 3 2580 2583 2584 2587
4108 3 2583 2584 2587 2588
4109 1 2585 2584 2587 2588
4110 1 2586 2584 2587 2588
4111 1 2584 2587 2588 2589
4112 1 2584 2587 2588 2590
4113 3 2584 2587 2588 2591
4114 3 2587 2588 2591 2592
4115 1 2589 2588 2591 2592
4116 1 2590 2588 2591 2592
4117 1 2588 2591 2592 2593
4118 1 2588 2591 2592 2594
4119 3 2588 2591 2592 2595
4120 4 2591 2592 2595 70
4121 5 2593 2592 2595 70
4122 5 2594 2592 2595 70
4123 11 1797 69 2596 2576
4124 6 2617 69 2596 2576
4125 6 2638 69 2596 2576
4126 7 69 2596 2576 2577
4127 7 69 2596 2576 2578
4128 8 69 2596 2576 2579
4129 10 2592 2595 70 1860
4130 9 2592 2595 70 2659
4131 9 2592 2595 70 2680
4132 1 2598 2597 2600 2601
4133 1 2599 2597 2600 2601
4134 2 2617 2597 2600 2601
4135 1 2597 2600 2601 2602
4136 1 2597 2600 2601 2603
4137 3 2597 2600 2601 2604
4138 3 2600 2601 2604 2605
4139 1 2602 2601 2604 2605
4140 1 2603 2601 2604 2605
4141 1 2601 2604 2605 2606
4142 1 2601 2604 2605 2607
4143 3 2601 2604 2605 2608
4144 3 2604 2605 2608 2609
4145 1 2606 2605 2608 2609
4146 1 2607 2605 2608 2609
4147 1 2605 2608 2609 2610
4148 1 2605 2608 2609 2611
4149 3 2605 2608 2609 2612
4150 3 2608 2609 2612 2613
4151 1 2610 2609 2612 2613
4152 1 2611 2609 2612 2613
4153 1 2609 2612 2613 2614
4154 1 2609 2612 2613 2615
4155 3 2609 2612 2613 2616
4156 4 2612 2613 2616 73
4157 5 2614 2613 2616 73
4158 5 2615 2613 2616 73
4159 11 1797 69 2617 2597
4160 6 2596 69 2617 2597
4161 6 2638 69 2617 2597
4162 7 69 2617 2597 2598
4163 7 69 2617 2597 2599
4164 8 69 2617 2597 2600
4165 10 2613 2616 73 1986
4166 9 2613 2616 73 2764
4167 9 2613 2616 73 2785
4168 1 2619 2618 2621 2622
4169 1 2620 2618 2621 2622
4170 2 2638 2618 2621 2622
4171 1 2618 2621 2622 2623
4172 1 2618 2621 2622 2624
4173 3 2618 2621 2622 2625
4174 3 2621 2622 2625 2626
4175 1 2623 2622 2625 2626
4176 1 2624 2622 2625 2626
4177 1 2622 2625 2626 2627
4178 1 2622 2625 2626 2628
4179 3 2622 2625 2626 2629
4180 3 2625 2626 2629 2630
4181 1 2627 2626 2629 2630
4182 1 2628 2626 2629 2630
4183 1 2626 2629 2630 2631
4184 1 2626 2629 2630 2632
4185 3 2626 2629 2630 2633
4186 3 2629 2630 2633 2634
4187 1 2631 2630 2633 2634
4188 1 2632 2630 2633 2634
4189 1 2630 2633 2634 2635
4190 1 2630 2633 2634 2636
4191 3 2630 2633 2634 2637
4192 4 2633 2634 2637 99
4193 5 2635 2634 2637 99
4194 5 2636 2634 2637 99
4195 11 1797 69 2638 2618
4196 6 2596 69 2638 2618
4197 6 2617 69 2638 2618
4198 7 69 2638 2618 2619
4199 7 69 2638 2618 2620
4200 8 69 2638 2618 2621
4201 10 2634 2637 99 3309
4202 10 2634 2637 99 3477
4203 9 2634 2637 99 3520
4204 1 2640 2639 2642 2643
4205 1 2641 2639 2642 2643
4206 2 2659 2639 2642 2643
4207 1 2639 2642 2643 2644
4208 1 2639 2642 2643 2645
4209 3 2639 2642 2643 2646
4210 3 2642 2643 2646 2647
4211 1 2644 2643 2646 2647
4212 1 2645 2643 2646 2647
4213 1 2643 2646 2647 2648
4214 1 2643 2646 2647 2649
4215 3 2643 2646 2647 2650
4216 3 2646 2647 2650 2651
4217 1 2648 2647 2650 2651
4218 1 2649 2647 2650 2651
4219 1 2647 2650 2651 2652
4220 1 2647 2650 2651 2653
4221 3 2647 2650 2651 2654
4222 3 2650 2651 2654 2655
4223 1 2652 2651 2654 2655
4224 1 2653 2651 2654 2655
4225 1 2651 2654 2655 2656
4226 1 2651 2654 2655 2657
4227 3 2651 2654 2655 2658
4228 4 2654 2655 2658 74
4229 5 2656 2655 2658 74
4230 5 2657 2655 2658 74
4231 11 1860 70 2659 2639
4232 11 2595 70 2659 2639
4233 6 2680 70 2659 2639
4234 7 70 2659 2639 2640
4235 7 70 2659 2639 2641
4236 8 70 2659 2639 2642
4237 10 2655 2658 74 2763
4238 9 2655 2658 74 2806
4239 9 2655 2658 74 2827
4240 1 2661 2660 2663 2664
4241 1 2662 2660 2663 2664
4242 2 2680 2660 2663 2664
4243 1 2660 2663 2664 2665
4244 1 2660 2663 2664 2666
4245 3 2660 2663 2664 2667
4246 3 2663 2664 2667 2668
4247 1 2665 2664 2667 2668
4248 1 2666 2664 2667 2668
4249 1 2664 2667 2668 2669
4250 1 2664 2667 2668 2670
4251 3 2664 2667 2668 2671
4252 3 2667 2668 2671 2672
4253 1 2669 2668 2671 2672
4254 1 2670 2668 2671 2672
4255 1 2668 2671 2672 2673
4256 1 2668 2671 2672 2674
4257 3 2668 2671 2672 2675
4258 3 2671 2672 2675 2676
4259 1 2673 2672 2675 2676
4260 1 2674 2672 2675 2676
4261 1 2672 2675 2676 2677
4262 1 2672 2675 2676 2678
4263 3 2672 2675 2676 2679
4264 4 2675 2676 2679 100
4265 5 2677 2676 2679 100
4266 5 2678 2676 2679 100
4267 11 1860 70 2680 2660
4268 11 2595 70 2680 2660
4269 6 2659 70 2680 2660
4270 7 70 2680 2660 2661
4271 7 70 2680 2660 2662
4272 8 70 2680 2660 2663
4273 10 2676 2679 100 3351
4274 9 2676 2679 100 3541
4275 9 2676 2679 100 3562
4276 1 2682 2681 2684 2685
4277 1 2683 2681 2684 2685
4278 2 2701 2681 2684 2685
4279 1 2681 2684 2685 2686
4280 1 2681 2684 2685 2687
4281 3 2681 2684 2685 2688
4282 3 2684 2685 2688 2689
4283 1 2686 2685 2688 2689
4284 1 2687 2685 2688 2689
4285 1 2685 2688 2689 2690
4286 1 2685 2688 2689 2691
4287 3 2685 2688 2689 2692
4288 3 2688 2689 2692 2693
4289 1 2690 2689 2692 2693
4290 1 2691 2689 2692 2693
4291 1 2689 2692 2693 2694
4292 1 2689 2692 2693 2695
4293 3 2689 2692 2693 2696
4294 3 2692 2693 2696 2697
4295 1 2694 2693 2696 2697
4296 1 2695 2693 2696 2697
4297 1 2693 2696 2697 2698
4298 1 2693 2696 2697 2699
4299 3 2693 2696 2697 2700
4300 4 2696 2697 2700 75
4301 5 2698 2697 2700 75
4302 5 2699 2697 2700 75
4303 11 1902 71 2701 2681
4304 11 2469 71 2701 2681
4305 11 2532 71 2701 2681
4306 7 71 2701 2681 2682
4307 7 71 2701 2681 2683
4308 8 71 2701 2681 2684
4309 10 2697 2700 75 2805
4310 9 2697 2700 75 2848
4311 1 2703 2702 2705 2706
4312 1 2704 2702 2705 2706
4313 2 2722 2702 2705 2706
4314 1 2702 2705 2706 2707
4315 1 2702 2705 2706 2708
4316 3 2702 2705 2706 2709
4317 3 2705 2706 2709 2710
4318 1 2707 2706 2709 2710
4319 1 2708 2706 2709 2710
4320 1 2706 2709 2710 2711
4321 1 2706 2709 2710 2712
4322 3 2706 2709 2710 2713
4323 3 2709 2710 2713 2714
4324 1 2711 2710 2713 2714
4325 1 2712 2710 2713 2714
4326 1 2710 2713 2714 2715
4327 1 2710 2713 2714 2716
4328 3 2710 2713 2714 2717
4329 3 2713 2714 2717 2718
4330 1 2715 2714 2717 2718
4331 1 2716 2714 2717 2718
4332 1 2714 2717 2718 2719
4333 1 2714 2717 2718 2720
4334 3 2714 2717 2718 2721
4335 4 2717 2718 2721 77
4336 5 2719 2718 2721 77
4337 5 2720 2718 2721 77
4338 11 2553 72 2722 2702
4339 6 2743 72 2722 2702
4340 7 72 2722 2702 2703
4341 7 72 2722 2702 2704
4342 8 72 2722 2702 2705
4343 10 2718 2721 77 2070
4344 10 2718 2721 77 2868
4345 9 2718 2721 77 2911
4346 1 2724 2723 2726 2727
4347 1 2725 2723 2726 2727
4348 2 2743 2723 2726 2727
4349 1 2723 2726 2727 2728
4350 1 2723 2726 2727 2729
4351 3 2723 2726 2727 2730
4352 3 2726 2727 2730 2731
4353 1 2728 2727 2730 2731
4354 1 2729 2727 2730 2731
4355 1 2727 2730 2731 2732
4356 1 2727 2730 2731 2733
4357 3 2727 2730 2731 2734
4358 3 2730 2731 2734 2735
4359 1 2732 2731 2734 2735
4360 1 2733 2731 2734 2735
4361 1 2731 2734 2735 2736
4362 1 2731 2734 2735 2737
4363 3 2731 2734 2735 2738
4364 3 2734 2735 2738 2739
4365 1 2736 2735 2738 2739
4366 1 2737 2735 2738 2739
4367 1 2735 2738 2739 2740
4368 1 2735 2738 2739 2741
4369 3 2735 2738 2739 2742
4370 4 2738 2739 2742 103
4371 5 2740 2739 2742 103
4372 5 2741 2739 2742 103
4373 11 2553 72 2743 2723
4374 6 2722 72 2743 2723
4375 7 72 2743 2723 2724
4376 7 72 2743 2723 2725
4377 8 72 2743 2723 2726
4378 10 2739 2742 103 3603
4379 9 2739 2742 103 3646
4380 9 2739 2742 103 3667
4381 1 2745 2744 2747 2748
4382 1 2746 2744 2747 2748
4383 2 2764 2744 2747 2748
4384 1 2744 2747 2748 2749
4385 1 2744 2747 2748 2750
4386 3 2744 2747 2748 2751
4387 3 2747 2748 2751 2752
4388 1 2749 2748 2751 2752
4389 1 2750 2748 2751 2752
4390 1 2748 2751 2752 2753
4391 1 2748 2751 2752 2754
4392 3 2748 2751 2752 2755
4393 3 2751 2752 2755 2756
4394 1 2753 2752 2755 2756
4395 1 2754 2752 2755 2756
4396 1 2752 2755 2756 2757
4397 1 2752 2755 2756 2758
4398 3 2752 2755 2756 2759
4399 3 2755 2756 2759 2760
4400 1 2757 2756 2759 2760
4401 1 2758 2756 2759 2760
4402 1 2756 2759 2760 2761
4403 1 2756 2759 2760 2762
4404 3 2756 2759 2760 2763
4405 4 2759 2760 2763 74
4406 5 2761 2760 2763 74
4407 5 2762 2760 2763 74
4408 11 1986 73 2764 2744
4409 11 2616 73 2764 2744
4410 6 2785 73 2764 2744
4411 7 73 2764 2744 2745
4412 7 73 2764 2744 2746
4413 8 73 2764 2744 2747
4414 10 2760 2763 74 2658
4415 9 2760 2763 74 2806
4416 9 2760 2763 74 2827
4417 1 2766 2765 2768 2769
4418 1 2767 2765 2768 2769
4419 2 2785 2765 2768 2769
4420 1 2765 2768 2769 2770
4421 1 2765 2768 2769 2771
4422 3 2765 2768 2769 2772
4423 3 2768 2769 2772 2773
4424 1 2770 2769 2772 2773
4425 1 2771 2769 2772 2773
4426 1 2769 2772 2773 2774
4427 1 2769 2772 2773 2775
4428 3 2769 2772 2773 2776
4429 3 2772 2773 2776 2777
4430 1 2774 2773 2776 2777
4431 1 2775 2773 2776 2777
4432 1 2773 2776 2777 2778
4433 1 2773 2776 2777 2779
4434 3 2773 2776 2777 2780
4435 3 2776 2777 2780 2781
4436 1 2778 2777 2780 2781
4437 1 2779 2777 2780 2781
4438 1 2777 2780 2781 2782
4439 1 2777 2780 2781 2783
4440 3 2777 2780 2781 2784
4441 4 2780 2781 2784 104
4442 5 2782 2781 2784 104
4443 5 2783 2781 2784 104
4444 11 1986 73 2785 2765
4445 11 2616 73 2785 2765
4446 6 2764 73 2785 2765
4447 7 73 2785 2765 2766
4448 7 73 2785 2765 2767
4449 8 73 2785 2765 2768
4450 10 2781 2784 104 3519
4451 9 2781 2784 104 3688
4452 1 2787 2786 2789 2790
4453 1 2788 2786 2789 2790
4454 2 2806 2786 2789 2790
4455 1 2786 2789 2790 2791
4456 1 2786 2789 2790 2792
4457 3 2786 2789 2790 2793
4458 3 2789 2790 2793 2794
4459 1 2791 2790 2793 2794
4460 1 2792 2790 2793 2794
4461 1 2790 2793 2794 2795
4462 1 2790 2793 2794 2796
4463 3 2790 2793 2794 2797
4464 3 2793 2794 2797 2798
4465 1 2795 2794 2797 2798
4466 1 2796 2794 2797 2798
4467 1 2794 2797 2798 2799
4468 1 2794 2797 2798 2800
4469 3 2794 2797 2798 2801
4470 3 2797 2798 2801 2802
4471 1 2799 2798 2801 2802
4472 1 2800 2798 2801 2802
4473 1 2798 2801 2802 2803
4474 1 2798 2801 2802 2804
4475 3 2798 2801 2802 2805
4476 4 2801 2802 2805 75
4477 5 2803 2802 2805 75
4478 5 2804 2802 2805 75
4479 11 2658 74 2806 2786
4480 11 2763 74 2806 2786
4481 6 2827 74 2806 2786
4482 7 74 2806 2786 2787
4483 7 74 2806 2786 2788
4484 8 74 2806 2786 2789
4485 10 2802 2805 75 2700
4486 9 2802 2805 75 2848
4487 1 2808 2807 2810 2811
4488 1 2809 2807 2810 2811
4489 2 2827 2807 2810 2811
4490 1 2807 2810 2811 2812
4491 1 2807 2810 2811 2813
4492 3 2807 2810 2811 2814
4493 3 2810 2811 2814 2815
4494 1 2812 2811 2814 2815
4495 1 2813 2811 2814 2815
4496 1 2811 2814 2815 2816
4497 1 2811 2814 2815 2817
4498 3 2811 2814 2815 2818
4499 3 2814 2815 2818 2819
4500 1 2816 2815 2818 2819
4501 1 2817 2815 2818 2819
4502 1 2815 2818 2819 2820
4503 1 2815 2818 2819 2821
4504 3 2815 2818 2819 2822
4505 3 2818 2819 2822 2823
4506 1 2820 2819 2822 2823
4507 1 2821 2819 2822 2823
4508 1 2819 2822 2823 2824
4509 1 2819 2822 2823 2825
4510 3 2819 2822 2823 2826
4511 4 2822 2823 2826 82
4512 5 2824 2823 2826 82
4513 5 2825 2823 2826 82
4514 11 2658 74 2827 2807
4515 11 2763 74 2827 2807
4516 6 2806 74 2827 2807
4517 7 74 2827 2807 2808
4518 7 74 2827 2807 2809
4519 8 74 2827 2807 2810
4520 10 2823 2826 82 2238
4521 9 2823 2826 82 2932
4522 9 2823 2826 82 2953
4523 1 2829 2828 2831 2832
4524 1 2830 2828 2831 2832
4525 2 2848 2828 2831 2832
4526 1 2828 2831 2832 2833
4527 1 2828 2831 2832 2834
4528 3 2828 2831 2832 2835
4529 3 2831 2832 2835 2836
4530 1 2833 2832 2835 2836
4531 1 2834 2832 2835 2836
4532 1 2832 2835 2836 2837
4533 1 2832 2835 2836 2838
4534 3 2832 2835 2836 2839
4535 3 2835 2836 2839 2840
4536 1 2837 2836 2839 2840
4537 1 2838 2836 2839 2840
4538 1 2836 2839 2840 2841
4539 1 2836 2839 2840 2842
4540 3 2836 2839 2840 2843
4541 3 2839 2840 2843 2844
4542 1 2841 2840 2843 2844
4543 1 2842 2840 2843 2844
4544 1 2840 2843 2844 2845
4545 1 2840 2843 2844 2846
4546 3 2840 2843 2844 2847
4547 4 2843 2844 2847 106
4548 5 2845 2844 2847 106
4549 5 2846 2844 2847 106
4550 11 2700 75 2848 2828
4551 11 2805 75 2848 2828
4552 7 75 2848 2828 2829
4553 7 75 2848 2828 2830
4554 8 75 2848 2828 2831
4555 10 2844 2847 106 3624
4556 10 2844 2847 106 3708
4557 9 2844 2847 106 3772
4558 1 2850 2849 2852 2853
4559 1 2851 2849 2852 2853
4560 2 2869 2849 2852 2853
4561 1 2849 2852 2853 2854
4562 1 2849 2852 2853 2855
4563 3 2849 2852 2853 2856
4564 3 2852 2853 2856 2857
4565 1 2854 2853 2856 2857
4566 1 2855 2853 2856 2857
4567 1 2853 2856 2857 2858
4568 1 2853 2856 2857 2859
4569 3 2853 2856 2857 2860
4570 3 2856 2857 2860 2861
4571 1 2858 2857 2860 2861
4572 1 2859 2857 2860 2861
4573 1 2857 2860 2861 2862
4574 1 2857 2860 2861 2863
4575 3 2857 2860 2861 2864
4576 3 2860 2861 2864 2865
4577 1 2862 2861 2864 2865
4578 1 2863 2861 2864 2865
4579 1 2861 2864 2865 2866
4580 1 2861 2864 2865 2867
4581 3 2861 2864 2865 2868
4582 4 2864 2865 2868 77
4583 5 2866 2865 2868 77
4584 5 2867 2865 2868 77
4585 11 2049 76 2869 2849
4586 6 2890 76 2869 2849
4587 7 76 2869 2849 2850
4588 7 76 2869 2849 2851
4589 8 76 2869 2849 2852
4590 10 2865 2868 77 2070
4591 10 2865 2868 77 2721
4592 9 2865 2868 77 2911
4593 1 2871 2870 2873 2874
4594 1 2872 2870 2873 2874
4595 2 2890 2870 2873 2874
4596 1 2870 2873 2874 2875
4597 1 2870 2873 2874 2876
4598 3 2870 2873 2874 2877
4599 3 2873 2874 2877 2878
4600 1 2875 2874 2877 2878
4601 1 2876 2874 2877 2878
4602 1 2874 2877 2878 2879
4603 1 2874 2877 2878 2880
4604 3 2874 2877 2878 2881
4605 3 2877 2878 2881 2882
4606 1 2879 2878 2881 2882
4607 1 2880 2878 2881 2882
4608 1 2878 2881 2882 2883
4609 1 2878 2881 2882 2884
4610 3 2878 2881 2882 2885
4611 3 2881 2882 2885 2886
4612 1 2883 2882 2885 2886
4613 1 2884 2882 2885 2886
4614 1 2882 2885 2886 2887
4615 1 2882 2885 2886 2888
4616 3 2882 2885 2886 2889
4617 4 2885 2886 2889 107
4618 5 2887 2886 2889 107
4619 5 2888 2886 2889 107
4620 11 2049 76 2890 2870
4621 6 2869 76 2890 2870
4622 7 76 2890 2870 2871
4623 7 76 2890 2870 2872
4624 8 76 2890 2870 2873
4625 9 2886 2889 107 3793
4626 9 2886 2889 107 3814
4627 9 2886 2889 107 3835
4628 1 2892 2891 2894 2895
4629 1 2893 2891 2894 2895
4630 2 2911 2891 2894 2895
4631 1 2891 2894 2895 2896
4632 1 2891 2894 2895 2897
4633 3 2891 2894 2895 2898
4634 3 2894 2895 2898 2899
4635 1 2896 2895 2898 2899
4636 1 2897 2895 2898 2899
4637 1 2895 2898 2899 2900
4638 1 2895 2898 2899 2901
4639 3 2895 2898 2899 2902
4640 3 2898 2899 2902 2903
4641 1 2900 2899 2902 2903
4642 1 2901 2899 2902 2903
4643 1 2899 2902 2903 2904
4644 1 2899 2902 2903 2905
4645 3 2899 2902 2903 2906
4646 3 2902 2903 2906 2907
4647 1 2904 2903 2906 2907
4648 1 2905 2903 2906 2907
4649 1 2903 2906 2907 2908
4650 1 2903 2906 2907 2909
4651 3 2903 2906 2907 2910
4652 3 2906 2907 2910 78
4653 1 2908 2907 2910 78
4654 1 2909 2907 2910 78
4655 11 2070 77 2911 2891
4656 11 2721 77 2911 2891
4657 11 2868 77 2911 2891
4658 7 77 2911 2891 2892
4659 7 77 2911 2891 2893
4660 8 77 2911 2891 2894
4661 1 2907 2910 78 79
4662 1 2907 2910 78 80
4663 1 2907 2910 78 81
4664 1 2913 2912 2915 2916
4665 1 2914 2912 2915 2916
4666 2 2932 2912 2915 2916
4667 1 2912 2915 2916 2917
4668 1 2912 2915 2916 2918
4669 3 2912 2915 2916 2919
4670 3 2915 2916 2919 2920
4671 1 2917 2916 2919 2920
4672 1 2918 2916 2919 2920
4673 1 2916 2919 2920 2921
4674 1 2916 2919 2920 2922
4675 3 2916 2919 2920 2923
4676 3 2919 2920 2923 2924
4677 1 2921 2920 2923 2924
4678 1 2922 2920 2923 2924
4679 1 2920 2923 2924 2925
4680 1 2920 2923 2924 2926
4681 3 2920 2923 2924 2927
4682 3 2923 2924 2927 2928
4683 1 2925 2924 2927 2928
4684 1 2926 2924 2927 2928
4685 1 2924 2927 2928 2929
4686 1 2924 2927 2928 2930
4687 3 2924 2927 2928 2931
4688 4 2927 2928 2931 83
4689 5 2929 2928 2931 83
4690 5 2930 2928 2931 83
4691 11 2238 82 2932 2912
4692 11 2826 82 2932 2912
4693 6 2953 82 2932 2912
4694 7 82 2932 2912 2913
4695 7 82 2932 2912 2914
4696 8 82 2932 2912 2915
4697 10 2928 2931 83 2112
4698 10 2928 2931 83 2301
4699 9 2928 2931 83 2974
4700 1 2934 2933 2936 2937
4701 1 2935 2933 2936 2937
4702 2 2953 2933 2936 2937
4703 1 2933 2936 2937 2938
4704 1 2933 2936 2937 2939
4705 3 2933 2936 2937 2940
4706 3 2936 2937 2940 2941
4707 1 2938 2937 2940 2941
4708 1 2939 2937 2940 2941
4709 1 2937 2940 2941 2942
4710 1 2937 2940 2941 2943
4711 3 2937 2940 2941 2944
4712 3 2940 2941 2944 2945
4713 1 2942 2941 2944 2945
4714 1 2943 2941 2944 2945
4715 1 2941 2944 2945 2946
4716 1 2941 2944 2945 2947
4717 3 2941 2944 2945 2948
4718 3 2944 2945 2948 2949
4719 1 2946 2945 2948 2949
4720 1 2947 2945 2948 2949
4721 1 2945 2948 2949 2950
4722 1 2945 2948 2949 2951
4723 3 2945 2948 2949 2952
4724 4 2948 2949 2952 110
4725 5 2950 2949 2952 110
4726 5 2951 2949 2952 110
4727 11 2238 82 2953 2933
4728 11 2826 82 2953 2933
4729 6 2932 82 2953 2933
4730 7 82 2953 2933 2934
4731 7 82 2953 2933 2935
4732 8 82 2953 2933 2936
4733 10 2949 2952 110 3729
4734 10 2949 2952 110 3876
4735 9 2949 2952 110 3919
4736 1 2955 2954 2957 2958
4737 1 2956 2954 2957 2958
4738 2 2974 2954 2957 2958
4739 1 2954 2957 2958 2959
4740 1 2954 2957 2958 2960
4741 3 2954 2957 2958 2961
4742 3 2957 2958 2961 2962
4743 1 2959 2958 2961 2962
4744 1 2960 2958 2961 2962
4745 1 2958 2961 2962 2963
4746 1 2958 2961 2962 2964
4747 3 2958 2961 2962 2965
4748 3 2961 2962 2965 2966
4749 1 2963 2962 2965 2966
4750 1 2964 2962 2965 2966
4751 1 2962 2965 2966 2967
4752 1 2962 2965 2966 2968
4753 3 2962 2965 2966 2969
4754 3 2965 2966 2969 2970
4755 1 2967 2966 2969 2970
4756 1 2968 2966 2969 2970
4757 1 2966 2969 2970 2971
4758 1 2966 2969 2970 2972
4759 3 2966 2969 2970 2973
4760 4 2969 2970 2973 111
4761 5 2971 2970 2973 111
4762 5 2972 2970 2973 111
4763 11 2112 83 2974 2954
4764 11 2301 83 2974 2954
4765 11 2931 83 2974 2954
4766 7 83 2974 2954 2955
4767 7 83 2974 2954 2956
4768 8 83 2974 2954 2957
4769 10 2970 2973 111 3183
4770 10 2970 2973 111 3834
4771 1 2976 2975 2978 2979
4772 1 2977 2975 2978 2979
4773 2 2995 2975 2978 2979
4774 1 2975 2978 2979 2980
4775 1 2975 2978 2979 2981
4776 3 2975 2978 2979 2982
4777 3 2978 2979 2982 2983
4778 1 2980 2979 2982 2983
4779 1 2981 2979 2982 2983
4780 1 2979 2982 2983 2984
4781 1 2979 2982 2983 2985
4782 3 2979 2982 2983 2986
4783 3 2982 2983 2986 2987
4784 1 2984 2983 2986 2987
4785 1 2985 2983 2986 2987
4786 1 2983 2986 2987 2988
4787 1 2983 2986 2987 2989
4788 3 2983 2986 2987 2990
4789 3 2986 2987 2990 2991
4790 1 2988 2987 2990 2991
4791 1 2989 2987 2990 2991
4792 1 2987 2990 2991 2992
4793 1 2987 2990 2991 2993
4794 3 2987 2990 2991 2994
4795 4 2990 2991 2994 88
4796 5 2992 2991 2994 88
4797 5 2993 2991 2994 88
4798 12 85 84 2995 2975
4799 12 86 84 2995 2975
4800 12 87 84 2995 2975
4801 12 84 2995 2975 2976
4802 12 84 2995 2975 2977
4803 13 84 2995 2975 2978
4804 9 2991 2994 88 3016
4805 9 2991 2994 88 3037
4806 1 2997 2996 2999 3000
4807 1 2998 2996 2999 3000
4808 2 3016 2996 2999 3000
4809 1 2996 2999 3000 3001
4810 1 2996 2999 3000 3002
4811 3 2996 2999 3000 3003
4812 3 2999 3000 3003 3004
4813 1 3001 3000 3003 3004
4814 1 3002 3000 3003 3004
4815 1 3000 3003 3004 3005
4816 1 3000 3003 3004 3006
4817 3 3000 3003 3004 3007
4818 3 3003 3004 3007 3008
4819 1 3005 3004 3007 3008
4820 1 3006 3004 3007 3008
4821 1 3004 3007 3008 3009
4822 1 3004 3007 3008 3010
4823 3 3004 3007 3008 3011
4824 3 3007 3008 3011 3012
4825 1 3009 3008 3011 3012
4826 1 3010 3008 3011 3012
4827 1 3008 3011 3012 3013
4828 1 3008 3011 3012 3014
4829 3 3008 3011 3012 3015
4830 4 3011 3012 3015 113
4831 5 3013 3012 3015 113
4832 5 3014 3012 3015 113
4833 11 2994 88 3016 2996
4834 6 3037 88 3016 2996
4835 7 88 3016 2996 2997
4836 7 88 3016 2996 2998
4837 8 88 3016 2996 2999
4838 10 3012 3015 113 3939
4839 9 3012 3015 113 4003
4840 9 3012 3015 113 4024
4841 1 3018 3017 3020 3021
4842 1 3019 3017 3020 3021
4843 2 3037 3017 3020 3021
4844 1 3017 3020 3021 3022
4845 1 3017 3020 3021 3023
4846 3 3017 3020 3021 3024
4847 3 3020 3021 3024 3025
4848 1 3022 3021 3024 3025
4849 1 3023 3021 3024 3025
4850 1 3021 3024 3025 3026
4851 1 3021 3024 3025 3027
4852 3 3021 3024 3025 3028
4853 3 3024 3025 3028 3029
4854 1 3026 3025 3028 3029
4855 1 3027 3025 3028 3029
4856 1 3025 3028 3029 3030
4857 1 3025 3028 3029 3031
4858 3 3025 3028 3029 3032
4859 3 3028 3029 3032 3033
4860 1 3030 3029 3032 3033
4861 1 3031 3029 3032 3033
4862 1 3029 3032 3033 3034
4863 1 3029 3032 3033 3035
4864 3 3029 3032 3033 3036
4865 4 3032 3033 3036 108
4866 5 3034 3033 3036 108
4867 5 3035 3033 3036 108
4868 11 2994 88 3037 3017
4869 6 3016 88 3037 3017
4870 7 88 3037 3017 3018
4871 7 88 3037 3017 3019
4872 8 88 3037 3017 3020
4873 10 3033 3036 108 3645
4874 10 3033 3036 108 3792
4875 9 3033 3036 108 3856
4876 1 3039 3038 3041 3042
4877 1 3040 3038 3041 3042
4878 2 3058 3038 3041 3042
4879 1 3038 3041 3042 3043
4880 1 3038 3041 3042 3044
4881 3 3038 3041 3042 3045
4882 3 3041 3042 3045 3046
4883 1 3043 3042 3045 3046
4884 1 3044 3042 3045 3046
4885 1 3042 3045 3046 3047
4886 1 3042 3045 3046 3048
4887 3 3042 3045 3046 3049
4888 3 3045 3046 3049 3050
4889 1 3047 3046 3049 3050
4890 1 3048 3046 3049 3050
4891 1 3046 3049 3050 3051
4892 1 3046 3049 3050 3052
4893 3 3046 3049 3050 3053
4894 3 3049 3050 3053 3054
4895 1 3051 3050 3053 3054
4896 1 3052 3050 3053 3054
4897 1 3050 3053 3054 3055
4898 1 3050 3053 3054 3056
4899 3 3050 3053 3054 3057
4900 4 3053 3054 3057 90
4901 5 3055 3054 3057 90
4902 5 3056 3054 3057 90
4903 11 2175 89 3058 3038
4904 6 3079 89 3058 3038
4905 6 3100 89 3058 3038
4906 7 89 3058 3038 3039
4907 7 89 3058 3038 3040
4908 8 89 3058 3038 3041
4909 10 3054 3057 90 2217
4910 9 3054 3057 90 3121
4911 9 3054 3057 90 3142
4912 1 3060 3059 3062 3063
4913 1 3061 3059 3062 3063
4914 2 3079 3059 3062 3063
4915 1 3059 3062 3063 3064
4916 1 3059 3062 3063 3065
4917 3 3059 3062 3063 3066
4918 3 3062 3063 3066 3067
4919 1 3064 3063 3066 3067
4920 1 3065 3063 3066 3067
4921 1 3063 3066 3067 3068
4922 1 3063 3066 3067 3069
4923 3 3063 3066 3067 3070
4924 3 3066 3067 3070 3071
4925 1 3068 3067 3070 3071
4926 1 3069 3067 3070 3071
4927 1 3067 3070 3071 3072
4928 1 3067 3070 3071 3073
4929 3 3067 3070 3071 3074
4930 3 3070 3071 3074 3075
4931 1 3072 3071 3074 3075
4932 1 3073 3071 3074 3075
4933 1 3071 3074 3075 3076
4934 1 3071 3074 3075 3077
4935 3 3071 3074 3075 3078
4936 4 3074 3075 3078 114
4937 5 3076 3075 3078 114
4938 5 3077 3075 3078 114
4939 11 2175 89 3079 3059
4940 6 3058 89 3079 3059
4941 6 3100 89 3079 3059
4942 7 89 3079 3059 3060
4943 7 89 3079 3059 3061
4944 8 89 3079 3059 3062
4945 9 3075 3078 114 4045
4946 9 3075 3078 114 4066
4947 1 3081 3080 3083 3084
4948 1 3082 3080 3083 3084
4949 2 3100 3080 3083 3084
4950 1 3080 3083 3084 3085
4951 1 3080 3083 3084 3086
4952 3 3080 3083 3084 3087
4953 3 3083 3084 3087 3088
4954 1 3085 3084 3087 3088
4955 1 3086 3084 3087 3088
4956 1 3084 3087 3088 3089
4957 1 3084 3087 3088 3090
4958 3 3084 3087 3088 3091
4959 3 3087 3088 3091 3092
4960 1 3089 3088 3091 3092
4961 1 3090 3088 3091 3092
4962 1 3088 3091 3092 3093
4963 1 3088 3091 3092 3094
4964 3 3088 3091 3092 3095
4965 3 3091 3092 3095 3096
4966 1 3093 3092 3095 3096
4967 1 3094 3092 3095 3096
4968 1 3092 3095 3096 3097
4969 1 3092 3095 3096 3098
4970 3 3092 3095 3096 3099
4971 4 3095 3096 3099 109
4972 5 3097 3096 3099 109
4973 5 3098 3096 3099 109
4974 11 2175 89 3100 3080
4975 6 3058 89 3100 3080
4976 6 3079 89 3100 3080
4977 7 89 3100 3080 3081
4978 7 89 3100 3080 3082
4979 8 89 3100 3080 3083
4980 9 3096 3099 109 3877
4981 9 3096 3099 109 3898
4982 1 3102 3101 3104 3105
4983 1 3103 3101 3104 3105
4984 2 3121 3101 3104 3105
4985 1 3101 3104 3105 3106
4986 1 3101 3104 3105 3107
4987 3 3101 3104 3105 3108
4988 3 3104 3105 3108 3109
4989 1 3106 3105 3108 3109
4990 1 3107 3105 3108 3109
4991 1 3105 3108 3109 3110
4992 1 3105 3108 3109 3111
4993 3 3105 3108 3109 3112
4994 3 3108 3109 3112 3113
4995 1 3110 3109 3112 3113
4996 1 3111 3109 3112 3113
4997 1 3109 3112 3113 3114
4998 1 3109 3112 3113 3115
4999 3 3109 3112 3113 3116
5000 3 3112 3113 3116 3117
5001 1 3114 3113 3116 3117
5002 1 3115 3113 3116 3117
5003 1 3113 3116 3117 3118
5004 1 3113 3116 3117 3119
5005 3 3113 3116 3117 3120
5006 4 3116 3117 3120 95
5007 5 3118 3117 3120 95
5008 5 3119 3117 3120 95
5009 11 2217 90 3121 3101
5010 11 3057 90 3121 3101
5011 6 3142 90 3121 3101
5012 7 90 3121 3101 3102
5013 7 90 3121 3101 3103
5014 8 90 3121 3101 3104
5015 10 3117 3120 95 3288
5016 9 3117 3120 95 3352
5017 1 3123 3122 3125 3126
5018 1 3124 3122 3125 3126
5019 2 3142 3122 3125 3126
5020 1 3122 3125 3126 3127
5021 1 3122 3125 3126 3128
5022 3 3122 3125 3126 3129
5023 3 3125 3126 3129 3130
5024 1 3127 3126 3129 3130
5025 1 3128 3126 3129 3130
5026 1 3126 3129 3130 3131
5027 1 3126 3129 3130 3132
5028 3 3126 3129 3130 3133
5029 3 3129 3130 3133 3134
5030 1 3131 3130 3133 3134
5031 1 3132 3130 3133 3134
5032 1 3130 3133 3134 3135
5033 1 3130 3133 3134 3136
5034 3 3130 3133 3134 3137
5035 3 3133 3134 3137 3138
5036 1 3135 3134 3137 3138
5037 1 3136 3134 3137 3138
5038 1 3134 3137 3138 3139
5039 1 3134 3137 3138 3140
5040 3 3134 3137 3138 3141
5041 4 3137 3138 3141 115
5042 5 3139 3138 3141 115
5043 5 3140 3138 3141 115
5044 11 2217 90 3142 3122
5045 11 3057 90 3142 3122
5046 6 3121 90 3142 3122
5047 7 90 3142 3122 3123
5048 7 90 3142 3122 3124
5049 8 90 3142 3122 3125
5050 10 3138 3141 115 4044
5051 9 3138 3141 115 4087
5052 9 3138 3141 115 4108
5053 1 3144 3143 3146 3147
5054 1 3145 3143 3146 3147
5055 2 3163 3143 3146 3147
5056 1 3143 3146 3147 3148
5057 1 3143 3146 3147 3149
5058 3 3143 3146 3147 3150
5059 3 3146 3147 3150 3151
5060 1 3148 3147 3150 3151
5061 1 3149 3147 3150 3151
5062 1 3147 3150 3151 3152
5063 1 3147 3150 3151 3153
5064 3 3147 3150 3151 3154
5065 3 3150 3151 3154 3155
5066 1 3152 3151 3154 3155
5067 1 3153 3151 3154 3155
5068 1 3151 3154 3155 3156
5069 1 3151 3154 3155 3157
5070 3 3151 3154 3155 3158
5071 3 3154 3155 3158 3159
5072 1 3156 3155 3158 3159
5073 1 3157 3155 3158 3159
5074 1 3155 3158 3159 3160
5075 1 3155 3158 3159 3161
5076 3 3155 3158 3159 3162
5077 4 3158 3159 3162 116
5078 5 3160 3159 3162 116
5079 5 3161 3159 3162 116
5080 11 2280 91 3163 3143
5081 6 3184 91 3163 3143
5082 7 91 3163 3143 3144
5083 7 91 3163 3143 3145
5084 8 91 3163 3143 3146
5085 10 3159 3162 116 3960
5086 10 3159 3162 116 4086
5087 9 3159 3162 116 4129
5088 1 3165 3164 3167 3168
5089 1 3166 3164 3167 3168
5090 2 3184 3164 3167 3168
5091 1 3164 3167 3168 3169
5092 1 3164 3167 3168 3170
5093 3 3164 3167 3168 3171
5094 3 3167 3168 3171 3172
5095 1 3169 3168 3171 3172
5096 1 3170 3168 3171 3172
5097 1 3168 3171 3172 3173
5098 1 3168 3171 3172 3174
5099 3 3168 3171 3172 3175
5100 3 3171 3172 3175 3176
5101 1 3173 3172 3175 3176
5102 1 3174 3172 3175 3176
5103 1 3172 3175 3176 3177
5104 1 3172 3175 3176 3178
5105 3 3172 3175 3176 3179
5106 3 3175 3176 3179 3180
5107 1 3177 3176 3179 3180
5108 1 3178 3176 3179 3180
5109 1 3176 3179 3180 3181
5110 1 3176 3179 3180 3182
5111 3 3176 3179 3180 3183
5112 4 3179 3180 3183 111
5113 5 3181 3180 3183 111
5114 5 3182 3180 3183 111
5115 11 2280 91 3184 3164
5116 6 3163 91 3184 3164
5117 7 91 3184 3164 3165
5118 7 91 3184 3164 3166
5119 8 91 3184 3164 3167
5120 10 3180 3183 111 2973
5121 10 3180 3183 111 3834
5122 1 3186 3185 3188 3189
5123 1 3187 3185 3188 3189
5124 2 3205 3185 3188 3189
5125 1 3185 3188 3189 3190
5126 1 3185 3188 3189 3191
5127 3 3185 3188 3189 3192
5128 3 3188 3189 3192 3193
5129 1 3190 3189 3192 3193
5130 1 3191 3189 3192 3193
5131 1 3189 3192 3193 3194
5132 1 3189 3192 3193 3195
5133 3 3189 3192 3193 3196
5134 3 3192 3193 3196 3197
5135 1 3194 3193 3196 3197
5136 1 3195 3193 3196 3197
5137 1 3193 3196 3197 3198
5138 1 3193 3196 3197 3199
5139 3 3193 3196 3197 3200
5140 3 3196 3197 3200 3201
5141 1 3198 3197 3200 3201
5142 1 3199 3197 3200 3201
5143 1 3197 3200 3201 3202
5144 1 3197 3200 3201 3203
5145 3 3197 3200 3201 3204
5146 4 3200 3201 3204 93
5147 5 3202 3201 3204 93
5148 5 3203 3201 3204 93
5149 11 2364 92 3205 3185
5150 6 3226 92 3205 3185
5151 7 92 3205 3185 3186
5152 7 92 3205 3185 3187
5153 8 92 3205 3185 3188
5154 10 3201 3204 93 2427
5155 9 3201 3204 93 3247
5156 9 3201 3204 93 3268
5157 1 3207 3206 3209 3210
5158 1 3208 3206 3209 3210
5159 2 3226 3206 3209 3210
5160 1 3206 3209 3210 3211
5161 1 3206 3209 3210 3212
5162 3 3206 3209 3210 3213
5163 3 3209 3210 3213 3214
5164 1 3211 3210 3213 3214
5165 1 3212 3210 3213 3214
5166 1 3210 3213 3214 3215
5167 1 3210 3213 3214 3216
5168 3 3210 3213 3214 3217
5169 3 3213 3214 3217 3218
5170 1 3215 3214 3217 3218
5171 1 3216 3214 3217 3218
5172 1 3214 3217 3218 3219
5173 1 3214 3217 3218 3220
5174 3 3214 3217 3218 3221
5175 3 3217 3218 3221 3222
5176 1 3219 3218 3221 3222
5177 1 3220 3218 3221 3222
5178 1 3218 3221 3222 3223
5179 1 3218 3221 3222 3224
5180 3 3218 3221 3222 3225
5181 4 3221 3222 3225 117
5182 5 3223 3222 3225 117
5183 5 3224 3222 3225 117
5184 11 2364 92 3226 3206
5185 6 3205 92 3226 3206
5186 7 92 3226 3206 3207
5187 7 92 3226 3206 3208
5188 8 92 3226 3206 3209
5189 10 3222 3225 117 495
5190 9 3222 3225 117 4150
5191 9 3222 3225 117 4171
5192 1 3228 3227 3230 3231
5193 1 3229 3227 3230 3231
5194 2 3247 3227 3230 3231
5195 1 3227 3230 3231 3232
5196 1 3227 3230 3231 3233
5197 3 3227 3230 3231 3234
5198 3 3230 3231 3234 3235
5199 1 3232 3231 3234 3235
5200 1 3233 3231 3234 3235
5201 1 3231 3234 3235 3236
5202 1 3231 3234 3235 3237
5203 3 3231 3234 3235 3238
5204 3 3234 3235 3238 3239
5205 1 3236 3235 3238 3239
5206 1 3237 3235 3238 3239
5207 1 3235 3238 3239 3240
5208 1 3235 3238 3239 3241
5209 3 3235 3238 3239 3242
5210 3 3238 3239 3242 3243
5211 1 3240 3239 3242 3243
5212 1 3241 3239 3242 3243
5213 1 3239 3242 3243 3244
5214 1 3239 3242 3243 3245
5215 3 3239 3242 3243 3246
5216 4 3242 3243 3246 94
5217 5 3244 3243 3246 94
5218 5 3245 3243 3246 94
5219 11 2427 93 3247 3227
5220 11 3204 93 3247 3227
5221 6 3268 93 3247 3227
5222 7 93 3247 3227 3228
5223 7 93 3247 3227 3229
5224 8 93 3247 3227 3230
5225 9 3243 3246 94 3289
5226 9 3243 3246 94 3310
5227 9 3243 3246 94 3331
5228 1 3249 3248 3251 3252
5229 1 3250 3248 3251 3252
5230 2 3268 3248 3251 3252
5231 1 3248 3251 3252 3253
5232 1 3248 3251 3252 3254
5233 3 3248 3251 3252 3255
5234 3 3251 3252 3255 3256
5235 1 3253 3252 3255 3256
5236 1 3254 3252 3255 3256
5237 1 3252 3255 3256 3257
5238 1 3252 3255 3256 3258
5239 3 3252 3255 3256 3259
5240 3 3255 3256 3259 3260
5241 1 3257 3256 3259 3260
5242 1 3258 3256 3259 3260
5243 1 3256 3259 3260 3261
5244 1 3256 3259 3260 3262
5245 3 3256 3259 3260 3263
5246 3 3259 3260 3263 3264
5247 1 3261 3260 3263 3264
5248 1 3262 3260 3263 3264
5249 1 3260 3263 3264 3265
5250 1 3260 3263 3264 3266
5251 3 3260 3263 3264 3267
5252 4 3263 3264 3267 118
5253 5 3265 3264 3267 118
5254 5 3266 3264 3267 118
5255 11 2427 93 3268 3248
5256 11 3204 93 3268 3248
5257 6 3247 93 3268 3248
5258 7 93 3268 3248 3249
5259 7 93 3268 3248 3250
5260 8 93 3268 3248 3251
5261 10 3264 3267 118 4002
5262 9 3264 3267 118 4192
5263 1 3270 3269 3272 3273
5264 1 3271 3269 3272 3273
5265 2 3289 3269 3272 3273
5266 1 3269 3272 3273 3274
5267 1 3269 3272 3273 3275
5268 3 3269 3272 3273 3276
5269 3 3272 3273 3276 3277
5270 1 3274 3273 3276 3277
5271 1 3275 3273 3276 3277
5272 1 3273 3276 3277 3278
5273 1 3273 3276 3277 3279
5274 3 3273 3276 3277 3280
5275 3 3276 3277 3280 3281
5276 1 3278 3277 3280 3281
5277 1 3279 3277 3280 3281
5278 1 3277 3280 3281 3282
5279 1 3277 3280 3281 3283
5280 3 3277 3280 3281 3284
5281 3 3280 3281 3284 3285
5282 1 3282 3281 3284 3285
5283 1 3283 3281 3284 3285
5284 1 3281 3284 3285 3286
5285 1 3281 3284 3285 3287
5286 3 3281 3284 3285 3288
5287 4 3284 3285 3288 95
5288 5 3286 3285 3288 95
5289 5 3287 3285 3288 95
5290 11 3246 94 3289 3269
5291 6 3310 94 3289 3269
5292 6 3331 94 3289 3269
5293 7 94 3289 3269 3270
5294 7 94 3289 3269 3271
5295 8 94 3289 3269 3272
5296 10 3285 3288 95 3120
5297 9 3285 3288 95 3352
5298 1 3291 3290 3293 3294
5299 1 3292 3290 3293 3294
5300 2 3310 3290 3293 3294
5301 1 3290 3293 3294 3295
5302 1 3290 3293 3294 3296
5303 3 3290 3293 3294 3297
5304 3 3293 3294 3297 3298
5305 1 3295 3294 3297 3298
5306 1 3296 3294 3297 3298
5307 1 3294 3297 3298 3299
5308 1 3294 3297 3298 3300
5309 3 3294 3297 3298 3301
5310 3 3297 3298 3301 3302
5311 1 3299 3298 3301 3302
5312 1 3300 3298 3301 3302
5313 1 3298 3301 3302 3303
5314 1 3298 3301 3302 3304
5315 3 3298 3301 3302 3305
5316 3 3301 3302 3305 3306
5317 1 3303 3302 3305 3306
5318 1 3304 3302 3305 3306
5319 1 3302 3305 3306 3307
5320 1 3302 3305 3306 3308
5321 3 3302 3305 3306 3309
5322 4 3305 3306 3309 99
5323 5 3307 3306 3309 99
5324 5 3308 3306 3309 99
5325 11 3246 94 3310 3290
5326 6 3289 94 3310 3290
5327 6 3331 94 3310 3290
5328 7 94 3310 3290 3291
5329 7 94 3310 3290 3292
5330 8 94 3310 3290 3293
5331 10 3306 3309 99 2637
5332 10 3306 3309 99 3477
5333 9 3306 3309 99 3520
5334 1 3312 3311 3314 3315
5335 1 3313 3311 3314 3315
5336 2 3331 3311 3314 3315
5337 1 3311 3314 3315 3316
5338 1 3311 3314 3315 3317
5339 3 3311 3314 3315 3318
5340 3 3314 3315 3318 3319
5341 1 3316 3315 3318 3319
5342 1 3317 3315 3318 3319
5343 1 3315 3318 3319 3320
5344 1 3315 3318 3319 3321
5345 3 3315 3318 3319 3322
5346 3 3318 3319 3322 3323
5347 1 3320 3319 3322 3323
5348 1 3321 3319 3322 3323
5349 1 3319 3322 3323 3324
5350 1 3319 3322 3323 3325
5351 3 3319 3322 3323 3326
5352 3 3322 3323 3326 3327
5353 1 3324 3323 3326 3327
5354 1 3325 3323 3326 3327
5355 1 3323 3326 3327 3328
5356 1 3323 3326 3327 3329
5357 3 3323 3326 3327 3330
5358 4 3326 3327 3330 119
5359 5 3328 3327 3330 119
5360 5 3329 3327 3330 119
5361 11 3246 94 3331 3311
5362 6 3289 94 3331 3311
5363 6 3310 94 3331 3311
5364 7 94 3331 3311 3312
5365 7 94 3331 3311 3313
5366 8 94 3331 3311 3314
5367 10 3327 3330 119 579
5368 10 3327 3330 119 4065
5369 9 3327 3330 119 4213
5370 1 3333 3332 3335 3336
5371 1 3334 3332 3335 3336
5372 2 3352 3332 3335 3336
5373 1 3332 3335 3336 3337
5374 1 3332 3335 3336 3338
5375 3 3332 3335 3336 3339
5376 3 3335 3336 3339 3340
5377 1 3337 3336 3339 3340
5378 1 3338 3336 3339 3340
5379 1 3336 3339 3340 3341
5380 1 3336 3339 3340 3342
5381 3 3336 3339 3340 3343
5382 3 3339 3340 3343 3344
5383 1 3341 3340 3343 3344
5384 1 3342 3340 3343 3344
5385 1 3340 3343 3344 3345
5386 1 3340 3343 3344 3346
5387 3 3340 3343 3344 3347
5388 3 3343 3344 3347 3348
5389 1 3345 3344 3347 3348
5390 1 3346 3344 3347 3348
5391 1 3344 3347 3348 3349
5392 1 3344 3347 3348 3350
5393 3 3344 3347 3348 3351
5394 4 3347 3348 3351 100
5395 5 3349 3348 3351 100
5396 5 3350 3348 3351 100
5397 11 3120 95 3352 3332
5398 11 3288 95 3352 3332
5399 7 95 3352 3332 3333
5400 7 95 3352 3332 3334
5401 8 95 3352 3332 3335
5402 10 3348 3351 100 2679
5403 9 3348 3351 100 3541
5404 9 3348 3351 100 3562
5405 1 3354 3353 3356 3357
5406 1 3355 3353 3356 3357
5407 2 3373 3353 3356 3357
5408 1 3353 3356 3357 3358
5409 1 3353 3356 3357 3359
5410 3 3353 3356 3357 3360
5411 3 3356 3357 3360 3361
5412 1 3358 3357 3360 3361
5413 1 3359 3357 3360 3361
5414 1 3357 3360 3361 3362
5415 1 3357 3360 3361 3363
5416 3 3357 3360 3361 3364
5417 3 3360 3361 3364 3365
5418 1 3362 3361 3364 3365
5419 1 3363 3361 3364 3365
5420 1 3361 3364 3365 3366
5421 1 3361 3364 3365 3367
5422 3 3361 3364 3365 3368
5423 3 3364 3365 3368 3369
5424 1 3366 3365 3368 3369
5425 1 3367 3365 3368 3369
5426 1 3365 3368 3369 3370
5427 1 3365 3368 3369 3371
5428 3 3365 3368 3369 3372
5429 4 3368 3369 3372 101
5430 5 3370 3369 3372 101
5431 5 3371 3369 3372 101
5432 11 2490 96 3373 3353
5433 6 3394 96 3373 3353
5434 7 96 3373 3353 3354
5435 7 96 3373 3353 3355
5436 8 96 3373 3353 3356
5437 10 3369 3372 101 3456
5438 10 3369 3372 101 3540
5439 9 3369 3372 101 3583
5440 1 3375 3374 3377 3378
5441 1 3376 3374 3377 3378
5442 2 3394 3374 3377 3378
5443 1 3374 3377 3378 3379
5444 1 3374 3377 3378 3380
5445 3 3374 3377 3378 3381
5446 3 3377 3378 3381 3382
5447 1 3379 3378 3381 3382
5448 1 3380 3378 3381 3382
5449 1 3378 3381 3382 3383
5450 1 3378 3381 3382 3384
5451 3 3378 3381 3382 3385
5452 3 3381 3382 3385 3386
5453 1 3383 3382 3385 3386
5454 1 3384 3382 3385 3386
5455 1 3382 3385 3386 3387
5456 1 3382 3385 3386 3388
5457 3 3382 3385 3386 3389
5458 3 3385 3386 3389 3390
5459 1 3387 3386 3389 3390
5460 1 3388 3386 3389 3390
5461 1 3386 3389 3390 3391
5462 1 3386 3389 3390 3392
5463 3 3386 3389 3390 3393
5464 4 3389 3390 3393 121
5465 5 3391 3390 3393 121
5466 5 3392 3390 3393 121
5467 11 2490 96 3394 3374
5468 6 3373 96 3394 3374
5469 7 96 3394 3374 3375
5470 7 96 3394 3374 3376
5471 8 96 3394 3374 3377
5472 10 3390 3393 121 4170
5473 9 3390 3393 121 4255
5474 1 3396 3395 3398 3399
5475 1 3397 3395 3398 3399
5476 2 3415 3395 3398 3399
5477 1 3395 3398 3399 3400
5478 1 3395 3398 3399 3401
5479 3 3395 3398 3399 3402
5480 3 3398 3399 3402 3403
5481 1 3400 3399 3402 3403
5482 1 3401 3399 3402 3403
5483 1 3399 3402 3403 3404
5484 1 3399 3402 3403 3405
5485 3 3399 3402 3403 3406
5486 3 3402 3403 3406 3407
5487 1 3404 3403 3406 3407
5488 1 3405 3403 3406 3407
5489 1 3403 3406 3407 3408
5490 1 3403 3406 3407 3409
5491 3 3403 3406 3407 3410
5492 3 3406 3407 3410 3411
5493 1 3408 3407 3410 3411
5494 1 3409 3407 3410 3411
5495 1 3407 3410 3411 3412
5496 1 3407 3410 3411 3413
5497 3 3407 3410 3411 3414
5498 4 3410 3411 3414 102
5499 5 3412 3411 3414 102
5500 5 3413 3411 3414 102
5501 11 2511 97 3415 3395
5502 6 3436 97 3415 3395
5503 6 3457 97 3415 3395
5504 7 97 3415 3395 3396
5505 7 97 3415 3395 3397
5506 8 97 3415 3395 3398
5507 9 3411 3414 102 3604
5508 9 3411 3414 102 3625
5509 1 3417 3416 3419 3420
5510 1 3418 3416 3419 3420
5511 2 3436 3416 3419 3420
5512 1 3416 3419 3420 3421
5513 1 3416 3419 3420 3422
5514 3 3416 3419 3420 3423
5515 3 3419 3420 3423 3424
5516 1 3421 3420 3423 3424
5517 1 3422 3420 3423 3424
5518 1 3420 3423 3424 3425
5519 1 3420 3423 3424 3426
5520 3 3420 3423 3424 3427
5521 3 3423 3424 3427 3428
5522 1 3425 3424 3427 3428
5523 1 3426 3424 3427 3428
5524 1 3424 3427 3428 3429
5525 1 3424 3427 3428 3430
5526 3 3424 3427 3428 3431
5527 3 3427 3428 3431 3432
5528 1 3429 3428 3431 3432
5529 1 3430 3428 3431 3432
5530 1 3428 3431 3432 3433
5531 1 3428 3431 3432 3434
5532 3 3428 3431 3432 3435
5533 4 3431 3432 3435 122
5534 5 3433 3432 3435 122
5535 5 3434 3432 3435 122
5536 11 2511 97 3436 3416
5537 6 3415 97 3436 3416
5538 6 3457 97 3436 3416
5539 7 97 3436 3416 3417
5540 7 97 3436 3416 3418
5541 8 97 3436 3416 3419
5542 10 3432 3435 122 4149
5543 9 3432 3435 122 4276
5544 9 3432 3435 122 4297
5545 1 3438 3437 3440 3441
5546 1 3439 3437 3440 3441
5547 2 3457 3437 3440 3441
5548 1 3437 3440 3441 3442
5549 1 3437 3440 3441 3443
5550 3 3437 3440 3441 3444
5551 3 3440 3441 3444 3445
5552 1 3442 3441 3444 3445
5553 1 3443 3441 3444 3445
5554 1 3441 3444 3445 3446
5555 1 3441 3444 3445 3447
5556 3 3441 3444 3445 3448
5557 3 3444 3445 3448 3449
5558 1 3446 3445 3448 3449
5559 1 3447 3445 3448 3449
5560 1 3445 3448 3449 3450
5561 1 3445 3448 3449 3451
5562 3 3445 3448 3449 3452
5563 3 3448 3449 3452 3453
5564 1 3450 3449 3452 3453
5565 1 3451 3449 3452 3453
5566 1 3449 3452 3453 3454
5567 1 3449 3452 3453 3455
5568 3 3449 3452 3453 3456
5569 4 3452 3453 3456 101
5570 5 3454 3453 3456 101
5571 5 3455 3453 3456 101
5572 11 2511 97 3457 3437
5573 6 3415 97 3457 3437
5574 6 3436 97 3457 3437
5575 7 97 3457 3437 3438
5576 7 97 3457 3437 3439
5577 8 97 3457 3437 3440
5578 10 3453 3456 101 3372
5579 10 3453 3456 101 3540
5580 9 3453 3456 101 3583
5581 1 3459 3458 3461 3462
5582 1 3460 3458 3461 3462
5583 2 3478 3458 3461 3462
5584 1 3458 3461 3462 3463
5585 1 3458 3461 3462 3464
5586 3 3458 3461 3462 3465
5587 3 3461 3462 3465 3466
5588 1 3463 3462 3465 3466
5589 1 3464 3462 3465 3466
5590 1 3462 3465 3466 3467
5591 1 3462 3465 3466 3468
5592 3 3462 3465 3466 3469
5593 3 3465 3466 3469 3470
5594 1 3467 3466 3469 3470
5595 1 3468 3466 3469 3470
5596 1 3466 3469 3470 3471
5597 1 3466 3469 3470 3472
5598 3 3466 3469 3470 3473
5599 3 3469 3470 3473 3474
5600 1 3471 3470 3473 3474
5601 1 3472 3470 3473 3474
5602 1 3470 3473 3474 3475
5603 1 3470 3473 3474 3476
5604 3 3470 3473 3474 3477
5605 4 3473 3474 3477 99
5606 5 3475 3474 3477 99
5607 5 3476 3474 3477 99
5608 11 2574 98 3478 3458
5609 6 3499 98 3478 3458
5610 7 98 3478 3458 3459
5611 7 98 3478 3458 3460
5612 8 98 3478 3458 3461
5613 10 3474 3477 99 2637
5614 10 3474 3477 99 3309
5615 9 3474 3477 99 3520
5616 1 3480 3479 3482 3483
5617 1 3481 3479 3482 3483
5618 2 3499 3479 3482 3483
5619 1 3479 3482 3483 3484
5620 1 3479 3482 3483 3485
5621 3 3479 3482 3483 3486
5622 3 3482 3483 3486 3487
5623 1 3484 3483 3486 3487
5624 1 3485 3483 3486 3487
5625 1 3483 3486 3487 3488
5626 1 3483 3486 3487 3489
5627 3 3483 3486 3487 3490
5628 3 3486 3487 3490 3491
5629 1 3488 3487 3490 3491
5630 1 3489 3487 3490 3491
5631 1 3487 3490 3491 3492
5632 1 3487 3490 3491 3493
5633 3 3487 3490 3491 3494
5634 3 3490 3491 3494 3495
5635 1 3492 3491 3494 3495
5636 1 3493 3491 3494 3495
5637 1 3491 3494 3495 3496
5638 1 3491 3494 3495 3497
5639 3 3491 3494 3495 3498
5640 4 3494 3495 3498 123
5641 5 3496 3495 3498 123
5642 5 3497 3495 3498 123
5643 11 2574 98 3499 3479
5644 6 3478 98 3499 3479
5645 7 98 3499 3479 3480
5646 7 98 3499 3479 3481
5647 8 98 3499 3479 3482
5648 10 3495 3498 123 4191
5649 10 3495 3498 123 4275
5650 9 3495 3498 123 4318
5651 1 3501 3500 3503 3504
5652 1 3502 3500 3503 3504
5653 2 3520 3500 3503 3504
5654 1 3500 3503 3504 3505
5655 1 3500 3503 3504 3506
5656 3 3500 3503 3504 3507
5657 3 3503 3504 3507 3508
5658 1 3505 3504 3507 3508
5659 1 3506 3504 3507 3508
5660 1 3504 3507 3508 3509
5661 1 3504 3507 3508 3510
5662 3 3504 3507 3508 3511
5663 3 3507 3508 3511 3512
5664 1 3509 3508 3511 3512
5665 1 3510 3508 3511 3512
5666 1 3508 3511 3512 3513
5667 1 3508 3511 3512 3514
5668 3 3508 3511 3512 3515
5669 3 3511 3512 3515 3516
5670 1 3513 3512 3515 3516
5671 1 3514 3512 3515 3516
5672 1 3512 3515 3516 3517
5673 1 3512 3515 3516 3518
5674 3 3512 3515 3516 3519
5675 4 3515 3516 3519 104
5676 5 3517 3516 3519 104
5677 5 3518 3516 3519 104
5678 11 2637 99 3520 3500
5679 11 3309 99 3520 3500
5680 11 3477 99 3520 3500
5681 7 99 3520 3500 3501
5682 7 99 3520 3500 3502
5683 8 99 3520 3500 3503
5684 10 3516 3519 104 2784
5685 9 3516 3519 104 3688
5686 1 3522 3521 3524 3525
5687 1 3523 3521 3524 3525
5688 2 3541 3521 3524 3525
5689 1 3521 3524 3525 3526
5690 1 3521 3524 3525 3527
5691 3 3521 3524 3525 3528
5692 3 3524 3525 3528 3529
5693 1 3526 3525 3528 3529
5694 1 3527 3525 3528 3529
5695 1 3525 3528 3529 3530
5696 1 3525 3528 3529 3531
5697 3 3525 3528 3529 3532
5698 3 3528 3529 3532 3533
5699 1 3530 3529 3532 3533
5700 1 3531 3529 3532 3533
5701 1 3529 3532 3533 3534
5702 1 3529 3532 3533 3535
5703 3 3529 3532 3533 3536
5704 3 3532 3533 3536 3537
5705 1 3534 3533 3536 3537
5706 1 3535 3533 3536 3537
5707 1 3533 3536 3537 3538
5708 1 3533 3536 3537 3539
5709 3 3533 3536 3537 3540
5710 4 3536 3537 3540 101
5711 5 3538 3537 3540 101
5712 5 3539 3537 3540 101
5713 11 2679 100 3541 3521
5714 11 3351 100 3541 3521
5715 6 3562 100 3541 3521
5716 7 100 3541 3521 3522
5717 7 100 3541 3521 3523
5718 8 100 3541 3521 3524
5719 10 3537 3540 101 3372
5720 10 3537 3540 101 3456
5721 9 3537 3540 101 3583
5722 1 3543 3542 3545 3546
5723 1 3544 3542 3545 3546
5724 2 3562 3542 3545 3546
5725 1 3542 3545 3546 3547
5726 1 3542 3545 3546 3548
5727 3 3542 3545 3546 3549
5728 3 3545 3546 3549 3550
5729 1 3547 3546 3549 3550
5730 1 3548 3546 3549 3550
5731 1 3546 3549 3550 3551
5732 1 3546 3549 3550 3552
5733 3 3546 3549 3550 3553
5734 3 3549 3550 3553 3554
5735 1 3551 3550 3553 3554
5736 1 3552 3550 3553 3554
5737 1 3550 3553 3554 3555
5738 1 3550 3553 3554 3556
5739 3 3550 3553 3554 3557
5740 3 3553 3554 3557 3558
5741 1 3555 3554 3557 3558
5742 1 3556 3554 3557 3558
5743 1 3554 3557 3558 3559
5744 1 3554 3557 3558 3560
5745 3 3554 3557 3558 3561
5746 4 3557 3558 3561 105
5747 5 3559 3558 3561 105
5748 5 3560 3558 3561 105
5749 11 2679 100 3562 3542
5750 11 3351 100 3562 3542
5751 6 3541 100 3562 3542
5752 7 100 3562 3542 3543
5753 7 100 3562 3542 3544
5754 8 100 3562 3542 3545
5755 9 3558 3561 105 3709
5756 9 3558 3561 105 3730
5757 9 3558 3561 105 3751
5758 1 3564 3563 3566 3567
5759 1 3565 3563 3566 3567
5760 2 3583 3563 3566 3567
5761 1 3563 3566 3567 3568
5762 1 3563 3566 3567 3569
5763 3 3563 3566 3567 3570
5764 3 3566 3567 3570 3571
5765 1 3568 3567 3570 3571
5766 1 3569 3567 3570 3571
5767 1 3567 3570 3571 3572
5768 1 3567 3570 3571 3573
5769 3 3567 3570 3571 3574
5770 3 3570 3571 3574 3575
5771 1 3572 3571 3574 3575
5772 1 3573 3571 3574 3575
5773 1 3571 3574 3575 3576
5774 1 3571 3574 3575 3577
5775 3 3571 3574 3575 3578
5776 3 3574 3575 3578 3579
5777 1 3576 3575 3578 3579
5778 1 3577 3575 3578 3579
5779 1 3575 3578 3579 3580
5780 1 3575 3578 3579 3581
5781 3 3575 3578 3579 3582
5782 4 3578 3579 3582 126
5783 5 3580 3579 3582 126
5784 5 3581 3579 3582 126
5785 11 3372 101 3583 3563
5786 11 3456 101 3583 3563
5787 11 3540 101 3583 3563
5788 7 101 3583 3563 3564
5789 7 101 3583 3563 3565
5790 8 101 3583 3563 3566
5791 10 3579 3582 126 4254
5792 10 3579 3582 126 4359
5793 9 3579 3582 126 4402
5794 1 3585 3584 3587 3588
5795 1 3586 3584 3587 3588
5796 2 3604 3584 3587 3588
5797 1 3584 3587 3588 3589
5798 1 3584 3587 3588 3590
5799 3 3584 3587 3588 3591
5800 3 3587 3588 3591 3592
5801 1 3589 3588 3591 3592
5802 1 3590 3588 3591 3592
5803 1 3588 3591 3592 3593
5804 1 3588 3591 3592 3594
5805 3 3588 3591 3592 3595
5806 3 3591 3592 3595 3596
5807 1 3593 3592 3595 3596
5808 1 3594 3592 3595 3596
5809 1 3592 3595 3596 3597
5810 1 3592 3595 3596 3598
5811 3 3592 3595 3596 3599
5812 3 3595 3596 3599 3600
5813 1 3597 3596 3599 3600
5814 1 3598 3596 3599 3600
5815 1 3596 3599 3600 3601
5816 1 3596 3599 3600 3602
5817 3 3596 3599 3600 3603
5818 4 3599 3600 3603 103
5819 5 3601 3600 3603 103
5820 5 3602 3600 3603 103
5821 11 3414 102 3604 3584
5822 6 3625 102 3604 3584
5823 7 102 3604 3584 3585
5824 7 102 3604 3584 3586
5825 8 102 3604 3584 3587
5826 10 3600 3603 103 2742
5827 9 3600 3603 103 3646
5828 9 3600 3603 103 3667
5829 1 3606 3605 3608 3609
5830 1 3607 3605 3608 3609
5831 2 3625 3605 3608 3609
5832 1 3605 3608 3609 3610
5833 1 3605 3608 3609 3611
5834 3 3605 3608 3609 3612
5835 3 3608 3609 3612 3613
5836 1 3610 3609 3612 3613
5837 1 3611 3609 3612 3613
5838 1 3609 3612 3613 3614
5839 1 3609 3612 3613 3615
5840 3 3609 3612 3613 3616
5841 3 3612 3613 3616 3617
5842 1 3614 3613 3616 3617
5843 1 3615 3613 3616 3617
5844 1 3613 3616 3617 3618
5845 1 3613 3616 3617 3619
5846 3 3613 3616 3617 3620
5847 3 3616 3617 3620 3621
5848 1 3618 3617 3620 3621
5849 1 3619 3617 3620 3621
5850 1 3617 3620 3621 3622
5851 1 3617 3620 3621 3623
5852 3 3617 3620 3621 3624
5853 4 3620 3621 3624 106
5854 5 3622 3621 3624 106
5855 5 3623 3621 3624 106
5856 11 3414 102 3625 3605
5857 6 3604 102 3625 3605
5858 7 102 3625 3605 3606
5859 7 102 3625 3605 3607
5860 8 102 3625 3605 3608
5861 10 3621 3624 106 2847
5862 10 3621 3624 106 3708
5863 9 3621 3624 106 3772
5864 1 3627 3626 3629 3630
5865 1 3628 3626 3629 3630
5866 2 3646 3626 3629 3630
5867 1 3626 3629 3630 3631
5868 1 3626 3629 3630 3632
5869 3 3626 3629 3630 3633
5870 3 3629 3630 3633 3634
5871 1 3631 3630 3633 3634
5872 1 3632 3630 3633 3634
5873 1 3630 3633 3634 3635
5874 1 3630 3633 3634 3636
5875 3 3630 3633 3634 3637
5876 3 3633 3634 3637 3638
5877 1 3635 3634 3637 3638
5878 1 3636 3634 3637 3638
5879 1 3634 3637 3638 3639
5880 1 3634 3637 3638 3640
5881 3 3634 3637 3638 3641
5882 3 3637 3638 3641 3642
5883 1 3639 3638 3641 3642
5884 1 3640 3638 3641 3642
5885 1 3638 3641 3642 3643
5886 1 3638 3641 3642 3644
5887 3 3638 3641 3642 3645
5888 4 3641 3642 3645 108
5889 5 3643 3642 3645 108
5890 5 3644 3642 3645 108
5891 11 2742 103 3646 3626
5892 11 3603 103 3646 3626
5893 6 3667 103 3646 3626
5894 7 103 3646 3626 3627
5895 7 103 3646 3626 3628
5896 8 103 3646 3626 3629
5897 10 3642 3645 108 3036
5898 10 3642 3645 108 3792
5899 9 3642 3645 108 3856
5900 1 3648 3647 3650 3651
5901 1 3649 3647 3650 3651
5902 2 3667 3647 3650 3651
5903 1 3647 3650 3651 3652
5904 1 3647 3650 3651 3653
5905 3 3647 3650 3651 3654
5906 3 3650 3651 3654 3655
5907 1 3652 3651 3654 3655
5908 1 3653 3651 3654 3655
5909 1 3651 3654 3655 3656
5910 1 3651 3654 3655 3657
5911 3 3651 3654 3655 3658
5912 3 3654 3655 3658 3659
5913 1 3656 3655 3658 3659
5914 1 3657 3655 3658 3659
5915 1 3655 3658 3659 3660
5916 1 3655 3658 3659 3661
5917 3 3655 3658 3659 3662
5918 3 3658 3659 3662 3663
5919 1 3660 3659 3662 3663
5920 1 3661 3659 3662 3663
5921 1 3659 3662 3663 3664
5922 1 3659 3662 3663 3665
5923 3 3659 3662 3663 3666
5924 4 3662 3663 3666 131
5925 5 3664 3663 3666 131
5926 5 3665 3663 3666 131
5927 11 2742 103 3667 3647
5928 11 3603 103 3667 3647
5929 6 3646 103 3667 3647
5930 7 103 3667 3647 3648
5931 7 103 3667 3647 3649
5932 8 103 3667 3647 3650
5933 10 3663 3666 131 999
5934 9 3663 3666 131 4423
5935 9 3663 3666 131 4444
5936 1 3669 3668 3671 3672
5937 1 3670 3668 3671 3672
5938 2 3688 3668 3671 3672
5939 1 3668 3671 3672 3673
5940 1 3668 3671 3672 3674
5941 3 3668 3671 3672 3675
5942 3 3671 3672 3675 3676
5943 1 3673 3672 3675 3676
5944 1 3674 3672 3675 3676
5945 1 3672 3675 3676 3677
5946 1 3672 3675 3676 3678
5947 3 3672 3675 3676 3679
5948 3 3675 3676 3679 3680
5949 1 3677 3676 3679 3680
5950 1 3678 3676 3679 3680
5951 1 3676 3679 3680 3681
5952 1 3676 3679 3680 3682
5953 3 3676 3679 3680 3683
5954 3 3679 3680 3683 3684
5955 1 3681 3680 3683 3684
5956 1 3682 3680 3683 3684
5957 1 3680 3683 3684 3685
5958 1 3680 3683 3684 3686
5959 3 3680 3683 3684 3687
5960 4 3683 3684 3687 132
5961 5 3685 3684 3687 132
5962 5 3686 3684 3687 132
5963 11 2784 104 3688 3668
5964 11 3519 104 3688 3668
5965 7 104 3688 3668 3669
5966 7 104 3688 3668 3670
5967 8 104 3688 3668 3671
5968 10 3684 3687 132 4338
5969 10 3684 3687 132 4422
5970 9 3684 3687 132 4465
5971 1 3690 3689 3692 3693
5972 1 3691 3689 3692 3693
5973 2 3709 3689 3692 3693
5974 1 3689 3692 3693 3694
5975 1 3689 3692 3693 3695
5976 3 3689 3692 3693 3696
5977 3 3692 3693 3696 3697
5978 1 3694 3693 3696 3697
5979 1 3695 3693 3696 3697
5980 1 3693 3696 3697 3698
5981 1 3693 3696 3697 3699
5982 3 3693 3696 3697 3700
5983 3 3696 3697 3700 3701
5984 1 3698 3697 3700 3701
5985 1 3699 3697 3700 3701
5986 1 3697 3700 3701 3702
5987 1 3697 3700 3701 3703
5988 3 3697 3700 3701 3704
5989 3 3700 3701 3704 3705
5990 1 3702 3701 3704 3705
5991 1 3703 3701 3704 3705
5992 1 3701 3704 3705 3706
5993 1 3701 3704 3705 3707
5994 3 3701 3704 3705 3708
5995 4 3704 3705 3708 106
5996 5 3706 3705 3708 106
5997 5 3707 3705 3708 106
5998 11 3561 105 3709 3689
5999 6 3730 105 3709 3689
6000 6 3751 105 3709 3689
6001 7 105 3709 3689 3690
6002 7 105 3709 3689 3691
6003 8 105 3709 3689 3692
6004 10 3705 3708 106 2847
6005 10 3705 3708 106 3624
6006 9 3705 3708 106 3772
6007 1 3711 3710 3713 3714
6008 1 3712 3710 3713 3714
6009 2 3730 3710 3713 3714
6010 1 3710 3713 3714 3715
6011 1 3710 3713 3714 3716
6012 3 3710 3713 3714 3717
6013 3 3713 3714 3717 3718
6014 1 3715 3714 3717 3718
6015 1 3716 3714 3717 3718
6016 1 3714 3717 3718 3719
6017 1 3714 3717 3718 3720
6018 3 3714 3717 3718 3721
6019 3 3717 3718 3721 3722
6020 1 3719 3718 3721 3722
6021 1 3720 3718 3721 3722
6022 1 3718 3721 3722 3723
6023 1 3718 3721 3722 3724
6024 3 3718 3721 3722 3725
6025 3 3721 3722 3725 3726
6026 1 3723 3722 3725 3726
6027 1 3724 3722 3725 3726
6028 1 3722 3725 3726 3727
6029 1 3722 3725 3726 3728
6030 3 3722 3725 3726 3729
6031 4 3725 3726 3729 110
6032 5 3727 3726 3729 110
6033 5 3728 3726 3729 110
6034 11 3561 105 3730 3710
6035 6 3709 105 3730 3710
6036 6 3751 105 3730 3710
6037 7 105 3730 3710 3711
6038 7 105 3730 3710 3712
6039 8 105 3730 3710 3713
6040 10 3726 3729 110 2952
6041 10 3726 3729 110 3876
6042 9 3726 3729 110 3919
6043 1 3732 3731 3734 3735
6044 1 3733 3731 3734 3735
6045 2 3751 3731 3734 3735
6046 1 3731 3734 3735 3736
6047 1 3731 3734 3735 3737
6048 3 3731 3734 3735 3738
6049 3 3734 3735 3738 3739
6050 1 3736 3735 3738 3739
6051 1 3737 3735 3738 3739
6052 1 3735 3738 3739 3740
6053 1 3735 3738 3739 3741
6054 3 3735 3738 3739 3742
6055 3 3738 3739 3742 3743
6056 1 3740 3739 3742 3743
6057 1 3741 3739 3742 3743
6058 1 3739 3742 3743 3744
6059 1 3739 3742 3743 3745
6060 3 3739 3742 3743 3746
6061 3 3742 3743 3746 3747
6062 1 3744 3743 3746 3747
6063 1 3745 3743 3746 3747
6064 1 3743 3746 3747 3748
6065 1 3743 3746 3747 3749
6066 3 3743 3746 3747 3750
6067 4 3746 3747 3750 133
6068 5 3748 3747 3750 133
6069 5 3749 3747 3750 133
6070 11 3561 105 3751 3731
6071 6 3709 105 3751 3731
6072 6 3730 105 3751 3731
6073 7 105 3751 3731 3732
6074 7 105 3751 3731 3733
6075 8 105 3751 3731 3734
6076 10 3747 3750 133 1062
6077 10 3747 3750 133 4380
6078 9 3747 3750 133 4486
6079 1 3753 3752 3755 3756
6080 1 3754 3752 3755 3756
6081 2 3772 3752 3755 3756
6082 1 3752 3755 3756 3757
6083 1 3752 3755 3756 3758
6084 3 3752 3755 3756 3759
6085 3 3755 3756 3759 3760
6086 1 3757 3756 3759 3760
6087 1 3758 3756 3759 3760
6088 1 3756 3759 3760 3761
6089 1 3756 3759 3760 3762
6090 3 3756 3759 3760 3763
6091 3 3759 3760 3763 3764
6092 1 3761 3760 3763 3764
6093 1 3762 3760 3763 3764
6094 1 3760 3763 3764 3765
6095 1 3760 3763 3764 3766
6096 3 3760 3763 3764 3767
6097 3 3763 3764 3767 3768
6098 1 3765 3764 3767 3768
6099 1 3766 3764 3767 3768
6100 1 3764 3767 3768 3769
6101 1 3764 3767 3768 3770
6102 3 3764 3767 3768 3771
6103 4 3767 3768 3771 134
6104 5 3769 3768 3771 134
6105 5 3770 3768 3771 134
6106 11 2847 106 3772 3752
6107 11 3624 106 3772 3752
6108 11 3708 106 3772 3752
6109 7 106 3772 3752 3753
6110 7 106 3772 3752 3754
6111 8 106 3772 3752 3755
6112 10 3768 3771 134 1104
6113 10 3768 3771 134 4401
6114 1 3774 3773 3776 3777
6115 1 3775 3773 3776 3777
6116 2 3793 3773 3776 3777
6117 1 3773 3776 3777 3778
6118 1 3773 3776 3777 3779
6119 3 3773 3776 3777 3780
6120 3 3776 3777 3780 3781
6121 1 3778 3777 3780 3781
6122 1 3779 3777 3780 3781
6123 1 3777 3780 3781 3782
6124 1 3777 3780 3781 3783
6125 3 3777 3780 3781 3784
6126 3 3780 3781 3784 3785
6127 1 3782 3781 3784 3785
6128 1 3783 3781 3784 3785
6129 1 3781 3784 3785 3786
6130 1 3781 3784 3785 3787
6131 3 3781 3784 3785 3788
6132 3 3784 3785 3788 3789
6133 1 3786 3785 3788 3789
6134 1 3787 3785 3788 3789
6135 1 3785 3788 3789 3790
6136 1 3785 3788 3789 3791
6137 3 3785 3788 3789 3792
6138 4 3788 3789 3792 108
6139 5 3790 3789 3792 108
6140 5 3791 3789 3792 108
6141 11 2889 107 3793 3773
6142 6 3814 107 3793 3773
6143 6 3835 107 3793 3773
6144 7 107 3793 3773 3774
6145 7 107 3793 3773 3775
6146 8 107 3793 3773 3776
6147 10 3789 3792 108 3036
6148 10 3789 3792 108 3645
6149 9 3789 3792 108 3856
6150 1 3795 3794 3797 3798
6151 1 3796 3794 3797 3798
6152 2 3814 3794 3797 3798
6153 1 3794 3797 3798 3799
6154 1 3794 3797 3798 3800
6155 3 3794 3797 3798 3801
6156 3 3797 3798 3801 3802
6157 1 3799 3798 3801 3802
6158 1 3800 3798 3801 3802
6159 1 3798 3801 3802 3803
6160 1 3798 3801 3802 3804
6161 3 3798 3801 3802 3805
6162 3 3801 3802 3805 3806
6163 1 3803 3802 3805 3806
6164 1 3804 3802 3805 3806
6165 1 3802 3805 3806 3807
6166 1 3802 3805 3806 3808
6167 3 3802 3805 3806 3809
6168 3 3805 3806 3809 3810
6169 1 3807 3806 3809 3810
6170 1 3808 3806 3809 3810
6171 1 3806 3809 3810 3811
6172 1 3806 3809 3810 3812
6173 3 3806 3809 3810 3813
6174 4 3809 3810 3813 135
6175 5 3811 3810 3813 135
6176 5 3812 3810 3813 135
6177 11 2889 107 3814 3794
6178 6 3793 107 3814 3794
6179 6 3835 107 3814 3794
6180 7 107 3814 3794 3795
6181 7 107 3814 3794 3796
6182 8 107 3814 3794 3797
6183 10 3810 3813 135 3981
6184 9 3810 3813 135 4507
6185 1 3816 3815 3818 3819
6186 1 3817 3815 3818 3819
6187 2 3835 3815 3818 3819
6188 1 3815 3818 3819 3820
6189 1 3815 3818 3819 3821
6190 3 3815 3818 3819 3822
6191 3 3818 3819 3822 3823
6192 1 3820 3819 3822 3823
6193 1 3821 3819 3822 3823
6194 1 3819 3822 3823 3824
6195 1 3819 3822 3823 3825
6196 3 3819 3822 3823 3826
6197 3 3822 3823 3826 3827
6198 1 3824 3823 3826 3827
6199 1 3825 3823 3826 3827
6200 1 3823 3826 3827 3828
6201 1 3823 3826 3827 3829
6202 3 3823 3826 3827 3830
6203 3 3826 3827 3830 3831
6204 1 3828 3827 3830 3831
6205 1 3829 3827 3830 3831
6206 1 3827 3830 3831 3832
6207 1 3827 3830 3831 3833
6208 3 3827 3830 3831 3834
6209 4 3830 3831 3834 111
6210 5 3832 3831 3834 111
6211 5 3833 3831 3834 111
6212 11 2889 107 3835 3815
6213 6 3793 107 3835 3815
6214 6 3814 107 3835 3815
6215 7 107 3835 3815 3816
6216 7 107 3835 3815 3817
6217 8 107 3835 3815 3818
6218 10 3831 3834 111 2973
6219 10 3831 3834 111 3183
6220 1 3837 3836 3839 3840
6221 1 3838 3836 3839 3840
6222 2 3856 3836 3839 3840
6223 1 3836 3839 3840 3841
6224 1 3836 3839 3840 3842
6225 3 3836 3839 3840 3843
6226 3 3839 3840 3843 3844
6227 1 3841 3840 3843 3844
6228 1 3842 3840 3843 3844
6229 1 3840 3843 3844 3845
6230 1 3840 3843 3844 3846
6231 3 3840 3843 3844 3847
6232 3 3843 3844 3847 3848
6233 1 3845 3844 3847 3848
6234 1 3846 3844 3847 3848
6235 1 3844 3847 3848 3849
6236 1 3844 3847 3848 3850
6237 3 3844 3847 3848 3851
6238 3 3847 3848 3851 3852
6239 1 3849 3848 3851 3852
6240 1 3850 3848 3851 3852
6241 1 3848 3851 3852 3853
6242 1 3848 3851 3852 3854
6243 3 3848 3851 3852 3855
6244 4 3851 3852 3855 136
6245 5 3853 3852 3855 136
6246 5 3854 3852 3855 136
6247 11 3036 108 3856 3836
6248 11 3645 108 3856 3836
6249 11 3792 108 3856 3836
6250 7 108 3856 3836 3837
6251 7 108 3856 3836 3838
6252 8 108 3856 3836 3839
6253 10 3852 3855 136 4023
6254 10 3852 3855 136 4443
6255 10 3852 3855 136 4506
6256 1 3858 3857 3860 3861
6257 1 3859 3857 3860 3861
6258 2 3877 3857 3860 3861
6259 1 3857 3860 3861 3862
6260 1 3857 3860 3861 3863
6261 3 3857 3860 3861 3864
6262 3 3860 3861 3864 3865
6263 1 3862 3861 3864 3865
6264 1 3863 3861 3864 3865
6265 1 3861 3864 3865 3866
6266 1 3861 3864 3865 3867
6267 3 3861 3864 3865 3868
6268 3 3864 3865 3868 3869
6269 1 3866 3865 3868 3869
6270 1 3867 3865 3868 3869
6271 1 3865 3868 3869 3870
6272 1 3865 3868 3869 3871
6273 3 3865 3868 3869 3872
6274 3 3868 3869 3872 3873
6275 1 3870 3869 3872 3873
6276 1 3871 3869 3872 3873
6277 1 3869 3872 3873 3874
6278 1 3869 3872 3873 3875
6279 3 3869 3872 3873 3876
6280 4 3872 3873 3876 110
6281 5 3874 3873 3876 110
6282 5 3875 3873 3876 110
6283 11 3099 109 3877 3857
6284 6 3898 109 3877 3857
6285 7 109 3877 3857 3858
6286 7 109 3877 3857 3859
6287 8 109 3877 3857 3860
6288 10 3873 3876 110 2952
6289 10 3873 3876 110 3729
6290 9 3873 3876 110 3919
6291 1 3879 3878 3881 3882
6292 1 3880 3878 3881 3882
6293 2 3898 3878 3881 3882
6294 1 3878 3881 3882 3883
6295 1 3878 3881 3882 3884
6296 3 3878 3881 3882 3885
6297 3 3881 3882 3885 3886
6298 1 3883 3882 3885 3886
6299 1 3884 3882 3885 3886
6300 1 3882 3885 3886 3887
6301 1 3882 3885 3886 3888
6302 3 3882 3885 3886 3889
6303 3 3885 3886 3889 3890
6304 1 3887 3886 3889 3890
6305 1 3888 3886 3889 3890
6306 1 3886 3889 3890 3891
6307 1 3886 3889 3890 3892
6308 3 3886 3889 3890 3893
6309 3 3889 3890 3893 3894
6310 1 3891 3890 3893 3894
6311 1 3892 3890 3893 3894
6312 1 3890 3893 3894 3895
6313 1 3890 3893 3894 3896
6314 3 3890 3893 3894 3897
6315 4 3893 3894 3897 137
6316 5 3895 3894 3897 137
6317 5 3896 3894 3897 137
6318 11 3099 109 3898 3878
6319 6 3877 109 3898 3878
6320 7 109 3898 3878 3879
6321 7 109 3898 3878 3880
6322 8 109 3898 3878 3881
6323 10 3894 3897 137 4464
6324 9 3894 3897 137 4528
6325 1 3900 3899 3902 3903
6326 1 3901 3899 3902 3903
6327 2 3919 3899 3902 3903
6328 1 3899 3902 3903 3904
6329 1 3899 3902 3903 3905
6330 3 3899 3902 3903 3906
6331 3 3902 3903 3906 3907
6332 1 3904 3903 3906 3907
6333 1 3905 3903 3906 3907
6334 1 3903 3906 3907 3908
6335 1 3903 3906 3907 3909
6336 3 3903 3906 3907 3910
6337 3 3906 3907 3910 3911
6338 1 3908 3907 3910 3911
6339 1 3909 3907 3910 3911
6340 1 3907 3910 3911 3912
6341 1 3907 3910 3911 3913
6342 3 3907 3910 3911 3914
6343 3 3910 3911 3914 3915
6344 1 3912 3911 3914 3915
6345 1 3913 3911 3914 3915
6346 1 3911 3914 3915 3916
6347 1 3911 3914 3915 3917
6348 3 3911 3914 3915 3918
6349 4 3914 3915 3918 138
6350 5 3916 3915 3918 138
6351 5 3917 3915 3918 138
6352 11 2952 110 3919 3899
6353 11 3729 110 3919 3899
6354 11 3876 110 3919 3899
6355 7 110 3919 3899 3900
6356 7 110 3919 3899 3901
6357 8 110 3919 3899 3902
6358 10 3915 3918 138 4485
6359 10 3915 3918 138 4527
6360 9 3915 3918 138 4549
6361 1 3921 3920 3923 3924
6362 1 3922 3920 3923 3924
6363 2 3940 3920 3923 3924
6364 1 3920 3923 3924 3925
6365 1 3920 3923 3924 3926
6366 3 3920 3923 3924 3927
6367 3 3923 3924 3927 3928
6368 1 3925 3924 3927 3928
6369 1 3926 3924 3927 3928
6370 1 3924 3927 3928 3929
6371 1 3924 3927 3928 3930
6372 3 3924 3927 3928 3931
6373 3 3927 3928 3931 3932
6374 1 3929 3928 3931 3932
6375 1 3930 3928 3931 3932
6376 1 3928 3931 3932 3933
6377 1 3928 3931 3932 3934
6378 3 3928 3931 3932 3935
6379 3 3931 3932 3935 3936
6380 1 3933 3932 3935 3936
6381 1 3934 3932 3935 3936
6382 1 3932 3935 3936 3937
6383 1 3932 3935 3936 3938
6384 3 3932 3935 3936 3939
6385 4 3935 3936 3939 113
6386 5 3937 3936 3939 113
6387 5 3938 3936 3939 113
6388 6 3961 112 3940 3920
6389 6 3982 112 3940 3920
6390 7 112 3940 3920 3921
6391 7 112 3940 3920 3922
6392 8 112 3940 3920 3923
6393 10 3936 3939 113 3015
6394 9 3936 3939 113 4003
6395 9 3936 3939 113 4024
6396 1 3942 3941 3944 3945
6397 1 3943 3941 3944 3945
6398 2 3961 3941 3944 3945
6399 1 3941 3944 3945 3946
6400 1 3941 3944 3945 3947
6401 3 3941 3944 3945 3948
6402 3 3944 3945 3948 3949
6403 1 3946 3945 3948 3949
6404 1 3947 3945 3948 3949
6405 1 3945 3948 3949 3950
6406 1 3945 3948 3949 3951
6407 3 3945 3948 3949 3952
6408 3 3948 3949 3952 3953
6409 1 3950 3949 3952 3953
6410 1 3951 3949 3952 3953
6411 1 3949 3952 3953 3954
6412 1 3949 3952 3953 3955
6413 3 3949 3952 3953 3956
6414 3 3952 3953 3956 3957
6415 1 3954 3953 3956 3957
6416 1 3955 3953 3956 3957
6417 1 3953 3956 3957 3958
6418 1 3953 3956 3957 3959
6419 3 3953 3956 3957 3960
6420 4 3956 3957 3960 116
6421 5 3958 3957 3960 116
6422 5 3959 3957 3960 116
6423 6 3940 112 3961 3941
6424 6 3982 112 3961 3941
6425 7 112 3961 3941 3942
6426 7 112 3961 3941 3943
6427 8 112 3961 3941 3944
6428 10 3957 3960 116 3162
6429 10 3957 3960 116 4086
6430 9 3957 3960 116 4129
6431 1 3963 3962 3965 3966
6432 1 3964 3962 3965 3966
6433 2 3982 3962 3965 3966
6434 1 3962 3965 3966 3967
6435 1 3962 3965 3966 3968
6436 3 3962 3965 3966 3969
6437 3 3965 3966 3969 3970
6438 1 3967 3966 3969 3970
6439 1 3968 3966 3969 3970
6440 1 3966 3969 3970 3971
6441 1 3966 3969 3970 3972
6442 3 3966 3969 3970 3973
6443 3 3969 3970 3973 3974
6444 1 3971 3970 3973 3974
6445 1 3972 3970 3973 3974
6446 1 3970 3973 3974 3975
6447 1 3970 3973 3974 3976
6448 3 3970 3973 3974 3977
6449 3 3973 3974 3977 3978
6450 1 3975 3974 3977 3978
6451 1 3976 3974 3977 3978
6452 1 3974 3977 3978 3979
6453 1 3974 3977 3978 3980
6454 3 3974 3977 3978 3981
6455 4 3977 3978 3981 135
6456 5 3979 3978 3981 135
6457 5 3980 3978 3981 135
6458 6 3940 112 3982 3962
6459 6 3961 112 3982 3962
6460 7 112 3982 3962 3963
6461 7 112 3982 3962 3964
6462 8 112 3982 3962 3965
6463 10 3978 3981 135 3813
6464 9 3978 3981 135 4507
6465 1 3984 3983 3986 3987
6466 1 3985 3983 3986 3987
6467 2 4003 3983 3986 3987
6468 1 3983 3986 3987 3988
6469 1 3983 3986 3987 3989
6470 3 3983 3986 3987 3990
6471 3 3986 3987 3990 3991
6472 1 3988 3987 3990 3991
6473 1 3989 3987 3990 3991
6474 1 3987 3990 3991 3992
6475 1 3987 3990 3991 3993
6476 3 3987 3990 3991 3994
6477 3 3990 3991 3994 3995
6478 1 3992 3991 3994 3995
6479 1 3993 3991 3994 3995
6480 1 3991 3994 3995 3996
6481 1 3991 3994 3995 3997
6482 3 3991 3994 3995 3998
6483 3 3994 3995 3998 3999
6484 1 3996 3995 3998 3999
6485 1 3997 3995 3998 3999
6486 1 3995 3998 3999 4000
6487 1 3995 3998 3999 4001
6488 3 3995 3998 3999 4002
6489 4 3998 3999 4002 118
6490 5 4000 3999 4002 118
6491 5 4001 3999 4002 118
6492 11 3015 113 4003 3983
6493 11 3939 113 4003 3983
6494 6 4024 113 4003 3983
6495 7 113 4003 3983 3984
6496 7 113 4003 3983 3985
6497 8 113 4003 3983 3986
6498 10 3999 4002 118 3267
6499 9 3999 4002 118 4192
6500 1 4005 4004 4007 4008
6501 1 4006 4004 4007 4008
6502 2 4024 4004 4007 4008
6503 1 4004 4007 4008 4009
6504 1 4004 4007 4008 4010
6505 3 4004 4007 4008 4011
6506 3 4007 4008 4011 4012
6507 1 4009 4008 4011 4012
6508 1 4010 4008 4011 4012
6509 1 4008 4011 4012 4013
6510 1 4008 4011 4012 4014
6511 3 4008 4011 4012 4015
6512 3 4011 4012 4015 4016
6513 1 4013 4012 4015 4016
6514 1 4014 4012 4015 4016
6515 1 4012 4015 4016 4017
6516 1 4012 4015 4016 4018
6517 3 4012 4015 4016 4019
6518 3 4015 4016 4019 4020
6519 1 4017 4016 4019 4020
6520 1 4018 4016 4019 4020
6521 1 4016 4019 4020 4021
6522 1 4016 4019 4020 4022
6523 3 4016 4019 4020 4023
6524 4 4019 4020 4023 136
6525 5 4021 4020 4023 136
6526 5 4022 4020 4023 136
6527 11 3015 113 4024 4004
6528 11 3939 113 4024 4004
6529 6 4003 113 4024 4004
6530 7 113 4024 4004 4005
6531 7 113 4024 4004 4006
6532 8 113 4024 4004 4007
6533 10 4020 4023 136 3855
6534 10 4020 4023 136 4443
6535 10 4020 4023 136 4506
6536 1 4026 4025 4028 4029
6537 1 4027 4025 4028 4029
6538 2 4045 4025 4028 4029
6539 1 4025 4028 4029 4030
6540 1 4025 4028 4029 4031
6541 3 4025 4028 4029 4032
6542 3 4028 4029 4032 4033
6543 1 4030 4029 4032 4033
6544 1 4031 4029 4032 4033
6545 1 4029 4032 4033 4034
6546 1 4029 4032 4033 4035
6547 3 4029 4032 4033 4036
6548 3 4032 4033 4036 4037
6549 1 4034 4033 4036 4037
6550 1 4035 4033 4036 4037
6551 1 4033 4036 4037 4038
6552 1 4033 4036 4037 4039
6553 3 4033 4036 4037 4040
6554 3 4036 4037 4040 4041
6555 1 4038 4037 4040 4041
6556 1 4039 4037 4040 4041
6557 1 4037 4040 4041 4042
6558 1 4037 4040 4041 4043
6559 3 4037 4040 4041 4044
6560 4 4040 4041 4044 115
6561 5 4042 4041 4044 115
6562 5 4043 4041 4044 115
6563 11 3078 114 4045 4025
6564 6 4066 114 4045 4025
6565 7 114 4045 4025 4026
6566 7 114 4045 4025 4027
6567 8 114 4045 4025 4028
6568 10 4041 4044 115 3141
6569 9 4041 4044 115 4087
6570 9 4041 4044 115 4108
6571 1 4047 4046 4049 4050
6572 1 4048 4046 4049 4050
6573 2 4066 4046 4049 4050
6574 1 4046 4049 4050 4051
6575 1 4046 4049 4050 4052
6576 3 4046 4049 4050 4053
6577 3 4049 4050 4053 4054
6578 1 4051 4050 4053 4054
6579 1 4052 4050 4053 4054
6580 1 4050 4053 4054 4055
6581 1 4050 4053 4054 4056
6582 3 4050 4053 4054 4057
6583 3 4053 4054 4057 4058
6584 1 4055 4054 4057 4058
6585 1 4056 4054 4057 4058
6586 1 4054 4057 4058 4059
6587 1 4054 4057 4058 4060
6588 3 4054 4057 4058 4061
6589 3 4057 4058 4061 4062
6590 1 4059 4058 4061 4062
6591 1 4060 4058 4061 4062
6592 1 4058 4061 4062 4063
6593 1 4058 4061 4062 4064
6594 3 4058 4061 4062 4065
6595 4 4061 4062 4065 119
6596 5 4063 4062 4065 119
6597 5 4064 4062 4065 119
6598 11 3078 114 4066 4046
6599 6 4045 114 4066 4046
6600 7 114 4066 4046 4047
6601 7 114 4066 4046 4048
6602 8 114 4066 4046 4049
6603 10 4062 4065 119 579
6604 10 4062 4065 119 3330
6605 9 4062 4065 119 4213
6606 1 4068 4067 4070 4071
6607 1 4069 4067 4070 4071
6608 2 4087 4067 4070 4071
6609 1 4067 4070 4071 4072
6610 1 4067 4070 4071 4073
6611 3 4067 4070 4071 4074
6612 3 4070 4071 4074 4075
6613 1 4072 4071 4074 4075
6614 1 4073 4071 4074 4075
6615 1 4071 4074 4075 4076
6616 1 4071 4074 4075 4077
6617 3 4071 4074 4075 4078
6618 3 4074 4075 4078 4079
6619 1 4076 4075 4078 4079
6620 1 4077 4075 4078 4079
6621 1 4075 4078 4079 4080
6622 1 4075 4078 4079 4081
6623 3 4075 4078 4079 4082
6624 3 4078 4079 4082 4083
6625 1 4080 4079 4082 4083
6626 1 4081 4079 4082 4083
6627 1 4079 4082 4083 4084
6628 1 4079 4082 4083 4085
6629 3 4079 4082 4083 4086
6630 4 4082 4083 4086 116
6631 5 4084 4083 4086 116
6632 5 4085 4083 4086 116
6633 11 3141 115 4087 4067
6634 11 4044 115 4087 4067
6635 6 4108 115 4087 4067
6636 7 115 4087 4067 4068
6637 7 115 4087 4067 4069
6638 8 115 4087 4067 4070
6639 10 4083 4086 116 3162
6640 10 4083 4086 116 3960
6641 9 4083 4086 116 4129
6642 1 4089 4088 4091 4092
6643 1 4090 4088 4091 4092
6644 2 4108 4088 4091 4092
6645 1 4088 4091 4092 4093
6646 1 4088 4091 4092 4094
6647 3 4088 4091 4092 4095
6648 3 4091 4092 4095 4096
6649 1 4093 4092 4095 4096
6650 1 4094 4092 4095 4096
6651 1 4092 4095 4096 4097
6652 1 4092 4095 4096 4098
6653 3 4092 4095 4096 4099
6654 3 4095 4096 4099 4100
6655 1 4097 4096 4099 4100
6656 1 4098 4096 4099 4100
6657 1 4096 4099 4100 4101
6658 1 4096 4099 4100 4102
6659 3 4096 4099 4100 4103
6660 3 4099 4100 4103 4104
6661 1 4101 4100 4103 4104
6662 1 4102 4100 4103 4104
6663 1 4100 4103 4104 4105
6664 1 4100 4103 4104 4106
6665 3 4100 4103 4104 4107
6666 4 4103 4104 4107 120
6667 5 4105 4104 4107 120
6668 5 4106 4104 4107 120
6669 11 3141 115 4108 4088
6670 11 4044 115 4108 4088
6671 6 4087 115 4108 4088
6672 7 115 4108 4088 4089
6673 7 115 4108 4088 4090
6674 8 115 4108 4088 4091
6675 10 4104 4107 120 621
6676 9 4104 4107 120 4234
6677 1 4110 4109 4112 4113
6678 1 4111 4109 4112 4113
6679 2 4129 4109 4112 4113
6680 1 4109 4112 4113 4114
6681 1 4109 4112 4113 4115
6682 3 4109 4112 4113 4116
6683 3 4112 4113 4116 4117
6684 1 4114 4113 4116 4117
6685 1 4115 4113 4116 4117
6686 1 4113 4116 4117 4118
6687 1 4113 4116 4117 4119
6688 3 4113 4116 4117 4120
6689 3 4116 4117 4120 4121
6690 1 4118 4117 4120 4121
6691 1 4119 4117 4120 4121
6692 1 4117 4120 4121 4122
6693 1 4117 4120 4121 4123
6694 3 4117 4120 4121 4124
6695 3 4120 4121 4124 4125
6696 1 4122 4121 4124 4125
6697 1 4123 4121 4124 4125
6698 1 4121 4124 4125 4126
6699 1 4121 4124 4125 4127
6700 3 4121 4124 4125 4128
6701 4 4124 4125 4128 139
6702 5 4126 4125 4128 139
6703 5 4127 4125 4128 139
6704 11 3162 116 4129 4109
6705 11 3960 116 4129 4109
6706 11 4086 116 4129 4109
6707 7 116 4129 4109 4110
6708 7 116 4129 4109 4111
6709 8 116 4129 4109 4112
6710 10 4125 4128 139 1272
6711 10 4125 4128 139 4548
6712 1 4131 4130 4133 4134
6713 1 4132 4130 4133 4134
6714 2 4150 4130 4133 4134
6715 1 4130 4133 4134 4135
6716 1 4130 4133 4134 4136
6717 3 4130 4133 4134 4137
6718 3 4133 4134 4137 4138
6719 1 4135 4134 4137 4138
6720 1 4136 4134 4137 4138
6721 1 4134 4137 4138 4139
6722 1 4134 4137 4138 4140
6723 3 4134 4137 4138 4141
6724 3 4137 4138 4141 4142
6725 1 4139 4138 4141 4142
6726 1 4140 4138 4141 4142
6727 1 4138 4141 4142 4143
6728 1 4138 4141 4142 4144
6729 3 4138 4141 4142 4145
6730 3 4141 4142 4145 4146
6731 1 4143 4142 4145 4146
6732 1 4144 4142 4145 4146
6733 1 4142 4145 4146 4147
6734 1 4142 4145 4146 4148
6735 3 4142 4145 4146 4149
6736 4 4145 4146 4149 122
6737 5 4147 4146 4149 122
6738 5 4148 4146 4149 122
6739 11 495 117 4150 4130
6740 11 3225 117 4150 4130
6741 6 4171 117 4150 4130
6742 7 117 4150 4130 4131
6743 7 117 4150 4130 4132
6744 8 117 4150 4130 4133
6745 10 4146 4149 122 3435
6746 9 4146 4149 122 4276
6747 9 4146 4149 122 4297
6748 1 4152 4151 4154 4155
6749 1 4153 4151 4154 4155
6750 2 4171 4151 4154 4155
6751 1 4151 4154 4155 4156
6752 1 4151 4154 4155 4157
6753 3 4151 4154 4155 4158
6754 3 4154 4155 4158 4159
6755 1 4156 4155 4158 4159
6756 1 4157 4155 4158 4159
6757 1 4155 4158 4159 4160
6758 1 4155 4158 4159 4161
6759 3 4155 4158 4159 4162
6760 3 4158 4159 4162 4163
6761 1 4160 4159 4162 4163
6762 1 4161 4159 4162 4163
6763 1 4159 4162 4163 4164
6764 1 4159 4162 4163 4165
6765 3 4159 4162 4163 4166
6766 3 4162 4163 4166 4167
6767 1 4164 4163 4166 4167
6768 1 4165 4163 4166 4167
6769 1 4163 4166 4167 4168
6770 1 4163 4166 4167 4169
6771 3 4163 4166 4167 4170
6772 4 4166 4167 4170 121
6773 5 4168 4167 4170 121
6774 5 4169 4167 4170 121
6775 11 495 117 4171 4151
6776 11 3225 117 4171 4151
6777 6 4150 117 4171 4151
6778 7 117 4171 4151 4152
6779 7 117 4171 4151 4153
6780 8 117 4171 4151 4154
6781 10 4167 4170 121 3393
6782 9 4167 4170 121 4255
6783 1 4173 4172 4175 4176
6784 1 4174 4172 4175 4176
6785 2 4192 4172 4175 4176
6786 1 4172 4175 4176 4177
6787 1 4172 4175 4176 4178
6788 3 4172 4175 4176 4179
6789 3 4175 4176 4179 4180
6790 1 4177 4176 4179 4180
6791 1 4178 4176 4179 4180
6792 1 4176 4179 4180 4181
6793 1 4176 4179 4180 4182
6794 3 4176 4179 4180 4183
6795 3 4179 4180 4183 4184
6796 1 4181 4180 4183 4184
6797 1 4182 4180 4183 4184
6798 1 4180 4183 4184 4185
6799 1 4180 4183 4184 4186
6800 3 4180 4183 4184 4187
6801 3 4183 4184 4187 4188
6802 1 4185 4184 4187 4188
6803 1 4186 4184 4187 4188
6804 1 4184 4187 4188 4189
6805 1 4184 4187 4188 4190
6806 3 4184 4187 4188 4191
6807 4 4187 4188 4191 123
6808 5 4189 4188 4191 123
6809 5 4190 4188 4191 123
6810 11 3267 118 4192 4172
6811 11 4002 118 4192 4172
6812 7 118 4192 4172 4173
6813 7 118 4192 4172 4174
6814 8 118 4192 4172 4175
6815 10 4188 4191 123 3498
6816 10 4188 4191 123 4275
6817 9 4188 4191 123 4318
6818 1 4194 4193 4196 4197
6819 1 4195 4193 4196 4197
6820 2 4213 4193 4196 4197
6821 1 4193 4196 4197 4198
6822 1 4193 4196 4197 4199
6823 3 4193 4196 4197 4200
6824 3 4196 4197 4200 4201
6825 1 4198 4197 4200 4201
6826 1 4199 4197 4200 4201
6827 1 4197 4200 4201 4202
6828 1 4197 4200 4201 4203
6829 3 4197 4200 4201 4204
6830 3 4200 4201 4204 4205
6831 1 4202 4201 4204 4205
6832 1 4203 4201 4204 4205
6833 1 4201 4204 4205 4206
6834 1 4201 4204 4205 4207
6835 3 4201 4204 4205 4208
6836 3 4204 4205 4208 4209
6837 1 4206 4205 4208 4209
6838 1 4207 4205 4208 4209
6839 1 4205 4208 4209 4210
6840 1 4205 4208 4209 4211
6841 3 4205 4208 4209 4212
6842 4 4208 4209 4212 124
6843 5 4210 4209 4212 124
6844 5 4211 4209 4212 124
6845 11 579 119 4213 4193
6846 11 3330 119 4213 4193
6847 11 4065 119 4213 4193
6848 7 119 4213 4193 4194
6849 7 119 4213 4193 4195
6850 8 119 4213 4193 4196
6851 10 4209 4212 124 810
6852 10 4209 4212 124 4317
6853 9 4209 4212 124 4339
6854 1 4215 4214 4217 4218
6855 1 4216 4214 4217 4218
6856 2 4234 4214 4217 4218
6857 1 4214 4217 4218 4219
6858 1 4214 4217 4218 4220
6859 3 4214 4217 4218 4221
6860 3 4217 4218 4221 4222
6861 1 4219 4218 4221 4222
6862 1 4220 4218 4221 4222
6863 1 4218 4221 4222 4223
6864 1 4218 4221 4222 4224
6865 3 4218 4221 4222 4225
6866 3 4221 4222 4225 4226
6867 1 4223 4222 4225 4226
6868 1 4224 4222 4225 4226
6869 1 4222 4225 4226 4227
6870 1 4222 4225 4226 4228
6871 3 4222 4225 4226 4229
6872 3 4225 4226 4229 4230
6873 1 4227 4226 4229 4230
6874 1 4228 4226 4229 4230
6875 1 4226 4229 4230 4231
6876 1 4226 4229 4230 4232
6877 3 4226 4229 4230 4233
6878 4 4229 4230 4233 125
6879 5 4231 4230 4233 125
6880 5 4232 4230 4233 125
6881 11 621 120 4234 4214
6882 11 4107 120 4234 4214
6883 7 120 4234 4214 4215
6884 7 120 4234 4214 4216
6885 8 120 4234 4214 4217
6886 10 4230 4233 125 873
6887 9 4230 4233 125 4360
6888 9 4230 4233 125 4381
6889 1 4236 4235 4238 4239
6890 1 4237 4235 4238 4239
6891 2 4255 4235 4238 4239
6892 1 4235 4238 4239 4240
6893 1 4235 4238 4239 4241
6894 3 4235 4238 4239 4242
6895 3 4238 4239 4242 4243
6896 1 4240 4239 4242 4243
6897 1 4241 4239 4242 4243
6898 1 4239 4242 4243 4244
6899 1 4239 4242 4243 4245
6900 3 4239 4242 4243 4246
6901 3 4242 4243 4246 4247
6902 1 4244 4243 4246 4247
6903 1 4245 4243 4246 4247
6904 1 4243 4246 4247 4248
6905 1 4243 4246 4247 4249
6906 3 4243 4246 4247 4250
6907 3 4246 4247 4250 4251
6908 1 4248 4247 4250 4251
6909 1 4249 4247 4250 4251
6910 1 4247 4250 4251 4252
6911 1 4247 4250 4251 4253
6912 3 4247 4250 4251 4254
6913 4 4250 4251 4254 126
6914 5 4252 4251 4254 126
6915 5 4253 4251 4254 126
6916 11 3393 121 4255 4235
6917 11 4170 121 4255 4235
6918 7 121 4255 4235 4236
6919 7 121 4255 4235 4237
6920 8 121 4255 4235 4238
6921 10 4251 4254 126 3582
6922 10 4251 4254 126 4359
6923 9 4251 4254 126 4402
6924 1 4257 4256 4259 4260
6925 1 4258 4256 4259 4260
6926 2 4276 4256 4259 4260
6927 1 4256 4259 4260 4261
6928 1 4256 4259 4260 4262
6929 3 4256 4259 4260 4263
6930 3 4259 4260 4263 4264
6931 1 4261 4260 4263 4264
6932 1 4262 4260 4263 4264
6933 1 4260 4263 4264 4265
6934 1 4260 4263 4264 4266
6935 3 4260 4263 4264 4267
6936 3 4263 4264 4267 4268
6937 1 4265 4264 4267 4268
6938 1 4266 4264 4267 4268
6939 1 4264 4267 4268 4269
6940 1 4264 4267 4268 4270
6941 3 4264 4267 4268 4271
6942 3 4267 4268 4271 4272
6943 1 4269 4268 4271 4272
6944 1 4270 4268 4271 4272
6945 1 4268 4271 4272 4273
6946 1 4268 4271 4272 4274
6947 3 4268 4271 4272 4275
6948 4 4271 4272 4275 123
6949 5 4273 4272 4275 123
6950 5 4274 4272 4275 123
6951 11 3435 122 4276 4256
6952 11 4149 122 4276 4256
6953 6 4297 122 4276 4256
6954 7 122 4276 4256 4257
6955 7 122 4276 4256 4258
6956 8 122 4276 4256 4259
6957 10 4272 4275 123 3498
6958 10 4272 4275 123 4191
6959 9 4272 4275 123 4318
6960 1 4278 4277 4280 4281
6961 1 4279 4277 4280 4281
6962 2 4297 4277 4280 4281
6963 1 4277 4280 4281 4282
6964 1 4277 4280 4281 4283
6965 3 4277 4280 4281 4284
6966 3 4280 4281 4284 4285
6967 1 4282 4281 4284 4285
6968 1 4283 4281 4284 4285
6969 1 4281 4284 4285 4286
6970 1 4281 4284 4285 4287
6971 3 4281 4284 4285 4288
6972 3 4284 4285 4288 4289
6973 1 4286 4285 4288 4289
6974 1 4287 4285 4288 4289
6975 1 4285 4288 4289 4290
6976 1 4285 4288 4289 4291
6977 3 4285 4288 4289 4292
6978 3 4288 4289 4292 4293
6979 1 4290 4289 4292 4293
6980 1 4291 4289 4292 4293
6981 1 4289 4292 4293 4294
6982 1 4289 4292 4293 4295
6983 3 4289 4292 4293 4296
6984 3 4292 4293 4296 127
6985 1 4294 4293 4296 127
6986 1 4295 4293 4296 127
6987 11 3435 122 4297 4277
6988 11 4149 122 4297 4277
6989 6 4276 122 4297 4277
6990 7 122 4297 4277 4278
6991 7 122 4297 4277 4279
6992 8 122 4297 4277 4280
6993 1 4293 4296 127 128
6994 1 4293 4296 127 129
6995 1 4293 4296 127 130
6996 1 4299 4298 4301 4302
6997 1 4300 4298 4301 4302
6998 2 4318 4298 4301 4302
6999 1 4298 4301 4302 4303
7000 1 4298 4301 4302 4304
7001 3 4298 4301 4302 4305
7002 3 4301 4302 4305 4306
7003 1 4303 4302 4305 4306
7004 1 4304 4302 4305 4306
7005 1 4302 4305 4306 4307
7006 1 4302 4305 4306 4308
7007 3 4302 4305 4306 4309
7008 3 4305 4306 4309 4310
7009 1 4307 4306 4309 4310
7010 1 4308 4306 4309 4310
7011 1 4306 4309 4310 4311
7012 1 4306 4309 4310 4312
7013 3 4306 4309 4310 4313
7014 3 4309 4310 4313 4314
7015 1 4311 4310 4313 4314
7016 1 4312 4310 4313 4314
7017 1 4310 4313 4314 4315
7018 1 4310 4313 4314 4316
7019 3 4310 4313 4314 4317
7020 4 4313 4314 4317 124
7021 5 4315 4314 4317 124
7022 5 4316 4314 4317 124
7023 11 3498 123 4318 4298
7024 11 4191 123 4318 4298
7025 11 4275 123 4318 4298
7026 7 123 4318 4298 4299
7027 7 123 4318 4298 4300
7028 8 123 4318 4298 4301
7029 10 4314 4317 124 810
7030 10 4314 4317 124 4212
7031 9 4314 4317 124 4339
7032 1 4320 4319 4322 4323
7033 1 4321 4319 4322 4323
7034 2 4339 4319 4322 4323
7035 1 4319 4322 4323 4324
7036 1 4319 4322 4323 4325
7037 3 4319 4322 4323 4326
7038 3 4322 4323 4326 4327
7039 1 4324 4323 4326 4327
7040 1 4325 4323 4326 4327
7041 1 4323 4326 4327 4328
7042 1 4323 4326 4327 4329
7043 3 4323 4326 4327 4330
7044 3 4326 4327 4330 4331
7045 1 4328 4327 4330 4331
7046 1 4329 4327 4330 4331
7047 1 4327 4330 4331 4332
7048 1 4327 4330 4331 4333
7049 3 4327 4330 4331 4334
7050 3 4330 4331 4334 4335
7051 1 4332 4331 4334 4335
7052 1 4333 4331 4334 4335
7053 1 4331 4334 4335 4336
7054 1 4331 4334 4335 4337
7055 3 4331 4334 4335 4338
7056 4 4334 4335 4338 132
7057 5 4336 4335 4338 132
7058 5 4337 4335 4338 132
7059 11 810 124 4339 4319
7060 11 4212 124 4339 4319
7061 11 4317 124 4339 4319
7062 7 124 4339 4319 4320
7063 7 124 4339 4319 4321
7064 8 124 4339 4319 4322
7065 10 4335 4338 132 3687
7066 10 4335 4338 132 4422
7067 9 4335 4338 132 4465
7068 1 4341 4340 4343 4344
7069 1 4342 4340 4343 4344
7070 2 4360 4340 4343 4344
7071 1 4340 4343 4344 4345
7072 1 4340 4343 4344 4346
7073 3 4340 4343 4344 4347
7074 3 4343 4344 4347 4348
7075 1 4345 4344 4347 4348
7076 1 4346 4344 4347 4348
7077 1 4344 4347 4348 4349
7078 1 4344 4347 4348 4350
7079 3 4344 4347 4348 4351
7080 3 4347 4348 4351 4352
7081 1 4349 4348 4351 4352
7082 1 4350 4348 4351 4352
7083 1 4348 4351 4352 4353
7084 1 4348 4351 4352 4354
7085 3 4348 4351 4352 4355
7086 3 4351 4352 4355 4356
7087 1 4353 4352 4355 4356
7088 1 4354 4352 4355 4356
7089 1 4352 4355 4356 4357
7090 1 4352 4355 4356 4358
7091 3 4352 4355 4356 4359
7092 4 4355 4356 4359 126
7093 5 4357 4356 4359 126
7094 5 4358 4356 4359 126
7095 11 873 125 4360 4340
7096 11 4233 125 4360 4340
7097 6 4381 125 4360 4340
7098 7 125 4360 4340 4341
7099 7 125 4360 4340 4342
7100 8 125 4360 4340 4343
7101 10 4356 4359 126 3582
7102 10 4356 4359 126 4254
7103 9 4356 4359 126 4402
7104 1 4362 4361 4364 4365
7105 1 4363 4361 4364 4365
7106 2 4381 4361 4364 4365
7107 1 4361 4364 4365 4366
7108 1 4361 4364 4365 4367
7109 3 4361 4364 4365 4368
7110 3 4364 4365 4368 4369
7111 1 4366 4365 4368 4369
7112 1 4367 4365 4368 4369
7113 1 4365 4368 4369 4370
7114 1 4365 4368 4369 4371
7115 3 4365 4368 4369 4372
7116 3 4368 4369 4372 4373
7117 1 4370 4369 4372 4373
7118 1 4371 4369 4372 4373
7119 1 4369 4372 4373 4374
7120 1 4369 4372 4373 4375
7121 3 4369 4372 4373 4376
7122 3 4372 4373 4376 4377
7123 1 4374 4373 4376 4377
7124 1 4375 4373 4376 4377
7125 1 4373 4376 4377 4378
7126 1 4373 4376 4377 4379
7127 3 4373 4376 4377 4380
7128 4 4376 4377 4380 133
7129 5 4378 4377 4380 133
7130 5 4379 4377 4380 133
7131 11 873 125 4381 4361
7132 11 4233 125 4381 4361
7133 6 4360 125 4381 4361
7134 7 125 4381 4361 4362
7135 7 125 4381 4361 4363
7136 8 125 4381 4361 4364
7137 10 4377 4380 133 1062
7138 10 4377 4380 133 3750
7139 9 4377 4380 133 4486
7140 1 4383 4382 4385 4386
7141 1 4384 4382 4385 4386
7142 2 4402 4382 4385 4386
7143 1 4382 4385 4386 4387
7144 1 4382 4385 4386 4388
7145 3 4382 4385 4386 4389
7146 3 4385 4386 4389 4390
7147 1 4387 4386 4389 4390
7148 1 4388 4386 4389 4390
7149 1 4386 4389 4390 4391
7150 1 4386 4389 4390 4392
7151 3 4386 4389 4390 4393
7152 3 4389 4390 4393 4394
7153 1 4391 4390 4393 4394
7154 1 4392 4390 4393 4394
7155 1 4390 4393 4394 4395
7156 1 4390 4393 4394 4396
7157 3 4390 4393 4394 4397
7158 3 4393 4394 4397 4398
7159 1 4395 4394 4397 4398
7160 1 4396 4394 4397 4398
7161 1 4394 4397 4398 4399
7162 1 4394 4397 4398 4400
7163 3 4394 4397 4398 4401
7164 4 4397 4398 4401 134
7165 5 4399 4398 4401 134
7166 5 4400 4398 4401 134
7167 11 3582 126 4402 4382
7168 11 4254 126 4402 4382
7169 11 4359 126 4402 4382
7170 7 126 4402 4382 4383
7171 7 126 4402 4382 4384
7172 8 126 4402 4382 4385
7173 10 4398 4401 134 1104
7174 10 4398 4401 134 3771
7175 1 4404 4403 4406 4407
7176 1 4405 4403 4406 4407
7177 2 4423 4403 4406 4407
7178 1 4403 4406 4407 4408
7179 1 4403 4406 4407 4409
7180 3 4403 4406 4407 4410
7181 3 4406 4407 4410 4411
7182 1 4408 4407 4410 4411
7183 1 4409 4407 4410 4411
7184 1 4407 4410 4411 4412
7185 1 4407 4410 4411 4413
7186 3 4407 4410 4411 4414
7187 3 4410 4411 4414 4415
7188 1 4412 4411 4414 4415
7189 1 4413 4411 4414 4415
7190 1 4411 4414 4415 4416
7191 1 4411 4414 4415 4417
7192 3 4411 4414 4415 4418
7193 3 4414 4415 4418 4419
7194 1 4416 4415 4418 4419
7195 1 4417 4415 4418 4419
7196 1 4415 4418 4419 4420
7197 1 4415 4418 4419 4421
7198 3 4415 4418 4419 4422
7199 4 4418 4419 4422 132
7200 5 4420 4419 4422 132
7201 5 4421 4419 4422 132
7202 11 999 131 4423 4403
7203 11 3666 131 4423 4403
7204 6 4444 131 4423 4403
7205 7 131 4423 4403 4404
7206 7 131 4423 4403 4405
7207 8 131 4423 4403 4406
7208 10 4419 4422 132 3687
7209 10 4419 4422 132 4338
7210 9 4419 4422 132 4465
7211 1 4425 4424 4427 4428
7212 1 4426 4424 4427 4428
7213 2 4444 4424 4427 4428
7214 1 4424 4427 4428 4429
7215 1 4424 4427 4428 4430
7216 3 4424 4427 4428 4431
7217 3 4427 4428 4431 4432
7218 1 4429 4428 4431 4432
7219 1 4430 4428 4431 4432
7220 1 4428 4431 4432 4433
7221 1 4428 4431 4432 4434
7222 3 4428 4431 4432 4435
7223 3 4431 4432 4435 4436
7224 1 4433 4432 4435 4436
7225 1 4434 4432 4435 4436
7226 1 4432 4435 4436 4437
7227 1 4432 4435 4436 4438
7228 3 4432 4435 4436 4439
7229 3 4435 4436 4439 4440
7230 1 4437 4436 4439 4440
7231 1 4438 4436 4439 4440
7232 1 4436 4439 4440 4441
7233 1 4436 4439 4440 4442
7234 3 4436 4439 4440 4443
7235 4 4439 4440 4443 136
7236 5 4441 4440 4443 136
7237 5 4442 4440 4443 136
7238 11 999 131 4444 4424
7239 11 3666 131 4444 4424
7240 6 4423 131 4444 4424
7241 7 131 4444 4424 4425
7242 7 131 4444 4424 4426
7243 8 131 4444 4424 4427
7244 10 4440 4443 136 3855
7245 10 4440 4443 136 4023
7246 10 4440 4443 136 4506
7247 1 4446 4445 4448 4449
7248 1 4447 4445 4448 4449
7249 2 4465 4445 4448 4449
7250 1 4445 4448 4449 4450
7251 1 4445 4448 4449 4451
7252 3 4445 4448 4449 4452
7253 3 4448 4449 4452 4453
7254 1 4450 4449 4452 4453
7255 1 4451 4449 4452 4453
7256 1 4449 4452 4453 4454
7257 1 4449 4452 4453 4455
7258 3 4449 4452 4453 4456
7259 3 4452 4453 4456 4457
7260 1 4454 4453 4456 4457
7261 1 4455 4453 4456 4457
7262 1 4453 4456 4457 4458
7263 1 4453 4456 4457 4459
7264 3 4453 4456 4457 4460
7265 3 4456 4457 4460 4461
7266 1 4458 4457 4460 4461
7267 1 4459 4457 4460 4461
7268 1 4457 4460 4461 4462
7269 1 4457 4460 4461 4463
7270 3 4457 4460 4461 4464
7271 4 4460 4461 4464 137
7272 5 4462 4461 4464 137
7273 5 4463 4461 4464 137
7274 11 3687 132 4465 4445
7275 11 4338 132 4465 4445
7276 11 4422 132 4465 4445
7277 7 132 4465 4445 4446
7278 7 132 4465 4445 4447
7279 8 132 4465 4445 4448
7280 10 4461 4464 137 3897
7281 9 4461 4464 137 4528
7282 1 4467 4466 4469 4470
7283 1 4468 4466 4469 4470
7284 2 4486 4466 4469 4470
7285 1 4466 4469 4470 4471
7286 1 4466 4469 4470 4472
7287 3 4466 4469 4470 4473
7288 3 4469 4470 4473 4474
7289 1 4471 4470 4473 4474
7290 1 4472 4470 4473 4474
7291 1 4470 4473 4474 4475
7292 1 4470 4473 4474 4476
7293 3 4470 4473 4474 4477
7294 3 4473 4474 4477 4478
7295 1 4475 4474 4477 4478
7296 1 4476 4474 4477 4478
7297 1 4474 4477 4478 4479
7298 1 4474 4477 4478 4480
7299 3 4474 4477 4478 4481
7300 3 4477 4478 4481 4482
7301 1 4479 4478 4481 4482
7302 1 4480 4478 4481 4482
7303 1 4478 4481 4482 4483
7304 1 4478 4481 4482 4484
7305 3 4478 4481 4482 4485
7306 4 4481 4482 4485 138
7307 5 4483 4482 4485 138
7308 5 4484 4482 4485 138
7309 11 1062 133 4486 4466
7310 11 3750 133 4486 4466
7311 11 4380 133 4486 4466
7312 7 133 4486 4466 4467
7313 7 133 4486 4466 4468
7314 8 133 4486 4466 4469
7315 10 4482 4485 138 3918
7316 10 4482 4485 138 4527
7317 9 4482 4485 138 4549
7318 1 4488 4487 4490 4491
7319 1 4489 4487 4490 4491
7320 2 4507 4487 4490 4491
7321 1 4487 4490 4491 4492
7322 1 4487 4490 4491 4493
7323 3 4487 4490 4491 4494
7324 3 4490 4491 4494 4495
7325 1 4492 4491 4494 4495
7326 1 4493 4491 4494 4495
7327 1 4491 4494 4495 4496
7328 1 4491 4494 4495 4497
7329 3 4491 4494 4495 4498
7330 3 4494 4495 4498 4499
7331 1 4496 4495 4498 4499
7332 1 4497 4495 4498 4499
7333 1 4495 4498 4499 4500
7334 1 4495 4498 4499 4501
7335 3 4495 4498 4499 4502
7336 3 4498 4499 4502 4503
7337 1 4500 4499 4502 4503
7338 1 4501 4499 4502 4503
7339 1 4499 4502 4503 4504
7340 1 4499 4502 4503 4505
7341 3 4499 4502 4503 4506
7342 4 4502 4503 4506 136
7343 5 4504 4503 4506 136
7344 5 4505 4503 4506 136
7345 11 3813 135 4507 4487
7346 11 3981 135 4507 4487
7347 7 135 4507 4487 4488
7348 7 135 4507 4487 4489
7349 8 135 4507 4487 4490
7350 10 4503 4506 136 3855
7351 10 4503 4506 136 4023
7352 10 4503 4506 136 4443
7353 1 4509 4508 4511 4512
7354 1 4510 4508 4511 4512
7355 2 4528 4508 4511 4512
7356 1 4508 4511 4512 4513
7357 1 4508 4511 4512 4514
7358 3 4508 4511 4512 4515
7359 3 4511 4512 4515 4516
7360 1 4513 4512 4515 4516
7361 1 4514 4512 4515 4516
7362 1 4512 4515 4516 4517
7363 1 4512 4515 4516 4518
7364 3 4512 4515 4516 4519
7365 3 4515 4516 4519 4520
7366 1 4517 4516 4519 4520
7367 1 4518 4516 4519 4520
7368 1 4516 4519 4520 4521
7369 1 4516 4519 4520 4522
7370 3 4516 4519 4520 4523
7371 3 4519 4520 4523 4524
7372 1 4521 4520 4523 4524
7373 1 4522 4520 4523 4524
7374 1 4520 4523 4524 4525
7375 1 4520 4523 4524 4526
7376 3 4520 4523 4524 4527
7377 4 4523 4524 4527 138
7378 5 4525 4524 4527 138
7379 5 4526 4524 4527 138
7380 11 3897 137 4528 4508
7381 11 4464 137 4528 4508
7382 7 137 4528 4508 4509
7383 7 137 4528 4508 4510
7384 8 137 4528 4508 4511
7385 10 4524 4527 138 3918
7386 10 4524 4527 138 4485
7387 9 4524 4527 138 4549
7388 1 4530 4529 4532 4533
7389 1 4531 4529 4532 4533
7390 2 4549 4529 4532 4533
7391 1 4529 4532 4533 4534
7392 1 4529 4532 4533 4535
7393 3 4529 4532 4533 4536
7394 3 4532 4533 4536 4537
7395 1 4534 4533 4536 4537
7396 1 4535 4533 4536 4537
7397 1 4533 4536 4537 4538
7398 1 4533 4536 4537 4539
7399 3 4533 4536 4537 4540
7400 3 4536 4537 4540 4541
7401 1 4538 4537 4540 4541
7402 1 4539 4537 4540 4541
7403 1 4537 4540 4541 4542
7404 1 4537 4540 4541 4543
7405 3 4537 4540 4541 4544
7406 3 4540 4541 4544 4545
7407 1 4542 4541 4544 4545
7408 1 4543 4541 4544 4545
7409 1 4541 4544 4545 4546
7410 1 4541 4544 4545 4547
7411 3 4541 4544 4545 4548
7412 4 4544 4545 4548 139
7413 5 4546 4545 4548 139
7414 5 4547 4545 4548 139
7415 11 3918 138 4549 4529
7416 11 4485 138 4549 4529
7417 11 4527 138 4549 4529
7418 7 138 4549 4529 4530
7419 7 138 4549 4529 4531
7420 8 138 4549 4529 4532
7421 10 4545 4548 139 1272
7422 10 4545 4548 139 4128

