LAMMPS (2 Apr 2025)
OMP_NUM_THREADS environment is not set. Defaulting to 1 thread. (src/comm.cpp:99)
  using 1 OpenMP thread(s) per MPI task
Loaded 1 plugins from C:\Users\ahmet\AppData\Local\LAMMPS 64-bit 2Apr2025\plugins
# LAMMPS Stage 2: CG Harmonic Ramp (Reference Logic)

read_restart    1.restart
Reading restart file ...
  restart file = 2 Apr 2025, LAMMPS = 2 Apr 2025
  restoring atom style full from restart
  orthogonal box = (0 0 0) to (17.2183 17.2183 17.2183)
  1 by 1 by 1 MPI processor grid
  restoring pair style soft from restart
  restoring bond style harmonic from restart
  restoring angle style harmonic from restart
  4339 atoms
  4428 bonds
  4788 angles
Finding 1-2 1-3 1-4 neighbors ...
  special bond factors lj:    0        1        1       
  special bond factors coul:  0        0        0       
     4 = max # of 1-2 neighbors
     4 = max # of 1-3 neighbors
     8 = max # of 1-4 neighbors
    12 = max # of special neighbors
  special bonds CPU = 0.001 seconds
  read_restart CPU = 0.002 seconds

neighbor        2.0 bin
neigh_modify    every 1 delay 0 check yes
comm_modify     mode single cutoff 5.0

# SWITCH TO HARMONIC for Robust Minimization
bond_style      harmonic
bond_coeff      1 466.1 0.97
angle_style     harmonic
angle_coeff     1 466.1 180.0

# Soft to Real Potential Ramp
pair_style      soft 1.0
pair_coeff      * * 1.0
min_style       cg
minimize        1e-4 1e-6 1000 10000
Generated 0 of 1 mixed pair_coeff terms from geometric mixing rule
Neighbor list info ...
  update: every = 1 steps, delay = 0 steps, check = yes
  max neighbors/atom: 2000, page size: 100000
  master list distance cutoff = 3
  ghost atom cutoff = 5
  binsize = 1.5, bins = 12 12 12
  1 neighbor lists, perpetual/occasional/extra = 1 0 0
  (1) pair soft, perpetual
      attributes: half, newton on
      pair build: half/bin/newton
      stencil: half/bin/3d
      bin: standard
WARNING: Inconsistent image flags
For more information see https://docs.lammps.org/err0027 (src/domain.cpp:1052)
Per MPI rank memory allocation (min/avg/max) = 20.18 | 20.18 | 20.18 Mbytes
   Step          Temp          E_pair         E_mol          TotEng         Press     
       168   0              2.770894       384.89382      387.66472      42.015773    
       181   0              2.7219192      382.64813      385.37005      42.635994    
Loop time of 0.069623 on 1 procs for 13 steps with 4339 atoms

89.8% CPU use with 1 MPI tasks x 1 OpenMP threads

Minimization stats:
  Stopping criterion = energy tolerance
  Energy initial, next-to-last, final = 
      387.664716517715   385.371543209659   385.370053323824
  Force two-norm initial, final = 50996.689 31101.606
  Force max component initial, final = 18694.183 10077.779
  Final line search alpha, max atom move = 8.1986338e-07 0.0082624022
  Iterations, force evaluations = 13 37

MPI task timing breakdown:
Section |  min time  |  avg time  |  max time  |%varavg| %total
---------------------------------------------------------------
Pair    | 0.06254    | 0.06254    | 0.06254    |   0.0 | 89.83
Bond    | 0.005131   | 0.005131   | 0.005131   |   0.0 |  7.37
Neigh   | 0          | 0          | 0          |   0.0 |  0.00
Comm    | 0.00087    | 0.00087    | 0.00087    |   0.0 |  1.25
Output  | 0          | 0          | 0          |   0.0 |  0.00
Modify  | 0          | 0          | 0          |   0.0 |  0.00
Other   |            | 0.001082   |            |       |  1.55

Nlocal:           4339 ave        4339 max        4339 min
Histogram: 1 0 0 0 0 0 0 0 0 0
Nghost:          13054 ave       13054 max       13054 min
Histogram: 1 0 0 0 0 0 0 0 0 0
Neighs:         180305 ave      180305 max      180305 min
Histogram: 1 0 0 0 0 0 0 0 0 0

Total # of neighbors = 180305
Ave neighs/atom = 41.554506
Ave special neighs/atom = 6.6042867
Neighbor list builds = 0
Dangerous builds = 0

pair_style      lj/cut 2.5
pair_coeff      * * 1.0 1.0 2.5
variable        scale equal "ramp(0.001, 1.0)"
fix             1 all adapt 1 pair lj/cut epsilon * * v_scale
fix             fxnve all nve/limit 0.1
thermo          1000
run             20000
Generated 0 of 1 mixed pair_coeff terms from geometric mixing rule
Neighbor list info ...
  update: every = 1 steps, delay = 0 steps, check = yes
  max neighbors/atom: 2000, page size: 100000
  master list distance cutoff = 4.5
  ghost atom cutoff = 5
  binsize = 2.25, bins = 8 8 8
  1 neighbor lists, perpetual/occasional/extra = 1 0 0
  (1) pair lj/cut, perpetual
      attributes: half, newton on
      pair build: half/bin/newton
      stencil: half/bin/3d
      bin: standard
WARNING: Inconsistent image flags
For more information see https://docs.lammps.org/err0027 (src/domain.cpp:1052)
Per MPI rank memory allocation (min/avg/max) = 20.45 | 20.45 | 20.45 Mbytes
   Step          Temp          E_pair         E_mol          TotEng         Press     
       181   0              5115.7947      382.64813      5498.4428      17439.893    
      1000   29.343031      3.9535817      186.25867      234.21665      23.997966    
      2000   25.575779      4.1212597      174.38304      216.85912      25.410096    
      3000   23.887035      3.9317576      170.40339      210.15744      27.657702    
      4000   22.265495      3.9092299      168.47726      205.77704      27.096422    
      5000   21.739597      3.5241494      166.42735      202.55338      27.815429    
      6000   21.205903      3.5981218      164.88152      200.28117      30.026098    
      7000   20.747833      3.4496214      164.62354      199.18774      30.084452    
      8000   20.44161       3.0723099      164.65884      198.3865       28.902281    
      9000   20.037406      3.227843       163.81708      197.0941       31.658964    
     10000   19.665296      3.0952875      163.42493      196.01136      31.764287    
     11000   19.505086      2.6874334      163.02262      194.96094      31.029887    
     12000   18.882689      2.5367876      163.36556      194.21985      31.876727    
     13000   19.090348      2.5280664      162.43864      193.59563      33.012522    
     14000   19.136755      2.346199       161.96666      193.01137      33.650015    
     15000   18.6854        2.1089315      162.5679       192.69847      32.467707    
     16000   18.551989      2.07621        162.3503       192.24808      33.834845    
     17000   18.504001      1.7140412      162.33504      191.79869      33.274388    
     18000   18.475524      1.6551514      162.10787      191.46992      34.548068    
     19000   18.379866      1.3767117      162.07263      191.01279      34.348976    
     20000   18.088716      1.3888137      162.09225      190.60788      35.303685    
     20181   18.222336      1.2200941      162.0161       190.5634       34.985625    
Loop time of 62.7295 on 1 procs for 20000 steps with 4339 atoms

Performance: 137734.211 tau/day, 318.829 timesteps/s, 1.383 Matom-step/s
97.2% CPU use with 1 MPI tasks x 1 OpenMP threads

MPI task timing breakdown:
Section |  min time  |  avg time  |  max time  |%varavg| %total
---------------------------------------------------------------
Pair    | 44.359     | 44.359     | 44.359     |   0.0 | 70.72
Bond    | 3.2127     | 3.2127     | 3.2127     |   0.0 |  5.12
Neigh   | 13.963     | 13.963     | 13.963     |   0.0 | 22.26
Comm    | 0.59051    | 0.59051    | 0.59051    |   0.0 |  0.94
Output  | 0.000334   | 0.000334   | 0.000334   |   0.0 |  0.00
Modify  | 0.39288    | 0.39288    | 0.39288    |   0.0 |  0.63
Other   |            | 0.2104     |            |       |  0.34

Nlocal:           4339 ave        4339 max        4339 min
Histogram: 1 0 0 0 0 0 0 0 0 0
Nghost:          12771 ave       12771 max       12771 min
Histogram: 1 0 0 0 0 0 0 0 0 0
Neighs:         697864 ave      697864 max      697864 min
Histogram: 1 0 0 0 0 0 0 0 0 0

Total # of neighbors = 697864
Ave neighs/atom = 160.83522
Ave special neighs/atom = 6.6042867
Neighbor list builds = 1119
Dangerous builds = 0
unfix           fxnve
unfix           1

write_restart   2.restart
System init for write_restart ...
Generated 0 of 1 mixed pair_coeff terms from geometric mixing rule
write_data      system_ramped.data
System init for write_data ...
Generated 0 of 1 mixed pair_coeff terms from geometric mixing rule
WARNING: Not all mixed pair coeffs generated from mixing. Use write_data with 'pair ij' option to store all pair coeffs. (src/write_data.cpp:364)
Total wall time: 0:01:02
