LAMMPS (2 Apr 2025)
OMP_NUM_THREADS environment is not set. Defaulting to 1 thread. (src/comm.cpp:99)
  using 1 OpenMP thread(s) per MPI task
Loaded 1 plugins from C:\Users\ahmet\AppData\Local\LAMMPS 64-bit 2Apr2025\plugins
# LAMMPS Stage 3: CG Equilibration (FENE Restore)

read_restart    2.restart
Reading restart file ...
  restart file = 2 Apr 2025, LAMMPS = 2 Apr 2025
  restoring atom style full from restart
  orthogonal box = (0 0 0) to (17.2183 17.2183 17.2183)
  1 by 1 by 1 MPI processor grid
  restoring pair style lj/cut from restart
  restoring bond style harmonic from restart
  restoring angle style harmonic from restart
  4339 atoms
  4428 bonds
  4788 angles
Finding 1-2 1-3 1-4 neighbors ...
  special bond factors lj:    0        1        1       
  special bond factors coul:  0        0        0       
     4 = max # of 1-2 neighbors
     4 = max # of 1-3 neighbors
     8 = max # of 1-4 neighbors
    12 = max # of special neighbors
  special bonds CPU = 0.001 seconds
  read_restart CPU = 0.002 seconds

neighbor        2.0 bin
neigh_modify    every 1 delay 0 check yes

# --- Phase A: Harmonic Pre-Minimization ---
bond_style      harmonic
bond_coeff      1 466.1 0.97
angle_style     harmonic
angle_coeff     1 466.1 180.0
pair_style      lj/cut 2.5
pair_coeff      * * 1.0 1.0 2.5
min_style       cg
minimize        1.0e-4 1.0e-6 1000 10000
Generated 0 of 1 mixed pair_coeff terms from geometric mixing rule
Neighbor list info ...
  update: every = 1 steps, delay = 0 steps, check = yes
  max neighbors/atom: 2000, page size: 100000
  master list distance cutoff = 4.5
  ghost atom cutoff = 5
  binsize = 2.25, bins = 8 8 8
  1 neighbor lists, perpetual/occasional/extra = 1 0 0
  (1) pair lj/cut, perpetual
      attributes: half, newton on
      pair build: half/bin/newton
      stencil: half/bin/3d
      bin: standard
WARNING: Inconsistent image flags
For more information see https://docs.lammps.org/err0027 (src/domain.cpp:1052)
Per MPI rank memory allocation (min/avg/max) = 22.42 | 22.42 | 22.42 Mbytes
   Step          Temp          E_pair         E_mol          TotEng         Press     
     20181   18.222336      1.2200941      162.0161       190.5634       34.985625    
     20227   18.222336     -1.9167766      137.50053      162.91095      30.92811     
Loop time of 0.201616 on 1 procs for 46 steps with 4339 atoms

93.0% CPU use with 1 MPI tasks x 1 OpenMP threads

Minimization stats:
  Stopping criterion = energy tolerance
  Energy initial, next-to-last, final = 
      163.236190828074   135.596939107458   135.583749769666
  Force two-norm initial, final = 40345.632 1002.5369
  Force max component initial, final = 2495.1889 342.21751
  Final line search alpha, max atom move = 0.00055294409 0.18922715
  Iterations, force evaluations = 46 84

MPI task timing breakdown:
Section |  min time  |  avg time  |  max time  |%varavg| %total
---------------------------------------------------------------
Pair    | 0.18515    | 0.18515    | 0.18515    |   0.0 | 91.83
Bond    | 0.011747   | 0.011747   | 0.011747   |   0.0 |  5.83
Neigh   | 0          | 0          | 0          |   0.0 |  0.00
Comm    | 0.001851   | 0.001851   | 0.001851   |   0.0 |  0.92
Output  | 0          | 0          | 0          |   0.0 |  0.00
Modify  | 0          | 0          | 0          |   0.0 |  0.00
Other   |            | 0.002865   |            |       |  1.42

Nlocal:           4339 ave        4339 max        4339 min
Histogram: 1 0 0 0 0 0 0 0 0 0
Nghost:          12859 ave       12859 max       12859 min
Histogram: 1 0 0 0 0 0 0 0 0 0
Neighs:         698043 ave      698043 max      698043 min
Histogram: 1 0 0 0 0 0 0 0 0 0

Total # of neighbors = 698043
Ave neighs/atom = 160.87647
Ave special neighs/atom = 6.6042867
Neighbor list builds = 0
Dangerous builds = 0

# --- Phase B: Switch to FENE ---
delete_bonds    all angle 1-1 remove
System init for delete_bonds ...
Generated 0 of 1 mixed pair_coeff terms from geometric mixing rule
Deleting bonds ...
  4428 total bonds, 4428 turned on, 0 turned off
  0 total angles, 0 turned on, 0 turned off
  0 total dihedrals, 0 turned on, 0 turned off
  0 total impropers, 0 turned on, 0 turned off
bond_style      fene
special_bonds   fene
Finding 1-2 1-3 1-4 neighbors ...
  special bond factors lj:    0        1        1       
  special bond factors coul:  0        1        1       
     4 = max # of 1-2 neighbors
    12 = max # of special neighbors
  special bonds CPU = 0.001 seconds
bond_coeff      1 30.0 1.5 1.0 1.0
minimize        1.0e-4 1.0e-6 1000 10000
Generated 0 of 1 mixed pair_coeff terms from geometric mixing rule
WARNING: Inconsistent image flags
For more information see https://docs.lammps.org/err0027 (src/domain.cpp:1052)
Per MPI rank memory allocation (min/avg/max) = 22.42 | 22.42 | 22.42 Mbytes
   Step          Temp          E_pair         E_mol          TotEng         Press     
     20227   18.222336     -1.9167766      24.055315      49.465743      41.298185    
     20316   18.222336     -5.1498512      20.696545      42.873899      11.053095    
Loop time of 0.337063 on 1 procs for 89 steps with 4339 atoms

97.3% CPU use with 1 MPI tasks x 1 OpenMP threads

Minimization stats:
  Stopping criterion = energy tolerance
  Energy initial, next-to-last, final = 
       22.138538087756   15.5474612788725   15.5466938615317
  Force two-norm initial, final = 12912.905 70.583823
  Force max component initial, final = 4089.0433 9.28939
  Final line search alpha, max atom move = 0.0037366928 0.034711597
  Iterations, force evaluations = 89 143

MPI task timing breakdown:
Section |  min time  |  avg time  |  max time  |%varavg| %total
---------------------------------------------------------------
Pair    | 0.30942    | 0.30942    | 0.30942    |   0.0 | 91.80
Bond    | 0.019346   | 0.019346   | 0.019346   |   0.0 |  5.74
Neigh   | 0          | 0          | 0          |   0.0 |  0.00
Comm    | 0.003139   | 0.003139   | 0.003139   |   0.0 |  0.93
Output  | 0          | 0          | 0          |   0.0 |  0.00
Modify  | 0          | 0          | 0          |   0.0 |  0.00
Other   |            | 0.005158   |            |       |  1.53

Nlocal:           4339 ave        4339 max        4339 min
Histogram: 1 0 0 0 0 0 0 0 0 0
Nghost:          12818 ave       12818 max       12818 min
Histogram: 1 0 0 0 0 0 0 0 0 0
Neighs:         698369 ave      698369 max      698369 min
Histogram: 1 0 0 0 0 0 0 0 0 0

Total # of neighbors = 698369
Ave neighs/atom = 160.9516
Ave special neighs/atom = 2.0410233
Neighbor list builds = 0
Dangerous builds = 0

# --- Phase C: Dynamics ---
reset_timestep  0
timestep        0.005
velocity        all create 1.0 12345

fix             1 all nvt temp 1.0 1.0 1.0
thermo          1000
run             10000
Generated 0 of 1 mixed pair_coeff terms from geometric mixing rule
WARNING: Inconsistent image flags
For more information see https://docs.lammps.org/err0027 (src/domain.cpp:1052)
Per MPI rank memory allocation (min/avg/max) = 20.17 | 20.17 | 20.17 Mbytes
   Step          Temp          E_pair         E_mol          TotEng         Press     
         0   1             -5.1498512      20.696545      17.046348     -3.5825142    
      1000   0.92010023    -4.6389234      21.236086      17.976995     -2.1090002    
      2000   0.9945073     -4.6369517      21.246568      18.101034     -1.8515076    
      3000   0.99934481    -4.6174387      21.273176      18.154409     -1.8174876    
      4000   1.0109851     -4.6339019      21.260465      18.142691     -1.7908574    
      5000   1.0040848     -4.6693769      21.261149      18.097552     -2.0073405    
      6000   0.99100079    -4.6485051      21.255562      18.093216     -1.7929503    
      7000   1.0059502     -4.6807443      21.255465      18.083298     -1.9379401    
      8000   1.0213156     -4.646612       21.24759       18.132599     -1.8324357    
      9000   1.0180856     -4.6729499      21.25452       18.108347     -1.3862609    
     10000   0.99202232    -4.684568       21.247329      18.050451     -1.8056114    
Loop time of 19.6954 on 1 procs for 10000 steps with 4339 atoms

Performance: 219340.211 tau/day, 507.732 timesteps/s, 2.203 Matom-step/s
97.0% CPU use with 1 MPI tasks x 1 OpenMP threads

MPI task timing breakdown:
Section |  min time  |  avg time  |  max time  |%varavg| %total
---------------------------------------------------------------
Pair    | 17.53      | 17.53      | 17.53      |   0.0 | 89.00
Bond    | 0.2157     | 0.2157     | 0.2157     |   0.0 |  1.10
Neigh   | 1.3401     | 1.3401     | 1.3401     |   0.0 |  6.80
Comm    | 0.23227    | 0.23227    | 0.23227    |   0.0 |  1.18
Output  | 0.000211   | 0.000211   | 0.000211   |   0.0 |  0.00
Modify  | 0.2873     | 0.2873     | 0.2873     |   0.0 |  1.46
Other   |            | 0.08993    |            |       |  0.46

Nlocal:           4339 ave        4339 max        4339 min
Histogram: 1 0 0 0 0 0 0 0 0 0
Nghost:          13012 ave       13012 max       13012 min
Histogram: 1 0 0 0 0 0 0 0 0 0
Neighs:         700309 ave      700309 max      700309 min
Histogram: 1 0 0 0 0 0 0 0 0 0

Total # of neighbors = 700309
Ave neighs/atom = 161.39871
Ave special neighs/atom = 2.0410233
Neighbor list builds = 123
Dangerous builds = 0
unfix           1

write_data      system_equilibrated.data
System init for write_data ...
Generated 0 of 1 mixed pair_coeff terms from geometric mixing rule
WARNING: Not all mixed pair coeffs generated from mixing. Use write_data with 'pair ij' option to store all pair coeffs. (src/write_data.cpp:364)
Total wall time: 0:00:20
