LAMMPS (2 Apr 2025)
OMP_NUM_THREADS environment is not set. Defaulting to 1 thread. (src/comm.cpp:99)
  using 1 OpenMP thread(s) per MPI task
Loaded 1 plugins from C:\Users\ahmet\AppData\Local\LAMMPS 64-bit 2Apr2025\plugins
# LAMMPS Stage 1: Serial Soft Minimization (CG)

units           lj
atom_style      full
boundary        p p p
comm_modify     mode single cutoff 5.0
bond_style      harmonic
angle_style     harmonic
pair_style      lj/cut 2.5
special_bonds   lj 0.0 1.0 1.0

read_data       ../03_Conformation/system_relaxed.data
Reading data file ...
  orthogonal box = (0 0 0) to (17.2183 17.2183 17.2183)
  1 by 1 by 1 MPI processor grid
  reading atoms ...
  4339 atoms
  scanning bonds ...
  4 = max bonds/atom
  scanning angles ...
  6 = max angles/atom
  orthogonal box = (0 0 0) to (17.2183 17.2183 17.2183)
  1 by 1 by 1 MPI processor grid
  reading bonds ...
  4428 bonds
  reading angles ...
  4788 angles
Finding 1-2 1-3 1-4 neighbors ...
  special bond factors lj:    0        1        1       
  special bond factors coul:  0        0        0       
     4 = max # of 1-2 neighbors
     4 = max # of 1-3 neighbors
     8 = max # of 1-4 neighbors
    12 = max # of special neighbors
  special bonds CPU = 0.001 seconds
  read_data CPU = 0.041 seconds
include         ../02_Chemistry/system.in.settings
# Force field settings (auto-generated stub)
include         ../02_Chemistry/system.groups
# LAMMPS group definitions
group nodes id 1 2 3 4 5 6 7 8 9 10 11 12 13 14 15 16 17 21 22 23 24 25 26 27 28 29 30 31 32 33 34 35 36 37 38 39 40 41 42 43 44 45 46 47 48 49 53 54 55 59 60 61 62 63 64 65 66 67 68 69 70 71 72 73 74 75 76 77 78 82 83 84 88 89 90 91 92 93 94 95 96 97 98 99 100 101 102 103 104 105 106 107 108 109 110 111 112 113 114 115 116 117 118 119 120 121 122 123 124 125 126 127 131 132 133 134 135 136 137 138 139
121 atoms in group nodes
group beads subtract all nodes
4218 atoms in group beads

group           beads subtract all nodes
4218 atoms in group beads

neighbor        2.0 bin
neigh_modify    every 1 delay 0 check yes

# --- Switch to Soft Potential ---
pair_style      soft 1.0
pair_coeff      * * 0.0
variable        prefactor equal ramp(0,30)

# --- Stage A: Freeze All (Beads & Nodes) ---
fix             freeze_beads beads setforce 0 0 0
fix             freeze_nodes nodes setforce 0 0 0
fix             soft_push all adapt 1 pair soft a * * v_prefactor
min_style       cg
minimize        1.0e-4 1.0e-6 1000 10000
Generated 0 of 1 mixed pair_coeff terms from geometric mixing rule
Neighbor list info ...
  update: every = 1 steps, delay = 0 steps, check = yes
  max neighbors/atom: 2000, page size: 100000
  master list distance cutoff = 3
  ghost atom cutoff = 5
  binsize = 1.5, bins = 12 12 12
  1 neighbor lists, perpetual/occasional/extra = 1 0 0
  (1) pair soft, perpetual
      attributes: half, newton on
      pair build: half/bin/newton
      stencil: half/bin/3d
      bin: standard
WARNING: Inconsistent image flags
For more information see https://docs.lammps.org/err0027 (src/domain.cpp:1052)
WARNING: Bond/angle/dihedral extent > half of periodic box length (src/domain.cpp:1174)
Per MPI rank memory allocation (min/avg/max) = 20.2 | 20.2 | 20.2 Mbytes
   Step          Temp          E_pair         E_mol          TotEng         Press     
         0   0              0              561.89784      561.89784     -33.894676    
         1   0              0              561.89784      561.89784     -33.894676    
WARNING: Bond/angle/dihedral extent > half of periodic box length (src/domain.cpp:1174)
Loop time of 0.002645 on 1 procs for 1 steps with 4339 atoms

590.7% CPU use with 1 MPI tasks x 1 OpenMP threads

Minimization stats:
  Stopping criterion = search direction is not downhill
  Energy initial, next-to-last, final = 
      561.897835636682   561.897835636682   561.897835636682
  Force two-norm initial, final = 0 0
  Force max component initial, final = 0 0
  Final line search alpha, max atom move = 0 0
  Iterations, force evaluations = 1 0

MPI task timing breakdown:
Section |  min time  |  avg time  |  max time  |%varavg| %total
---------------------------------------------------------------
Pair    | 0.002377   | 0.002377   | 0.002377   |   0.0 | 89.87
Bond    | 0.000191   | 0.000191   | 0.000191   |   0.0 |  7.22
Neigh   | 0          | 0          | 0          |   0.0 |  0.00
Comm    | 2.2e-05    | 2.2e-05    | 2.2e-05    |   0.0 |  0.83
Output  | 0          | 0          | 0          |   0.0 |  0.00
Modify  | 9e-06      | 9e-06      | 9e-06      |   0.0 |  0.34
Other   |            | 4.6e-05    |            |       |  1.74

Nlocal:           4339 ave        4339 max        4339 min
Histogram: 1 0 0 0 0 0 0 0 0 0
Nghost:          13160 ave       13160 max       13160 min
Histogram: 1 0 0 0 0 0 0 0 0 0
Neighs:         169200 ave      169200 max      169200 min
Histogram: 1 0 0 0 0 0 0 0 0 0

Total # of neighbors = 169200
Ave neighs/atom = 38.99516
Ave special neighs/atom = 6.6042867
Neighbor list builds = 0
Dangerous builds = 0
unfix           soft_push
unfix           freeze_beads
write_data      min_stage_A.data
System init for write_data ...
Generated 0 of 1 mixed pair_coeff terms from geometric mixing rule
WARNING: Not all mixed pair coeffs generated from mixing. Use write_data with 'pair ij' option to store all pair coeffs. (src/write_data.cpp:364)

# --- Stage B: Relax Beads (Nodes Fixed) ---
fix             soft_push all adapt 1 pair soft a * * v_prefactor
minimize        1.0e-4 1.0e-6 1000 10000
Generated 0 of 1 mixed pair_coeff terms from geometric mixing rule
WARNING: Inconsistent image flags
For more information see https://docs.lammps.org/err0027 (src/domain.cpp:1052)
WARNING: Bond/angle/dihedral extent > half of periodic box length (src/domain.cpp:1174)
Per MPI rank memory allocation (min/avg/max) = 20.2 | 20.2 | 20.2 Mbytes
   Step          Temp          E_pair         E_mol          TotEng         Press     
         1   0              0              561.89784      561.89784     -33.894676    
       165   0              0              385.42462      385.42462      40.338614    
Loop time of 0.675115 on 1 procs for 164 steps with 4339 atoms

101.8% CPU use with 1 MPI tasks x 1 OpenMP threads

Minimization stats:
  Stopping criterion = energy tolerance
  Energy initial, next-to-last, final = 
      561.897835636682   385.425479307391   385.424621772705
  Force two-norm initial, final = 217543.85 72026.432
  Force max component initial, final = 35049.691 25810.369
  Final line search alpha, max atom move = 4.0197794e-06 0.10375199
  Iterations, force evaluations = 164 279

MPI task timing breakdown:
Section |  min time  |  avg time  |  max time  |%varavg| %total
---------------------------------------------------------------
Pair    | 0.57608    | 0.57608    | 0.57608    |   0.0 | 85.33
Bond    | 0.03748    | 0.03748    | 0.03748    |   0.0 |  5.55
Neigh   | 0.042891   | 0.042891   | 0.042891   |   0.0 |  6.35
Comm    | 0.00771    | 0.00771    | 0.00771    |   0.0 |  1.14
Output  | 0          | 0          | 0          |   0.0 |  0.00
Modify  | 0.000682   | 0.000682   | 0.000682   |   0.0 |  0.10
Other   |            | 0.01027    |            |       |  1.52

Nlocal:           4339 ave        4339 max        4339 min
Histogram: 1 0 0 0 0 0 0 0 0 0
Nghost:          13054 ave       13054 max       13054 min
Histogram: 1 0 0 0 0 0 0 0 0 0
Neighs:         181414 ave      181414 max      181414 min
Histogram: 1 0 0 0 0 0 0 0 0 0

Total # of neighbors = 181414
Ave neighs/atom = 41.810094
Ave special neighs/atom = 6.6042867
Neighbor list builds = 13
Dangerous builds = 0
unfix           soft_push
unfix           freeze_nodes
write_data      min_stage_B.data
System init for write_data ...
Generated 0 of 1 mixed pair_coeff terms from geometric mixing rule
WARNING: Not all mixed pair coeffs generated from mixing. Use write_data with 'pair ij' option to store all pair coeffs. (src/write_data.cpp:364)

# --- Stage C: Relax All ---
fix             soft_push all adapt 1 pair soft a * * v_prefactor
minimize        1.0e-4 1.0e-6 10000 100000
Generated 0 of 1 mixed pair_coeff terms from geometric mixing rule
WARNING: Inconsistent image flags
For more information see https://docs.lammps.org/err0027 (src/domain.cpp:1052)
Per MPI rank memory allocation (min/avg/max) = 20.21 | 20.21 | 20.21 Mbytes
   Step          Temp          E_pair         E_mol          TotEng         Press     
       165   0              0              385.42462      385.42462      40.338614    
       168   0              0              384.89382      384.89382      40.366852    
Loop time of 0.012566 on 1 procs for 3 steps with 4339 atoms

124.3% CPU use with 1 MPI tasks x 1 OpenMP threads

Minimization stats:
  Stopping criterion = energy tolerance
  Energy initial, next-to-last, final = 
      385.424621772704   384.900651702615   384.893822499871
  Force two-norm initial, final = 72856.639 50980.876
  Force max component initial, final = 25810.369 18688.549
  Final line search alpha, max atom move = 5.569511e-06 0.10408608
  Iterations, force evaluations = 3 6

MPI task timing breakdown:
Section |  min time  |  avg time  |  max time  |%varavg| %total
---------------------------------------------------------------
Pair    | 0.011246   | 0.011246   | 0.011246   |   0.0 | 89.50
Bond    | 0.000943   | 0.000943   | 0.000943   |   0.0 |  7.50
Neigh   | 0          | 0          | 0          |   0.0 |  0.00
Comm    | 0.000148   | 0.000148   | 0.000148   |   0.0 |  1.18
Output  | 0          | 0          | 0          |   0.0 |  0.00
Modify  | 0          | 0          | 0          |   0.0 |  0.00
Other   |            | 0.000229   |            |       |  1.82

Nlocal:           4339 ave        4339 max        4339 min
Histogram: 1 0 0 0 0 0 0 0 0 0
Nghost:          13054 ave       13054 max       13054 min
Histogram: 1 0 0 0 0 0 0 0 0 0
Neighs:         180294 ave      180294 max      180294 min
Histogram: 1 0 0 0 0 0 0 0 0 0

Total # of neighbors = 180294
Ave neighs/atom = 41.551971
Ave special neighs/atom = 6.6042867
Neighbor list builds = 0
Dangerous builds = 0
unfix           soft_push
write_data      system_after_soft.data
System init for write_data ...
Generated 0 of 1 mixed pair_coeff terms from geometric mixing rule
WARNING: Not all mixed pair coeffs generated from mixing. Use write_data with 'pair ij' option to store all pair coeffs. (src/write_data.cpp:364)
write_restart   1.restart
System init for write_restart ...
Generated 0 of 1 mixed pair_coeff terms from geometric mixing rule
Total wall time: 0:00:00
