LAMMPS (2 Apr 2025)
OMP_NUM_THREADS environment is not set. Defaulting to 1 thread. (src/comm.cpp:99)
  using 1 OpenMP thread(s) per MPI task
Loaded 1 plugins from C:\Users\ahmet\AppData\Local\LAMMPS 64-bit 2Apr2025\plugins
Reading data file ...
  orthogonal box = (0 0 0) to (83.495605 83.495605 83.495605)
  1 by 1 by 1 MPI processor grid
  reading atoms ...
  41565 atoms
  scanning bonds ...
  4 = max bonds/atom
  scanning angles ...
  6 = max angles/atom
  scanning dihedrals ...
  30 = max dihedrals/atom
  orthogonal box = (0 0 0) to (83.495605 83.495605 83.495605)
  1 by 1 by 1 MPI processor grid
  reading bonds ...
  41654 bonds
  reading angles ...
  79036 angles
  reading dihedrals ...
  99330 dihedrals
Finding 1-2 1-3 1-4 neighbors ...
  special bond factors lj:    0        0        1       
  special bond factors coul:  0        0        1       
     4 = max # of 1-2 neighbors
    10 = max # of 1-3 neighbors
    14 = max # of special neighbors
  special bonds CPU = 0.012 seconds
  read_data CPU = 1.252 seconds
121 atoms in group nodes
41444 atoms in group beads
Generated 0 of 6 mixed pair_coeff terms from geometric mixing rule
WARNING: Communication cutoff 3 is shorter than a bond length based estimate of 5.81825. This may lead to errors. (src/comm.cpp:744)
Neighbor list info ...
  update: every = 1 steps, delay = 0 steps, check = yes
  max neighbors/atom: 2000, page size: 100000
  master list distance cutoff = 3
  ghost atom cutoff = 3
  binsize = 1.5, bins = 56 56 56
  1 neighbor lists, perpetual/occasional/extra = 1 0 0
  (1) pair soft, perpetual
      attributes: half, newton on
      pair build: half/bin/newton
      stencil: half/bin/3d
      bin: standard
Setting up cg style minimization ...
  Unit style    : real
  Current step  : 0
WARNING: Communication cutoff 3 is shorter than a bond length based estimate of 5.81825. This may lead to errors. (src/comm.cpp:744)
WARNING: Inconsistent image flags
For more information see https://docs.lammps.org/err0027 (src/domain.cpp:1052)
Per MPI rank memory allocation (min/avg/max) = 84.89 | 84.89 | 84.89 Mbytes
   Step          Temp          E_pair         E_mol          TotEng         Press     
         0   0              0              14829115       14829115       433214.61    
         1   0              0              14827802       14827802       433215.61    
Loop time of 0.221537 on 1 procs for 1 steps with 41565 atoms

91.7% CPU use with 1 MPI tasks x 1 OpenMP threads

Minimization stats:
  Stopping criterion = energy tolerance
  Energy initial, next-to-last, final = 
      14829115.2803422   14829115.2803422   14827801.7366457
  Force two-norm initial, final = 5578207.9 2883732.4
  Force max component initial, final = 2043222.5 676041.94
  Final line search alpha, max atom move = 3.0588935e-09 0.0020679403
  Iterations, force evaluations = 1 6

MPI task timing breakdown:
Section |  min time  |  avg time  |  max time  |%varavg| %total
---------------------------------------------------------------
Pair    | 0.13594    | 0.13594    | 0.13594    |   0.0 | 61.36
Bond    | 0.08115    | 0.08115    | 0.08115    |   0.0 | 36.63
Neigh   | 0          | 0          | 0          |   0.0 |  0.00
Comm    | 0.000693   | 0.000693   | 0.000693   |   0.0 |  0.31
Output  | 0          | 0          | 0          |   0.0 |  0.00
Modify  | 0.000216   | 0.000216   | 0.000216   |   0.0 |  0.10
Other   |            | 0.003543   |            |       |  1.60

Nlocal:          41565 ave       41565 max       41565 min
Histogram: 1 0 0 0 0 0 0 0 0 0
Nghost:          17276 ave       17276 max       17276 min
Histogram: 1 0 0 0 0 0 0 0 0 0
Neighs:         935827 ave      935827 max      935827 min
Histogram: 1 0 0 0 0 0 0 0 0 0

Total # of neighbors = 935827
Ave neighs/atom = 22.514784
Ave special neighs/atom = 5.8072898
Neighbor list builds = 0
Dangerous builds = 0
Generated 0 of 6 mixed pair_coeff terms from geometric mixing rule
Setting up cg style minimization ...
  Unit style    : real
  Current step  : 1
WARNING: Communication cutoff 3 is shorter than a bond length based estimate of 5.81825. This may lead to errors. (src/comm.cpp:744)
WARNING: Inconsistent image flags
For more information see https://docs.lammps.org/err0027 (src/domain.cpp:1052)
Per MPI rank memory allocation (min/avg/max) = 84.89 | 84.89 | 84.89 Mbytes
   Step          Temp          E_pair         E_mol          TotEng         Press     
         1   0              0              14827802       14827802       433215.61    
         2   0              0              14826407       14826407       433216.2     
Loop time of 0.208004 on 1 procs for 1 steps with 41565 atoms

90.1% CPU use with 1 MPI tasks x 1 OpenMP threads

Minimization stats:
  Stopping criterion = energy tolerance
  Energy initial, next-to-last, final = 
      14827801.7366457   14827801.7366457   14826406.5797466
  Force two-norm initial, final = 2883732.4 2325668.3
  Force max component initial, final = 676041.94 689684.82
  Final line search alpha, max atom move = 9.2449885e-09 0.0063761283
  Iterations, force evaluations = 1 6

MPI task timing breakdown:
Section |  min time  |  avg time  |  max time  |%varavg| %total
---------------------------------------------------------------
Pair    | 0.13153    | 0.13153    | 0.13153    |   0.0 | 63.24
Bond    | 0.071774   | 0.071774   | 0.071774   |   0.0 | 34.51
Neigh   | 0          | 0          | 0          |   0.0 |  0.00
Comm    | 0.000704   | 0.000704   | 0.000704   |   0.0 |  0.34
Output  | 0          | 0          | 0          |   0.0 |  0.00
Modify  | 0.000219   | 0.000219   | 0.000219   |   0.0 |  0.11
Other   |            | 0.003775   |            |       |  1.81

Nlocal:          41565 ave       41565 max       41565 min
Histogram: 1 0 0 0 0 0 0 0 0 0
Nghost:          17276 ave       17276 max       17276 min
Histogram: 1 0 0 0 0 0 0 0 0 0
Neighs:         935831 ave      935831 max      935831 min
Histogram: 1 0 0 0 0 0 0 0 0 0

Total # of neighbors = 935831
Ave neighs/atom = 22.51488
Ave special neighs/atom = 5.8072898
Neighbor list builds = 0
Dangerous builds = 0
Generated 0 of 6 mixed pair_coeff terms from geometric mixing rule
Setting up cg style minimization ...
  Unit style    : real
  Current step  : 2
WARNING: Communication cutoff 3 is shorter than a bond length based estimate of 5.81825. This may lead to errors. (src/comm.cpp:744)
WARNING: Inconsistent image flags
For more information see https://docs.lammps.org/err0027 (src/domain.cpp:1052)
Per MPI rank memory allocation (min/avg/max) = 84.89 | 84.89 | 84.89 Mbytes
   Step          Temp          E_pair         E_mol          TotEng         Press     
         2   0              0              14826407       14826407       433216.2     
         3   0              0              14826048       14826048       433218.07    
Loop time of 0.206198 on 1 procs for 1 steps with 41565 atoms

90.9% CPU use with 1 MPI tasks x 1 OpenMP threads

Minimization stats:
  Stopping criterion = energy tolerance
  Energy initial, next-to-last, final = 
      14826406.5797466   14826406.5797466   14826047.5791096
  Force two-norm initial, final = 2325668.3 2346718.6
  Force max component initial, final = 689684.82 1122304
  Final line search alpha, max atom move = 9.0621104e-09 0.010170443
  Iterations, force evaluations = 1 6

MPI task timing breakdown:
Section |  min time  |  avg time  |  max time  |%varavg| %total
---------------------------------------------------------------
Pair    | 0.13013    | 0.13013    | 0.13013    |   0.0 | 63.11
Bond    | 0.071853   | 0.071853   | 0.071853   |   0.0 | 34.85
Neigh   | 0          | 0          | 0          |   0.0 |  0.00
Comm    | 0.000666   | 0.000666   | 0.000666   |   0.0 |  0.32
Output  | 0          | 0          | 0          |   0.0 |  0.00
Modify  | 0.000223   | 0.000223   | 0.000223   |   0.0 |  0.11
Other   |            | 0.003329   |            |       |  1.61

Nlocal:          41565 ave       41565 max       41565 min
Histogram: 1 0 0 0 0 0 0 0 0 0
Nghost:          17276 ave       17276 max       17276 min
Histogram: 1 0 0 0 0 0 0 0 0 0
Neighs:         935826 ave      935826 max      935826 min
Histogram: 1 0 0 0 0 0 0 0 0 0

Total # of neighbors = 935826
Ave neighs/atom = 22.51476
Ave special neighs/atom = 5.8072898
Neighbor list builds = 0
Dangerous builds = 0
Generated 0 of 6 mixed pair_coeff terms from geometric mixing rule
Setting up cg style minimization ...
  Unit style    : real
  Current step  : 3
WARNING: Communication cutoff 3 is shorter than a bond length based estimate of 5.81825. This may lead to errors. (src/comm.cpp:744)
WARNING: Inconsistent image flags
For more information see https://docs.lammps.org/err0027 (src/domain.cpp:1052)
Per MPI rank memory allocation (min/avg/max) = 84.89 | 84.89 | 84.89 Mbytes
   Step          Temp          E_pair         E_mol          TotEng         Press     
         3   0              0              14826048       14826048       433218.07    
         4   0              0              14824875       14824875       433221.28    
Loop time of 0.162168 on 1 procs for 1 steps with 41565 atoms

106.0% CPU use with 1 MPI tasks x 1 OpenMP threads

Minimization stats:
  Stopping criterion = energy tolerance
  Energy initial, next-to-last, final = 
      14826047.5791096   14826047.5791096   14824875.1353669
  Force two-norm initial, final = 2346718.6 1295459.3
  Force max component initial, final = 1122304 215698.3
  Final line search alpha, max atom move = 1.1137802e-08 0.002402405
  Iterations, force evaluations = 1 5

MPI task timing breakdown:
Section |  min time  |  avg time  |  max time  |%varavg| %total
---------------------------------------------------------------
Pair    | 0.10574    | 0.10574    | 0.10574    |   0.0 | 65.20
Bond    | 0.052592   | 0.052592   | 0.052592   |   0.0 | 32.43
Neigh   | 0          | 0          | 0          |   0.0 |  0.00
Comm    | 0.000601   | 0.000601   | 0.000601   |   0.0 |  0.37
Output  | 0          | 0          | 0          |   0.0 |  0.00
Modify  | 0.000127   | 0.000127   | 0.000127   |   0.0 |  0.08
Other   |            | 0.00311    |            |       |  1.92

Nlocal:          41565 ave       41565 max       41565 min
Histogram: 1 0 0 0 0 0 0 0 0 0
Nghost:          17276 ave       17276 max       17276 min
Histogram: 1 0 0 0 0 0 0 0 0 0
Neighs:         935821 ave      935821 max      935821 min
Histogram: 1 0 0 0 0 0 0 0 0 0

Total # of neighbors = 935821
Ave neighs/atom = 22.51464
Ave special neighs/atom = 5.8072898
Neighbor list builds = 0
Dangerous builds = 0
Generated 0 of 6 mixed pair_coeff terms from geometric mixing rule
Setting up cg style minimization ...
  Unit style    : real
  Current step  : 4
WARNING: Communication cutoff 3 is shorter than a bond length based estimate of 5.81825. This may lead to errors. (src/comm.cpp:744)
WARNING: Inconsistent image flags
For more information see https://docs.lammps.org/err0027 (src/domain.cpp:1052)
Per MPI rank memory allocation (min/avg/max) = 85 | 85 | 85 Mbytes
   Step          Temp          E_pair         E_mol          TotEng         Press     
         4   0              0              14824875       14824875       433221.28    
       656   0              0              148587.88      148587.88     -59.985154    
Loop time of 23.1097 on 1 procs for 652 steps with 41565 atoms

98.8% CPU use with 1 MPI tasks x 1 OpenMP threads

Minimization stats:
  Stopping criterion = energy tolerance
  Energy initial, next-to-last, final = 
      14824875.1353668   148598.745198403    148587.88301607
  Force two-norm initial, final = 1298932 138.82149
  Force max component initial, final = 215698.3 30.406768
  Final line search alpha, max atom move = 0.0029448255 0.089542626
  Iterations, force evaluations = 652 812

MPI task timing breakdown:
Section |  min time  |  avg time  |  max time  |%varavg| %total
---------------------------------------------------------------
Pair    | 6.9058     | 6.9058     | 6.9058     |   0.0 | 29.88
Bond    | 12.675     | 12.675     | 12.675     |   0.0 | 54.85
Neigh   | 2.2794     | 2.2794     | 2.2794     |   0.0 |  9.86
Comm    | 0.16874    | 0.16874    | 0.16874    |   0.0 |  0.73
Output  | 0          | 0          | 0          |   0.0 |  0.00
Modify  | 0          | 0          | 0          |   0.0 |  0.00
Other   |            | 1.081      |            |       |  4.68

Nlocal:          41565 ave       41565 max       41565 min
Histogram: 1 0 0 0 0 0 0 0 0 0
Nghost:          16164 ave       16164 max       16164 min
Histogram: 1 0 0 0 0 0 0 0 0 0
Neighs:         419195 ave      419195 max      419195 min
Histogram: 1 0 0 0 0 0 0 0 0 0

Total # of neighbors = 419195
Ave neighs/atom = 10.085288
Ave special neighs/atom = 5.8072898
Neighbor list builds = 38
Dangerous builds = 0
Generated 0 of 6 mixed pair_coeff terms from geometric mixing rule
Setting up Verlet run ...
  Unit style    : real
  Current step  : 0
  Time step     : 1
WARNING: Communication cutoff 3 is shorter than a bond length based estimate of 5.81825. This may lead to errors. (src/comm.cpp:744)
WARNING: Inconsistent image flags
For more information see https://docs.lammps.org/err0027 (src/domain.cpp:1052)
Per MPI rank memory allocation (min/avg/max) = 80.5 | 80.5 | 80.5 Mbytes
   Step          Temp          E_pair         E_mol          TotEng         Press     
         0   0              0              148587.88      148587.88     -59.985154    
      1000   123.22814      610.28802      142608.59      158486.15      110.95803    
Loop time of 25.5299 on 1 procs for 1000 steps with 41565 atoms

Performance: 3.384 ns/day, 7.092 hours/ns, 39.170 timesteps/s, 1.628 Matom-step/s
99.3% CPU use with 1 MPI tasks x 1 OpenMP threads

MPI task timing breakdown:
Section |  min time  |  avg time  |  max time  |%varavg| %total
---------------------------------------------------------------
Pair    | 3.6657     | 3.6657     | 3.6657     |   0.0 | 14.36
Bond    | 16.885     | 16.885     | 16.885     |   0.0 | 66.14
Neigh   | 3.9826     | 3.9826     | 3.9826     |   0.0 | 15.60
Comm    | 0.21076    | 0.21076    | 0.21076    |   0.0 |  0.83
Output  | 0.000226   | 0.000226   | 0.000226   |   0.0 |  0.00
Modify  | 0.51315    | 0.51315    | 0.51315    |   0.0 |  2.01
Other   |            | 0.2726     |            |       |  1.07

Nlocal:          41565 ave       41565 max       41565 min
Histogram: 1 0 0 0 0 0 0 0 0 0
Nghost:          15170 ave       15170 max       15170 min
Histogram: 1 0 0 0 0 0 0 0 0 0
Neighs:         325731 ave      325731 max      325731 min
Histogram: 1 0 0 0 0 0 0 0 0 0

Total # of neighbors = 325731
Ave neighs/atom = 7.8366655
Ave special neighs/atom = 5.8072898
Neighbor list builds = 74
Dangerous builds = 0
Generated 0 of 6 mixed pair_coeff terms from geometric mixing rule
Setting up cg style minimization ...
  Unit style    : real
  Current step  : 1000
WARNING: Communication cutoff 3 is shorter than a bond length based estimate of 5.81825. This may lead to errors. (src/comm.cpp:744)
WARNING: Inconsistent image flags
For more information see https://docs.lammps.org/err0027 (src/domain.cpp:1052)
Per MPI rank memory allocation (min/avg/max) = 85 | 85 | 85 Mbytes
   Step          Temp          E_pair         E_mol          TotEng         Press     
      1000   123.22814      610.28802      142608.59      158486.15      110.95803    
      1115   123.22814      91.596102      128489.55      143848.42      1167.6218    
Loop time of 4.42987 on 1 procs for 115 steps with 41565 atoms

99.5% CPU use with 1 MPI tasks x 1 OpenMP threads

Minimization stats:
  Stopping criterion = energy tolerance
  Energy initial, next-to-last, final = 
      143218.879187398   128593.819634988     128581.1488796
  Force two-norm initial, final = 3520.442 139.52514
  Force max component initial, final = 139.01982 26.095781
  Final line search alpha, max atom move = 0.00286233 0.074694737
  Iterations, force evaluations = 115 207

MPI task timing breakdown:
Section |  min time  |  avg time  |  max time  |%varavg| %total
---------------------------------------------------------------
Pair    | 0.66399    | 0.66399    | 0.66399    |   0.0 | 14.99
Bond    | 3.1558     | 3.1558     | 3.1558     |   0.0 | 71.24
Neigh   | 0.36362    | 0.36362    | 0.36362    |   0.0 |  8.21
Comm    | 0.03407    | 0.03407    | 0.03407    |   0.0 |  0.77
Output  | 0          | 0          | 0          |   0.0 |  0.00
Modify  | 0          | 0          | 0          |   0.0 |  0.00
Other   |            | 0.2124     |            |       |  4.80

Nlocal:          41565 ave       41565 max       41565 min
Histogram: 1 0 0 0 0 0 0 0 0 0
Nghost:          15229 ave       15229 max       15229 min
Histogram: 1 0 0 0 0 0 0 0 0 0
Neighs:         328770 ave      328770 max      328770 min
Histogram: 1 0 0 0 0 0 0 0 0 0

Total # of neighbors = 328770
Ave neighs/atom = 7.9097799
Ave special neighs/atom = 5.8072898
Neighbor list builds = 7
Dangerous builds = 0
System init for write_data ...
Generated 0 of 6 mixed pair_coeff terms from geometric mixing rule
WARNING: Communication cutoff 3 is shorter than a bond length based estimate of 5.81825. This may lead to errors. (src/comm.cpp:744)
WARNING: Not all mixed pair coeffs generated from mixing. Use write_data with 'pair ij' option to store all pair coeffs. (src/write_data.cpp:364)
System init for write_restart ...
Generated 0 of 6 mixed pair_coeff terms from geometric mixing rule
WARNING: Communication cutoff 3 is shorter than a bond length based estimate of 5.81825. This may lead to errors. (src/comm.cpp:744)
Total wall time: 0:00:56
