LAMMPS data file (Dreiding)

4997 atoms
5116 bonds
8950 angles
8290 dihedrals
0 impropers

5 atom types
8 bond types
18 angle types
25 dihedral types
0 improper types

-1000.0 1000.0 xlo xhi
-1000.0 1000.0 ylo yhi
-1000.0 1000.0 zlo zhi

Masses

1 1.0000 # Si_
2 1.0000 # O_
3 12.0110 # C_3
4 28.0855 # Si3
5 15.9994 # O_3

Atoms # full

1 1 1 0.000000000000 0.0 0.0 0.0 # Si_
2 1 1 0.000000000000 0.0 0.0 0.0 # Si_
3 1 1 0.000000000000 0.0 0.0 0.0 # Si_
4 1 1 0.000000000000 0.0 0.0 0.0 # Si_
5 1 1 0.000000000000 0.0 0.0 0.0 # Si_
6 1 1 0.000000000000 0.0 0.0 0.0 # Si_
7 1 1 0.000000000000 0.0 0.0 0.0 # Si_
8 1 1 0.000000000000 0.0 0.0 0.0 # Si_
9 1 1 0.000000000000 0.0 0.0 0.0 # Si_
10 1 1 0.000000000000 0.0 0.0 0.0 # Si_
11 1 1 0.000000000000 0.0 0.0 0.0 # Si_
12 1 1 0.000000000000 0.0 0.0 0.0 # Si_
13 1 1 0.000000000000 0.0 0.0 0.0 # Si_
14 1 1 0.000000000000 0.0 0.0 0.0 # Si_
15 1 1 0.000000000000 0.0 0.0 0.0 # Si_
16 1 1 0.000000000000 0.0 0.0 0.0 # Si_
17 1 1 0.000000000000 0.0 0.0 0.0 # Si_
18 1 1 0.000000000000 0.0 0.0 0.0 # Si_
19 1 1 0.000000000000 0.0 0.0 0.0 # Si_
20 1 1 0.000000000000 0.0 0.0 0.0 # Si_
21 1 1 0.000000000000 0.0 0.0 0.0 # Si_
22 1 1 0.000000000000 0.0 0.0 0.0 # Si_
23 1 1 0.000000000000 0.0 0.0 0.0 # Si_
24 1 1 0.000000000000 0.0 0.0 0.0 # Si_
25 1 2 0.000000000000 0.0 0.0 0.0 # O_
26 1 2 0.000000000000 0.0 0.0 0.0 # O_
27 1 2 0.000000000000 0.0 0.0 0.0 # O_
28 1 2 0.000000000000 0.0 0.0 0.0 # O_
29 1 2 0.000000000000 0.0 0.0 0.0 # O_
30 1 2 0.000000000000 0.0 0.0 0.0 # O_
31 1 2 0.000000000000 0.0 0.0 0.0 # O_
32 1 2 0.000000000000 0.0 0.0 0.0 # O_
33 1 2 0.000000000000 0.0 0.0 0.0 # O_
34 1 2 0.000000000000 0.0 0.0 0.0 # O_
35 1 2 0.000000000000 0.0 0.0 0.0 # O_
36 1 2 0.000000000000 0.0 0.0 0.0 # O_
37 1 3 0.000000000000 0.0 0.0 0.0 # C_3
38 1 3 0.000000000000 0.0 0.0 0.0 # C_3
39 1 3 0.000000000000 0.0 0.0 0.0 # C_3
40 1 3 0.000000000000 0.0 0.0 0.0 # C_3
41 1 3 0.000000000000 0.0 0.0 0.0 # C_3
42 1 3 0.000000000000 0.0 0.0 0.0 # C_3
43 1 3 0.000000000000 0.0 0.0 0.0 # C_3
44 1 3 0.000000000000 0.0 0.0 0.0 # C_3
45 1 3 0.000000000000 0.0 0.0 0.0 # C_3
46 1 3 0.000000000000 0.0 0.0 0.0 # C_3
47 1 3 0.000000000000 0.0 0.0 0.0 # C_3
48 1 3 0.000000000000 0.0 0.0 0.0 # C_3
49 1 3 0.000000000000 0.0 0.0 0.0 # C_3
50 1 3 0.000000000000 0.0 0.0 0.0 # C_3
51 1 3 0.000000000000 0.0 0.0 0.0 # C_3
52 1 3 0.000000000000 0.0 0.0 0.0 # C_3
53 1 3 0.000000000000 0.0 0.0 0.0 # C_3
54 1 3 0.000000000000 0.0 0.0 0.0 # C_3
55 1 3 0.000000000000 0.0 0.0 0.0 # C_3
56 1 3 0.000000000000 0.0 0.0 0.0 # C_3
57 1 3 0.000000000000 0.0 0.0 0.0 # C_3
58 1 3 0.000000000000 0.0 0.0 0.0 # C_3
59 1 3 0.000000000000 0.0 0.0 0.0 # C_3
60 1 3 0.000000000000 0.0 0.0 0.0 # C_3
61 1 3 0.000000000000 0.0 0.0 0.0 # C_3
62 1 3 0.000000000000 0.0 0.0 0.0 # C_3
63 1 3 0.000000000000 0.0 0.0 0.0 # C_3
64 1 3 0.000000000000 0.0 0.0 0.0 # C_3
65 1 3 0.000000000000 0.0 0.0 0.0 # C_3
66 1 3 0.000000000000 0.0 0.0 0.0 # C_3
67 1 3 0.000000000000 0.0 0.0 0.0 # C_3
68 1 3 0.000000000000 0.0 0.0 0.0 # C_3
69 1 3 0.000000000000 0.0 0.0 0.0 # C_3
70 1 3 0.000000000000 0.0 0.0 0.0 # C_3
71 1 3 0.000000000000 0.0 0.0 0.0 # C_3
72 1 3 0.000000000000 0.0 0.0 0.0 # C_3
73 1 3 0.000000000000 0.0 0.0 0.0 # C_3
74 1 3 0.000000000000 0.0 0.0 0.0 # C_3
75 1 3 0.000000000000 0.0 0.0 0.0 # C_3
76 1 3 0.000000000000 0.0 0.0 0.0 # C_3
77 1 3 0.000000000000 0.0 0.0 0.0 # C_3
78 1 3 0.000000000000 0.0 0.0 0.0 # C_3
79 1 3 0.000000000000 0.0 0.0 0.0 # C_3
80 1 3 0.000000000000 0.0 0.0 0.0 # C_3
81 1 3 0.000000000000 0.0 0.0 0.0 # C_3
82 1 3 0.000000000000 0.0 0.0 0.0 # C_3
83 1 3 0.000000000000 0.0 0.0 0.0 # C_3
84 1 3 0.000000000000 0.0 0.0 0.0 # C_3
85 1 3 0.000000000000 0.0 0.0 0.0 # C_3
86 1 3 0.000000000000 0.0 0.0 0.0 # C_3
87 1 3 0.000000000000 0.0 0.0 0.0 # C_3
88 1 3 0.000000000000 0.0 0.0 0.0 # C_3
89 1 3 0.000000000000 0.0 0.0 0.0 # C_3
90 1 3 0.000000000000 0.0 0.0 0.0 # C_3
91 1 3 0.000000000000 0.0 0.0 0.0 # C_3
92 1 3 0.000000000000 0.0 0.0 0.0 # C_3
93 1 3 0.000000000000 0.0 0.0 0.0 # C_3
94 1 3 0.000000000000 0.0 0.0 0.0 # C_3
95 1 3 0.000000000000 0.0 0.0 0.0 # C_3
96 1 1 0.000000000000 0.0 0.0 0.0 # Si_
97 1 1 0.000000000000 0.0 0.0 0.0 # Si_
98 1 1 0.000000000000 0.0 0.0 0.0 # Si_
99 1 1 0.000000000000 0.0 0.0 0.0 # Si_
100 1 1 0.000000000000 0.0 0.0 0.0 # Si_
101 1 1 0.000000000000 0.0 0.0 0.0 # Si_
102 1 1 0.000000000000 0.0 0.0 0.0 # Si_
103 1 1 0.000000000000 0.0 0.0 0.0 # Si_
104 1 1 0.000000000000 0.0 0.0 0.0 # Si_
105 1 1 0.000000000000 0.0 0.0 0.0 # Si_
106 1 1 0.000000000000 0.0 0.0 0.0 # Si_
107 1 1 0.000000000000 0.0 0.0 0.0 # Si_
108 1 1 0.000000000000 0.0 0.0 0.0 # Si_
109 1 1 0.000000000000 0.0 0.0 0.0 # Si_
110 1 1 0.000000000000 0.0 0.0 0.0 # Si_
111 1 1 0.000000000000 0.0 0.0 0.0 # Si_
112 1 1 0.000000000000 0.0 0.0 0.0 # Si_
113 1 1 0.000000000000 0.0 0.0 0.0 # Si_
114 1 1 0.000000000000 0.0 0.0 0.0 # Si_
115 1 1 0.000000000000 0.0 0.0 0.0 # Si_
116 1 1 0.000000000000 0.0 0.0 0.0 # Si_
117 1 1 0.000000000000 0.0 0.0 0.0 # Si_
118 1 1 0.000000000000 0.0 0.0 0.0 # Si_
119 1 1 0.000000000000 0.0 0.0 0.0 # Si_
120 1 1 0.000000000000 0.0 0.0 0.0 # Si_
121 1 1 0.000000000000 0.0 0.0 0.0 # Si_
122 1 1 0.000000000000 0.0 0.0 0.0 # Si_
123 1 1 0.000000000000 0.0 0.0 0.0 # Si_
124 1 1 0.000000000000 0.0 0.0 0.0 # Si_
125 1 1 0.000000000000 0.0 0.0 0.0 # Si_
126 1 1 0.000000000000 0.0 0.0 0.0 # Si_
127 1 1 0.000000000000 0.0 0.0 0.0 # Si_
128 1 1 0.000000000000 0.0 0.0 0.0 # Si_
129 1 1 0.000000000000 0.0 0.0 0.0 # Si_
130 1 1 0.000000000000 0.0 0.0 0.0 # Si_
131 1 1 0.000000000000 0.0 0.0 0.0 # Si_
132 1 2 0.000000000000 0.0 0.0 0.0 # O_
133 1 2 0.000000000000 0.0 0.0 0.0 # O_
134 1 2 0.000000000000 0.0 0.0 0.0 # O_
135 1 2 0.000000000000 0.0 0.0 0.0 # O_
136 1 2 0.000000000000 0.0 0.0 0.0 # O_
137 1 2 0.000000000000 0.0 0.0 0.0 # O_
138 1 2 0.000000000000 0.0 0.0 0.0 # O_
139 1 2 0.000000000000 0.0 0.0 0.0 # O_
140 1 2 0.000000000000 0.0 0.0 0.0 # O_
141 1 2 0.000000000000 0.0 0.0 0.0 # O_
142 1 2 0.000000000000 0.0 0.0 0.0 # O_
143 1 2 0.000000000000 0.0 0.0 0.0 # O_
144 1 3 0.000000000000 0.0 0.0 0.0 # C_3
145 1 3 0.000000000000 0.0 0.0 0.0 # C_3
146 1 3 0.000000000000 0.0 0.0 0.0 # C_3
147 1 3 0.000000000000 0.0 0.0 0.0 # C_3
148 1 3 0.000000000000 0.0 0.0 0.0 # C_3
149 1 3 0.000000000000 0.0 0.0 0.0 # C_3
150 1 3 0.000000000000 0.0 0.0 0.0 # C_3
151 1 3 0.000000000000 0.0 0.0 0.0 # C_3
152 1 3 0.000000000000 0.0 0.0 0.0 # C_3
153 1 3 0.000000000000 0.0 0.0 0.0 # C_3
154 1 3 0.000000000000 0.0 0.0 0.0 # C_3
155 1 3 0.000000000000 0.0 0.0 0.0 # C_3
156 1 3 0.000000000000 0.0 0.0 0.0 # C_3
157 1 3 0.000000000000 0.0 0.0 0.0 # C_3
158 1 3 0.000000000000 0.0 0.0 0.0 # C_3
159 1 3 0.000000000000 0.0 0.0 0.0 # C_3
160 1 3 0.000000000000 0.0 0.0 0.0 # C_3
161 1 3 0.000000000000 0.0 0.0 0.0 # C_3
162 1 3 0.000000000000 0.0 0.0 0.0 # C_3
163 1 3 0.000000000000 0.0 0.0 0.0 # C_3
164 1 3 0.000000000000 0.0 0.0 0.0 # C_3
165 1 3 0.000000000000 0.0 0.0 0.0 # C_3
166 1 3 0.000000000000 0.0 0.0 0.0 # C_3
167 1 3 0.000000000000 0.0 0.0 0.0 # C_3
168 1 3 0.000000000000 0.0 0.0 0.0 # C_3
169 1 3 0.000000000000 0.0 0.0 0.0 # C_3
170 1 3 0.000000000000 0.0 0.0 0.0 # C_3
171 1 3 0.000000000000 0.0 0.0 0.0 # C_3
172 1 3 0.000000000000 0.0 0.0 0.0 # C_3
173 1 3 0.000000000000 0.0 0.0 0.0 # C_3
174 1 3 0.000000000000 0.0 0.0 0.0 # C_3
175 1 3 0.000000000000 0.0 0.0 0.0 # C_3
176 1 3 0.000000000000 0.0 0.0 0.0 # C_3
177 1 3 0.000000000000 0.0 0.0 0.0 # C_3
178 1 3 0.000000000000 0.0 0.0 0.0 # C_3
179 1 3 0.000000000000 0.0 0.0 0.0 # C_3
180 1 3 0.000000000000 0.0 0.0 0.0 # C_3
181 1 3 0.000000000000 0.0 0.0 0.0 # C_3
182 1 3 0.000000000000 0.0 0.0 0.0 # C_3
183 1 3 0.000000000000 0.0 0.0 0.0 # C_3
184 1 3 0.000000000000 0.0 0.0 0.0 # C_3
185 1 3 0.000000000000 0.0 0.0 0.0 # C_3
186 1 3 0.000000000000 0.0 0.0 0.0 # C_3
187 1 3 0.000000000000 0.0 0.0 0.0 # C_3
188 1 3 0.000000000000 0.0 0.0 0.0 # C_3
189 1 3 0.000000000000 0.0 0.0 0.0 # C_3
190 1 3 0.000000000000 0.0 0.0 0.0 # C_3
191 1 3 0.000000000000 0.0 0.0 0.0 # C_3
192 1 3 0.000000000000 0.0 0.0 0.0 # C_3
193 1 3 0.000000000000 0.0 0.0 0.0 # C_3
194 1 3 0.000000000000 0.0 0.0 0.0 # C_3
195 1 3 0.000000000000 0.0 0.0 0.0 # C_3
196 1 3 0.000000000000 0.0 0.0 0.0 # C_3
197 1 3 0.000000000000 0.0 0.0 0.0 # C_3
198 1 3 0.000000000000 0.0 0.0 0.0 # C_3
199 1 3 0.000000000000 0.0 0.0 0.0 # C_3
200 1 3 0.000000000000 0.0 0.0 0.0 # C_3
201 1 3 0.000000000000 0.0 0.0 0.0 # C_3
202 1 3 0.000000000000 0.0 0.0 0.0 # C_3
203 1 1 0.000000000000 0.0 0.0 0.0 # Si_
204 1 1 0.000000000000 0.0 0.0 0.0 # Si_
205 1 1 0.000000000000 0.0 0.0 0.0 # Si_
206 1 1 0.000000000000 0.0 0.0 0.0 # Si_
207 1 1 0.000000000000 0.0 0.0 0.0 # Si_
208 1 1 0.000000000000 0.0 0.0 0.0 # Si_
209 1 1 0.000000000000 0.0 0.0 0.0 # Si_
210 1 1 0.000000000000 0.0 0.0 0.0 # Si_
211 1 1 0.000000000000 0.0 0.0 0.0 # Si_
212 1 1 0.000000000000 0.0 0.0 0.0 # Si_
213 1 2 0.000000000000 0.0 0.0 0.0 # O_
214 1 2 0.000000000000 0.0 0.0 0.0 # O_
215 1 2 0.000000000000 0.0 0.0 0.0 # O_
216 1 2 0.000000000000 0.0 0.0 0.0 # O_
217 1 2 0.000000000000 0.0 0.0 0.0 # O_
218 1 2 0.000000000000 0.0 0.0 0.0 # O_
219 1 2 0.000000000000 0.0 0.0 0.0 # O_
220 1 2 0.000000000000 0.0 0.0 0.0 # O_
221 1 2 0.000000000000 0.0 0.0 0.0 # O_
222 1 2 0.000000000000 0.0 0.0 0.0 # O_
223 1 2 0.000000000000 0.0 0.0 0.0 # O_
224 1 2 0.000000000000 0.0 0.0 0.0 # O_
225 1 3 0.000000000000 0.0 0.0 0.0 # C_3
226 1 3 0.000000000000 0.0 0.0 0.0 # C_3
227 1 3 0.000000000000 0.0 0.0 0.0 # C_3
228 1 3 0.000000000000 0.0 0.0 0.0 # C_3
229 1 3 0.000000000000 0.0 0.0 0.0 # C_3
230 1 3 0.000000000000 0.0 0.0 0.0 # C_3
231 1 3 0.000000000000 0.0 0.0 0.0 # C_3
232 1 3 0.000000000000 0.0 0.0 0.0 # C_3
233 1 3 0.000000000000 0.0 0.0 0.0 # C_3
234 1 3 0.000000000000 0.0 0.0 0.0 # C_3
235 1 3 0.000000000000 0.0 0.0 0.0 # C_3
236 1 3 0.000000000000 0.0 0.0 0.0 # C_3
237 1 3 0.000000000000 0.0 0.0 0.0 # C_3
238 1 3 0.000000000000 0.0 0.0 0.0 # C_3
239 1 3 0.000000000000 0.0 0.0 0.0 # C_3
240 1 3 0.000000000000 0.0 0.0 0.0 # C_3
241 1 3 0.000000000000 0.0 0.0 0.0 # C_3
242 1 3 0.000000000000 0.0 0.0 0.0 # C_3
243 1 3 0.000000000000 0.0 0.0 0.0 # C_3
244 1 3 0.000000000000 0.0 0.0 0.0 # C_3
245 1 3 0.000000000000 0.0 0.0 0.0 # C_3
246 1 3 0.000000000000 0.0 0.0 0.0 # C_3
247 1 3 0.000000000000 0.0 0.0 0.0 # C_3
248 1 3 0.000000000000 0.0 0.0 0.0 # C_3
249 1 3 0.000000000000 0.0 0.0 0.0 # C_3
250 1 3 0.000000000000 0.0 0.0 0.0 # C_3
251 1 3 0.000000000000 0.0 0.0 0.0 # C_3
252 1 3 0.000000000000 0.0 0.0 0.0 # C_3
253 1 3 0.000000000000 0.0 0.0 0.0 # C_3
254 1 3 0.000000000000 0.0 0.0 0.0 # C_3
255 1 3 0.000000000000 0.0 0.0 0.0 # C_3
256 1 3 0.000000000000 0.0 0.0 0.0 # C_3
257 1 3 0.000000000000 0.0 0.0 0.0 # C_3
258 1 3 0.000000000000 0.0 0.0 0.0 # C_3
259 1 3 0.000000000000 0.0 0.0 0.0 # C_3
260 1 3 0.000000000000 0.0 0.0 0.0 # C_3
261 1 3 0.000000000000 0.0 0.0 0.0 # C_3
262 1 3 0.000000000000 0.0 0.0 0.0 # C_3
263 1 3 0.000000000000 0.0 0.0 0.0 # C_3
264 1 3 0.000000000000 0.0 0.0 0.0 # C_3
265 1 3 0.000000000000 0.0 0.0 0.0 # C_3
266 1 3 0.000000000000 0.0 0.0 0.0 # C_3
267 1 3 0.000000000000 0.0 0.0 0.0 # C_3
268 1 3 0.000000000000 0.0 0.0 0.0 # C_3
269 1 3 0.000000000000 0.0 0.0 0.0 # C_3
270 1 3 0.000000000000 0.0 0.0 0.0 # C_3
271 1 3 0.000000000000 0.0 0.0 0.0 # C_3
272 1 3 0.000000000000 0.0 0.0 0.0 # C_3
273 1 3 0.000000000000 0.0 0.0 0.0 # C_3
274 1 3 0.000000000000 0.0 0.0 0.0 # C_3
275 1 3 0.000000000000 0.0 0.0 0.0 # C_3
276 1 3 0.000000000000 0.0 0.0 0.0 # C_3
277 1 3 0.000000000000 0.0 0.0 0.0 # C_3
278 1 3 0.000000000000 0.0 0.0 0.0 # C_3
279 1 3 0.000000000000 0.0 0.0 0.0 # C_3
280 1 3 0.000000000000 0.0 0.0 0.0 # C_3
281 1 3 0.000000000000 0.0 0.0 0.0 # C_3
282 1 3 0.000000000000 0.0 0.0 0.0 # C_3
283 1 3 0.000000000000 0.0 0.0 0.0 # C_3
284 1 1 0.000000000000 0.0 0.0 0.0 # Si_
285 1 1 0.000000000000 0.0 0.0 0.0 # Si_
286 1 1 0.000000000000 0.0 0.0 0.0 # Si_
287 1 1 0.000000000000 0.0 0.0 0.0 # Si_
288 1 1 0.000000000000 0.0 0.0 0.0 # Si_
289 1 1 0.000000000000 0.0 0.0 0.0 # Si_
290 1 1 0.000000000000 0.0 0.0 0.0 # Si_
291 1 1 0.000000000000 0.0 0.0 0.0 # Si_
292 1 1 0.000000000000 0.0 0.0 0.0 # Si_
293 1 1 0.000000000000 0.0 0.0 0.0 # Si_
294 1 1 0.000000000000 0.0 0.0 0.0 # Si_
295 1 1 0.000000000000 0.0 0.0 0.0 # Si_
296 1 1 0.000000000000 0.0 0.0 0.0 # Si_
297 1 1 0.000000000000 0.0 0.0 0.0 # Si_
298 1 1 0.000000000000 0.0 0.0 0.0 # Si_
299 1 1 0.000000000000 0.0 0.0 0.0 # Si_
300 1 1 0.000000000000 0.0 0.0 0.0 # Si_
301 1 1 0.000000000000 0.0 0.0 0.0 # Si_
302 1 1 0.000000000000 0.0 0.0 0.0 # Si_
303 1 1 0.000000000000 0.0 0.0 0.0 # Si_
304 1 1 0.000000000000 0.0 0.0 0.0 # Si_
305 1 1 0.000000000000 0.0 0.0 0.0 # Si_
306 1 1 0.000000000000 0.0 0.0 0.0 # Si_
307 1 1 0.000000000000 0.0 0.0 0.0 # Si_
308 1 1 0.000000000000 0.0 0.0 0.0 # Si_
309 1 1 0.000000000000 0.0 0.0 0.0 # Si_
310 1 1 0.000000000000 0.0 0.0 0.0 # Si_
311 1 2 0.000000000000 0.0 0.0 0.0 # O_
312 1 2 0.000000000000 0.0 0.0 0.0 # O_
313 1 2 0.000000000000 0.0 0.0 0.0 # O_
314 1 2 0.000000000000 0.0 0.0 0.0 # O_
315 1 2 0.000000000000 0.0 0.0 0.0 # O_
316 1 2 0.000000000000 0.0 0.0 0.0 # O_
317 1 2 0.000000000000 0.0 0.0 0.0 # O_
318 1 2 0.000000000000 0.0 0.0 0.0 # O_
319 1 2 0.000000000000 0.0 0.0 0.0 # O_
320 1 2 0.000000000000 0.0 0.0 0.0 # O_
321 1 2 0.000000000000 0.0 0.0 0.0 # O_
322 1 2 0.000000000000 0.0 0.0 0.0 # O_
323 1 3 0.000000000000 0.0 0.0 0.0 # C_3
324 1 3 0.000000000000 0.0 0.0 0.0 # C_3
325 1 3 0.000000000000 0.0 0.0 0.0 # C_3
326 1 3 0.000000000000 0.0 0.0 0.0 # C_3
327 1 3 0.000000000000 0.0 0.0 0.0 # C_3
328 1 3 0.000000000000 0.0 0.0 0.0 # C_3
329 1 3 0.000000000000 0.0 0.0 0.0 # C_3
330 1 3 0.000000000000 0.0 0.0 0.0 # C_3
331 1 3 0.000000000000 0.0 0.0 0.0 # C_3
332 1 3 0.000000000000 0.0 0.0 0.0 # C_3
333 1 3 0.000000000000 0.0 0.0 0.0 # C_3
334 1 3 0.000000000000 0.0 0.0 0.0 # C_3
335 1 3 0.000000000000 0.0 0.0 0.0 # C_3
336 1 3 0.000000000000 0.0 0.0 0.0 # C_3
337 1 3 0.000000000000 0.0 0.0 0.0 # C_3
338 1 3 0.000000000000 0.0 0.0 0.0 # C_3
339 1 3 0.000000000000 0.0 0.0 0.0 # C_3
340 1 3 0.000000000000 0.0 0.0 0.0 # C_3
341 1 3 0.000000000000 0.0 0.0 0.0 # C_3
342 1 3 0.000000000000 0.0 0.0 0.0 # C_3
343 1 3 0.000000000000 0.0 0.0 0.0 # C_3
344 1 3 0.000000000000 0.0 0.0 0.0 # C_3
345 1 3 0.000000000000 0.0 0.0 0.0 # C_3
346 1 3 0.000000000000 0.0 0.0 0.0 # C_3
347 1 3 0.000000000000 0.0 0.0 0.0 # C_3
348 1 3 0.000000000000 0.0 0.0 0.0 # C_3
349 1 3 0.000000000000 0.0 0.0 0.0 # C_3
350 1 3 0.000000000000 0.0 0.0 0.0 # C_3
351 1 3 0.000000000000 0.0 0.0 0.0 # C_3
352 1 3 0.000000000000 0.0 0.0 0.0 # C_3
353 1 3 0.000000000000 0.0 0.0 0.0 # C_3
354 1 3 0.000000000000 0.0 0.0 0.0 # C_3
355 1 3 0.000000000000 0.0 0.0 0.0 # C_3
356 1 3 0.000000000000 0.0 0.0 0.0 # C_3
357 1 3 0.000000000000 0.0 0.0 0.0 # C_3
358 1 3 0.000000000000 0.0 0.0 0.0 # C_3
359 1 3 0.000000000000 0.0 0.0 0.0 # C_3
360 1 3 0.000000000000 0.0 0.0 0.0 # C_3
361 1 3 0.000000000000 0.0 0.0 0.0 # C_3
362 1 3 0.000000000000 0.0 0.0 0.0 # C_3
363 1 3 0.000000000000 0.0 0.0 0.0 # C_3
364 1 3 0.000000000000 0.0 0.0 0.0 # C_3
365 1 3 0.000000000000 0.0 0.0 0.0 # C_3
366 1 3 0.000000000000 0.0 0.0 0.0 # C_3
367 1 3 0.000000000000 0.0 0.0 0.0 # C_3
368 1 3 0.000000000000 0.0 0.0 0.0 # C_3
369 1 3 0.000000000000 0.0 0.0 0.0 # C_3
370 1 3 0.000000000000 0.0 0.0 0.0 # C_3
371 1 3 0.000000000000 0.0 0.0 0.0 # C_3
372 1 3 0.000000000000 0.0 0.0 0.0 # C_3
373 1 3 0.000000000000 0.0 0.0 0.0 # C_3
374 1 3 0.000000000000 0.0 0.0 0.0 # C_3
375 1 3 0.000000000000 0.0 0.0 0.0 # C_3
376 1 3 0.000000000000 0.0 0.0 0.0 # C_3
377 1 3 0.000000000000 0.0 0.0 0.0 # C_3
378 1 3 0.000000000000 0.0 0.0 0.0 # C_3
379 1 3 0.000000000000 0.0 0.0 0.0 # C_3
380 1 3 0.000000000000 0.0 0.0 0.0 # C_3
381 1 3 0.000000000000 0.0 0.0 0.0 # C_3
382 1 1 0.000000000000 0.0 0.0 0.0 # Si_
383 1 1 0.000000000000 0.0 0.0 0.0 # Si_
384 1 1 0.000000000000 0.0 0.0 0.0 # Si_
385 1 1 0.000000000000 0.0 0.0 0.0 # Si_
386 1 1 0.000000000000 0.0 0.0 0.0 # Si_
387 1 1 0.000000000000 0.0 0.0 0.0 # Si_
388 1 1 0.000000000000 0.0 0.0 0.0 # Si_
389 1 1 0.000000000000 0.0 0.0 0.0 # Si_
390 1 1 0.000000000000 0.0 0.0 0.0 # Si_
391 1 1 0.000000000000 0.0 0.0 0.0 # Si_
392 1 2 0.000000000000 0.0 0.0 0.0 # O_
393 1 2 0.000000000000 0.0 0.0 0.0 # O_
394 1 2 0.000000000000 0.0 0.0 0.0 # O_
395 1 2 0.000000000000 0.0 0.0 0.0 # O_
396 1 2 0.000000000000 0.0 0.0 0.0 # O_
397 1 2 0.000000000000 0.0 0.0 0.0 # O_
398 1 2 0.000000000000 0.0 0.0 0.0 # O_
399 1 2 0.000000000000 0.0 0.0 0.0 # O_
400 1 2 0.000000000000 0.0 0.0 0.0 # O_
401 1 2 0.000000000000 0.0 0.0 0.0 # O_
402 1 2 0.000000000000 0.0 0.0 0.0 # O_
403 1 2 0.000000000000 0.0 0.0 0.0 # O_
404 1 3 0.000000000000 0.0 0.0 0.0 # C_3
405 1 3 0.000000000000 0.0 0.0 0.0 # C_3
406 1 3 0.000000000000 0.0 0.0 0.0 # C_3
407 1 3 0.000000000000 0.0 0.0 0.0 # C_3
408 1 3 0.000000000000 0.0 0.0 0.0 # C_3
409 1 3 0.000000000000 0.0 0.0 0.0 # C_3
410 1 3 0.000000000000 0.0 0.0 0.0 # C_3
411 1 3 0.000000000000 0.0 0.0 0.0 # C_3
412 1 3 0.000000000000 0.0 0.0 0.0 # C_3
413 1 3 0.000000000000 0.0 0.0 0.0 # C_3
414 1 3 0.000000000000 0.0 0.0 0.0 # C_3
415 1 3 0.000000000000 0.0 0.0 0.0 # C_3
416 1 3 0.000000000000 0.0 0.0 0.0 # C_3
417 1 3 0.000000000000 0.0 0.0 0.0 # C_3
418 1 3 0.000000000000 0.0 0.0 0.0 # C_3
419 1 3 0.000000000000 0.0 0.0 0.0 # C_3
420 1 3 0.000000000000 0.0 0.0 0.0 # C_3
421 1 3 0.000000000000 0.0 0.0 0.0 # C_3
422 1 3 0.000000000000 0.0 0.0 0.0 # C_3
423 1 3 0.000000000000 0.0 0.0 0.0 # C_3
424 1 3 0.000000000000 0.0 0.0 0.0 # C_3
425 1 3 0.000000000000 0.0 0.0 0.0 # C_3
426 1 3 0.000000000000 0.0 0.0 0.0 # C_3
427 1 3 0.000000000000 0.0 0.0 0.0 # C_3
428 1 3 0.000000000000 0.0 0.0 0.0 # C_3
429 1 3 0.000000000000 0.0 0.0 0.0 # C_3
430 1 3 0.000000000000 0.0 0.0 0.0 # C_3
431 1 3 0.000000000000 0.0 0.0 0.0 # C_3
432 1 3 0.000000000000 0.0 0.0 0.0 # C_3
433 1 3 0.000000000000 0.0 0.0 0.0 # C_3
434 1 3 0.000000000000 0.0 0.0 0.0 # C_3
435 1 3 0.000000000000 0.0 0.0 0.0 # C_3
436 1 3 0.000000000000 0.0 0.0 0.0 # C_3
437 1 3 0.000000000000 0.0 0.0 0.0 # C_3
438 1 3 0.000000000000 0.0 0.0 0.0 # C_3
439 1 3 0.000000000000 0.0 0.0 0.0 # C_3
440 1 3 0.000000000000 0.0 0.0 0.0 # C_3
441 1 3 0.000000000000 0.0 0.0 0.0 # C_3
442 1 3 0.000000000000 0.0 0.0 0.0 # C_3
443 1 3 0.000000000000 0.0 0.0 0.0 # C_3
444 1 3 0.000000000000 0.0 0.0 0.0 # C_3
445 1 3 0.000000000000 0.0 0.0 0.0 # C_3
446 1 3 0.000000000000 0.0 0.0 0.0 # C_3
447 1 3 0.000000000000 0.0 0.0 0.0 # C_3
448 1 3 0.000000000000 0.0 0.0 0.0 # C_3
449 1 3 0.000000000000 0.0 0.0 0.0 # C_3
450 1 3 0.000000000000 0.0 0.0 0.0 # C_3
451 1 3 0.000000000000 0.0 0.0 0.0 # C_3
452 1 3 0.000000000000 0.0 0.0 0.0 # C_3
453 1 3 0.000000000000 0.0 0.0 0.0 # C_3
454 1 3 0.000000000000 0.0 0.0 0.0 # C_3
455 1 3 0.000000000000 0.0 0.0 0.0 # C_3
456 1 3 0.000000000000 0.0 0.0 0.0 # C_3
457 1 3 0.000000000000 0.0 0.0 0.0 # C_3
458 1 3 0.000000000000 0.0 0.0 0.0 # C_3
459 1 3 0.000000000000 0.0 0.0 0.0 # C_3
460 1 3 0.000000000000 0.0 0.0 0.0 # C_3
461 1 3 0.000000000000 0.0 0.0 0.0 # C_3
462 1 3 0.000000000000 0.0 0.0 0.0 # C_3
463 1 1 0.000000000000 0.0 0.0 0.0 # Si_
464 1 1 0.000000000000 0.0 0.0 0.0 # Si_
465 1 1 0.000000000000 0.0 0.0 0.0 # Si_
466 1 1 0.000000000000 0.0 0.0 0.0 # Si_
467 1 1 0.000000000000 0.0 0.0 0.0 # Si_
468 1 1 0.000000000000 0.0 0.0 0.0 # Si_
469 1 1 0.000000000000 0.0 0.0 0.0 # Si_
470 1 1 0.000000000000 0.0 0.0 0.0 # Si_
471 1 1 0.000000000000 0.0 0.0 0.0 # Si_
472 1 1 0.000000000000 0.0 0.0 0.0 # Si_
473 1 1 0.000000000000 0.0 0.0 0.0 # Si_
474 1 1 0.000000000000 0.0 0.0 0.0 # Si_
475 1 1 0.000000000000 0.0 0.0 0.0 # Si_
476 1 1 0.000000000000 0.0 0.0 0.0 # Si_
477 1 1 0.000000000000 0.0 0.0 0.0 # Si_
478 1 1 0.000000000000 0.0 0.0 0.0 # Si_
479 1 1 0.000000000000 0.0 0.0 0.0 # Si_
480 1 1 0.000000000000 0.0 0.0 0.0 # Si_
481 1 1 0.000000000000 0.0 0.0 0.0 # Si_
482 1 1 0.000000000000 0.0 0.0 0.0 # Si_
483 1 1 0.000000000000 0.0 0.0 0.0 # Si_
484 1 1 0.000000000000 0.0 0.0 0.0 # Si_
485 1 1 0.000000000000 0.0 0.0 0.0 # Si_
486 1 1 0.000000000000 0.0 0.0 0.0 # Si_
487 1 1 0.000000000000 0.0 0.0 0.0 # Si_
488 1 1 0.000000000000 0.0 0.0 0.0 # Si_
489 1 1 0.000000000000 0.0 0.0 0.0 # Si_
490 1 1 0.000000000000 0.0 0.0 0.0 # Si_
491 1 1 0.000000000000 0.0 0.0 0.0 # Si_
492 1 1 0.000000000000 0.0 0.0 0.0 # Si_
493 1 1 0.000000000000 0.0 0.0 0.0 # Si_
494 1 1 0.000000000000 0.0 0.0 0.0 # Si_
495 1 1 0.000000000000 0.0 0.0 0.0 # Si_
496 1 1 0.000000000000 0.0 0.0 0.0 # Si_
497 1 1 0.000000000000 0.0 0.0 0.0 # Si_
498 1 1 0.000000000000 0.0 0.0 0.0 # Si_
499 1 1 0.000000000000 0.0 0.0 0.0 # Si_
500 1 1 0.000000000000 0.0 0.0 0.0 # Si_
501 1 1 0.000000000000 0.0 0.0 0.0 # Si_
502 1 1 0.000000000000 0.0 0.0 0.0 # Si_
503 1 1 0.000000000000 0.0 0.0 0.0 # Si_
504 1 1 0.000000000000 0.0 0.0 0.0 # Si_
505 1 1 0.000000000000 0.0 0.0 0.0 # Si_
506 1 1 0.000000000000 0.0 0.0 0.0 # Si_
507 1 1 0.000000000000 0.0 0.0 0.0 # Si_
508 1 1 0.000000000000 0.0 0.0 0.0 # Si_
509 1 1 0.000000000000 0.0 0.0 0.0 # Si_
510 1 2 0.000000000000 0.0 0.0 0.0 # O_
511 1 2 0.000000000000 0.0 0.0 0.0 # O_
512 1 2 0.000000000000 0.0 0.0 0.0 # O_
513 1 2 0.000000000000 0.0 0.0 0.0 # O_
514 1 2 0.000000000000 0.0 0.0 0.0 # O_
515 1 2 0.000000000000 0.0 0.0 0.0 # O_
516 1 2 0.000000000000 0.0 0.0 0.0 # O_
517 1 2 0.000000000000 0.0 0.0 0.0 # O_
518 1 2 0.000000000000 0.0 0.0 0.0 # O_
519 1 2 0.000000000000 0.0 0.0 0.0 # O_
520 1 2 0.000000000000 0.0 0.0 0.0 # O_
521 1 2 0.000000000000 0.0 0.0 0.0 # O_
522 1 3 0.000000000000 0.0 0.0 0.0 # C_3
523 1 3 0.000000000000 0.0 0.0 0.0 # C_3
524 1 3 0.000000000000 0.0 0.0 0.0 # C_3
525 1 3 0.000000000000 0.0 0.0 0.0 # C_3
526 1 3 0.000000000000 0.0 0.0 0.0 # C_3
527 1 3 0.000000000000 0.0 0.0 0.0 # C_3
528 1 3 0.000000000000 0.0 0.0 0.0 # C_3
529 1 3 0.000000000000 0.0 0.0 0.0 # C_3
530 1 3 0.000000000000 0.0 0.0 0.0 # C_3
531 1 3 0.000000000000 0.0 0.0 0.0 # C_3
532 1 3 0.000000000000 0.0 0.0 0.0 # C_3
533 1 3 0.000000000000 0.0 0.0 0.0 # C_3
534 1 3 0.000000000000 0.0 0.0 0.0 # C_3
535 1 3 0.000000000000 0.0 0.0 0.0 # C_3
536 1 3 0.000000000000 0.0 0.0 0.0 # C_3
537 1 3 0.000000000000 0.0 0.0 0.0 # C_3
538 1 3 0.000000000000 0.0 0.0 0.0 # C_3
539 1 3 0.000000000000 0.0 0.0 0.0 # C_3
540 1 3 0.000000000000 0.0 0.0 0.0 # C_3
541 1 3 0.000000000000 0.0 0.0 0.0 # C_3
542 1 3 0.000000000000 0.0 0.0 0.0 # C_3
543 1 3 0.000000000000 0.0 0.0 0.0 # C_3
544 1 3 0.000000000000 0.0 0.0 0.0 # C_3
545 1 3 0.000000000000 0.0 0.0 0.0 # C_3
546 1 3 0.000000000000 0.0 0.0 0.0 # C_3
547 1 3 0.000000000000 0.0 0.0 0.0 # C_3
548 1 3 0.000000000000 0.0 0.0 0.0 # C_3
549 1 3 0.000000000000 0.0 0.0 0.0 # C_3
550 1 3 0.000000000000 0.0 0.0 0.0 # C_3
551 1 3 0.000000000000 0.0 0.0 0.0 # C_3
552 1 3 0.000000000000 0.0 0.0 0.0 # C_3
553 1 3 0.000000000000 0.0 0.0 0.0 # C_3
554 1 3 0.000000000000 0.0 0.0 0.0 # C_3
555 1 3 0.000000000000 0.0 0.0 0.0 # C_3
556 1 3 0.000000000000 0.0 0.0 0.0 # C_3
557 1 3 0.000000000000 0.0 0.0 0.0 # C_3
558 1 3 0.000000000000 0.0 0.0 0.0 # C_3
559 1 3 0.000000000000 0.0 0.0 0.0 # C_3
560 1 3 0.000000000000 0.0 0.0 0.0 # C_3
561 1 3 0.000000000000 0.0 0.0 0.0 # C_3
562 1 3 0.000000000000 0.0 0.0 0.0 # C_3
563 1 3 0.000000000000 0.0 0.0 0.0 # C_3
564 1 3 0.000000000000 0.0 0.0 0.0 # C_3
565 1 3 0.000000000000 0.0 0.0 0.0 # C_3
566 1 3 0.000000000000 0.0 0.0 0.0 # C_3
567 1 3 0.000000000000 0.0 0.0 0.0 # C_3
568 1 3 0.000000000000 0.0 0.0 0.0 # C_3
569 1 3 0.000000000000 0.0 0.0 0.0 # C_3
570 1 3 0.000000000000 0.0 0.0 0.0 # C_3
571 1 3 0.000000000000 0.0 0.0 0.0 # C_3
572 1 3 0.000000000000 0.0 0.0 0.0 # C_3
573 1 3 0.000000000000 0.0 0.0 0.0 # C_3
574 1 3 0.000000000000 0.0 0.0 0.0 # C_3
575 1 3 0.000000000000 0.0 0.0 0.0 # C_3
576 1 3 0.000000000000 0.0 0.0 0.0 # C_3
577 1 3 0.000000000000 0.0 0.0 0.0 # C_3
578 1 3 0.000000000000 0.0 0.0 0.0 # C_3
579 1 3 0.000000000000 0.0 0.0 0.0 # C_3
580 1 3 0.000000000000 0.0 0.0 0.0 # C_3
581 1 1 0.000000000000 0.0 0.0 0.0 # Si_
582 1 1 0.000000000000 0.0 0.0 0.0 # Si_
583 1 1 0.000000000000 0.0 0.0 0.0 # Si_
584 1 1 0.000000000000 0.0 0.0 0.0 # Si_
585 1 1 0.000000000000 0.0 0.0 0.0 # Si_
586 1 1 0.000000000000 0.0 0.0 0.0 # Si_
587 1 1 0.000000000000 0.0 0.0 0.0 # Si_
588 1 1 0.000000000000 0.0 0.0 0.0 # Si_
589 1 1 0.000000000000 0.0 0.0 0.0 # Si_
590 1 4 0.000000000000 0.0 0.0 0.0 # Si3
591 1 3 0.000000000000 0.0 0.0 0.0 # C_3
592 1 3 0.000000000000 0.0 0.0 0.0 # C_3
593 1 5 0.000000000000 0.0 0.0 0.0 # O_3
594 1 4 0.000000000000 0.0 0.0 0.0 # Si3
595 1 3 0.000000000000 0.0 0.0 0.0 # C_3
596 1 3 0.000000000000 0.0 0.0 0.0 # C_3
597 1 5 0.000000000000 0.0 0.0 0.0 # O_3
598 1 4 0.000000000000 0.0 0.0 0.0 # Si3
599 1 3 0.000000000000 0.0 0.0 0.0 # C_3
600 1 3 0.000000000000 0.0 0.0 0.0 # C_3
601 1 5 0.000000000000 0.0 0.0 0.0 # O_3
602 1 4 0.000000000000 0.0 0.0 0.0 # Si3
603 1 3 0.000000000000 0.0 0.0 0.0 # C_3
604 1 3 0.000000000000 0.0 0.0 0.0 # C_3
605 1 5 0.000000000000 0.0 0.0 0.0 # O_3
606 1 4 0.000000000000 0.0 0.0 0.0 # Si3
607 1 3 0.000000000000 0.0 0.0 0.0 # C_3
608 1 3 0.000000000000 0.0 0.0 0.0 # C_3
609 1 5 0.000000000000 0.0 0.0 0.0 # O_3
610 1 2 0.000000000000 0.0 0.0 0.0 # O_
611 1 4 0.000000000000 0.0 0.0 0.0 # Si3
612 1 3 0.000000000000 0.0 0.0 0.0 # C_3
613 1 3 0.000000000000 0.0 0.0 0.0 # C_3
614 1 5 0.000000000000 0.0 0.0 0.0 # O_3
615 1 4 0.000000000000 0.0 0.0 0.0 # Si3
616 1 3 0.000000000000 0.0 0.0 0.0 # C_3
617 1 3 0.000000000000 0.0 0.0 0.0 # C_3
618 1 5 0.000000000000 0.0 0.0 0.0 # O_3
619 1 4 0.000000000000 0.0 0.0 0.0 # Si3
620 1 3 0.000000000000 0.0 0.0 0.0 # C_3
621 1 3 0.000000000000 0.0 0.0 0.0 # C_3
622 1 5 0.000000000000 0.0 0.0 0.0 # O_3
623 1 4 0.000000000000 0.0 0.0 0.0 # Si3
624 1 3 0.000000000000 0.0 0.0 0.0 # C_3
625 1 3 0.000000000000 0.0 0.0 0.0 # C_3
626 1 5 0.000000000000 0.0 0.0 0.0 # O_3
627 1 4 0.000000000000 0.0 0.0 0.0 # Si3
628 1 3 0.000000000000 0.0 0.0 0.0 # C_3
629 1 3 0.000000000000 0.0 0.0 0.0 # C_3
630 1 5 0.000000000000 0.0 0.0 0.0 # O_3
631 1 2 0.000000000000 0.0 0.0 0.0 # O_
632 1 4 0.000000000000 0.0 0.0 0.0 # Si3
633 1 3 0.000000000000 0.0 0.0 0.0 # C_3
634 1 3 0.000000000000 0.0 0.0 0.0 # C_3
635 1 5 0.000000000000 0.0 0.0 0.0 # O_3
636 1 4 0.000000000000 0.0 0.0 0.0 # Si3
637 1 3 0.000000000000 0.0 0.0 0.0 # C_3
638 1 3 0.000000000000 0.0 0.0 0.0 # C_3
639 1 5 0.000000000000 0.0 0.0 0.0 # O_3
640 1 4 0.000000000000 0.0 0.0 0.0 # Si3
641 1 3 0.000000000000 0.0 0.0 0.0 # C_3
642 1 3 0.000000000000 0.0 0.0 0.0 # C_3
643 1 5 0.000000000000 0.0 0.0 0.0 # O_3
644 1 4 0.000000000000 0.0 0.0 0.0 # Si3
645 1 3 0.000000000000 0.0 0.0 0.0 # C_3
646 1 3 0.000000000000 0.0 0.0 0.0 # C_3
647 1 5 0.000000000000 0.0 0.0 0.0 # O_3
648 1 4 0.000000000000 0.0 0.0 0.0 # Si3
649 1 3 0.000000000000 0.0 0.0 0.0 # C_3
650 1 3 0.000000000000 0.0 0.0 0.0 # C_3
651 1 5 0.000000000000 0.0 0.0 0.0 # O_3
652 1 2 0.000000000000 0.0 0.0 0.0 # O_
653 1 4 0.000000000000 0.0 0.0 0.0 # Si3
654 1 3 0.000000000000 0.0 0.0 0.0 # C_3
655 1 3 0.000000000000 0.0 0.0 0.0 # C_3
656 1 5 0.000000000000 0.0 0.0 0.0 # O_3
657 1 4 0.000000000000 0.0 0.0 0.0 # Si3
658 1 3 0.000000000000 0.0 0.0 0.0 # C_3
659 1 3 0.000000000000 0.0 0.0 0.0 # C_3
660 1 5 0.000000000000 0.0 0.0 0.0 # O_3
661 1 4 0.000000000000 0.0 0.0 0.0 # Si3
662 1 3 0.000000000000 0.0 0.0 0.0 # C_3
663 1 3 0.000000000000 0.0 0.0 0.0 # C_3
664 1 5 0.000000000000 0.0 0.0 0.0 # O_3
665 1 4 0.000000000000 0.0 0.0 0.0 # Si3
666 1 3 0.000000000000 0.0 0.0 0.0 # C_3
667 1 3 0.000000000000 0.0 0.0 0.0 # C_3
668 1 5 0.000000000000 0.0 0.0 0.0 # O_3
669 1 4 0.000000000000 0.0 0.0 0.0 # Si3
670 1 3 0.000000000000 0.0 0.0 0.0 # C_3
671 1 3 0.000000000000 0.0 0.0 0.0 # C_3
672 1 5 0.000000000000 0.0 0.0 0.0 # O_3
673 1 2 0.000000000000 0.0 0.0 0.0 # O_
674 1 4 0.000000000000 0.0 0.0 0.0 # Si3
675 1 3 0.000000000000 0.0 0.0 0.0 # C_3
676 1 3 0.000000000000 0.0 0.0 0.0 # C_3
677 1 5 0.000000000000 0.0 0.0 0.0 # O_3
678 1 4 0.000000000000 0.0 0.0 0.0 # Si3
679 1 3 0.000000000000 0.0 0.0 0.0 # C_3
680 1 3 0.000000000000 0.0 0.0 0.0 # C_3
681 1 5 0.000000000000 0.0 0.0 0.0 # O_3
682 1 4 0.000000000000 0.0 0.0 0.0 # Si3
683 1 3 0.000000000000 0.0 0.0 0.0 # C_3
684 1 3 0.000000000000 0.0 0.0 0.0 # C_3
685 1 5 0.000000000000 0.0 0.0 0.0 # O_3
686 1 4 0.000000000000 0.0 0.0 0.0 # Si3
687 1 3 0.000000000000 0.0 0.0 0.0 # C_3
688 1 3 0.000000000000 0.0 0.0 0.0 # C_3
689 1 5 0.000000000000 0.0 0.0 0.0 # O_3
690 1 4 0.000000000000 0.0 0.0 0.0 # Si3
691 1 3 0.000000000000 0.0 0.0 0.0 # C_3
692 1 3 0.000000000000 0.0 0.0 0.0 # C_3
693 1 5 0.000000000000 0.0 0.0 0.0 # O_3
694 1 2 0.000000000000 0.0 0.0 0.0 # O_
695 1 4 0.000000000000 0.0 0.0 0.0 # Si3
696 1 3 0.000000000000 0.0 0.0 0.0 # C_3
697 1 3 0.000000000000 0.0 0.0 0.0 # C_3
698 1 5 0.000000000000 0.0 0.0 0.0 # O_3
699 1 4 0.000000000000 0.0 0.0 0.0 # Si3
700 1 3 0.000000000000 0.0 0.0 0.0 # C_3
701 1 3 0.000000000000 0.0 0.0 0.0 # C_3
702 1 5 0.000000000000 0.0 0.0 0.0 # O_3
703 1 4 0.000000000000 0.0 0.0 0.0 # Si3
704 1 3 0.000000000000 0.0 0.0 0.0 # C_3
705 1 3 0.000000000000 0.0 0.0 0.0 # C_3
706 1 5 0.000000000000 0.0 0.0 0.0 # O_3
707 1 4 0.000000000000 0.0 0.0 0.0 # Si3
708 1 3 0.000000000000 0.0 0.0 0.0 # C_3
709 1 3 0.000000000000 0.0 0.0 0.0 # C_3
710 1 5 0.000000000000 0.0 0.0 0.0 # O_3
711 1 4 0.000000000000 0.0 0.0 0.0 # Si3
712 1 3 0.000000000000 0.0 0.0 0.0 # C_3
713 1 3 0.000000000000 0.0 0.0 0.0 # C_3
714 1 5 0.000000000000 0.0 0.0 0.0 # O_3
715 1 2 0.000000000000 0.0 0.0 0.0 # O_
716 1 4 0.000000000000 0.0 0.0 0.0 # Si3
717 1 3 0.000000000000 0.0 0.0 0.0 # C_3
718 1 3 0.000000000000 0.0 0.0 0.0 # C_3
719 1 5 0.000000000000 0.0 0.0 0.0 # O_3
720 1 4 0.000000000000 0.0 0.0 0.0 # Si3
721 1 3 0.000000000000 0.0 0.0 0.0 # C_3
722 1 3 0.000000000000 0.0 0.0 0.0 # C_3
723 1 5 0.000000000000 0.0 0.0 0.0 # O_3
724 1 4 0.000000000000 0.0 0.0 0.0 # Si3
725 1 3 0.000000000000 0.0 0.0 0.0 # C_3
726 1 3 0.000000000000 0.0 0.0 0.0 # C_3
727 1 5 0.000000000000 0.0 0.0 0.0 # O_3
728 1 4 0.000000000000 0.0 0.0 0.0 # Si3
729 1 3 0.000000000000 0.0 0.0 0.0 # C_3
730 1 3 0.000000000000 0.0 0.0 0.0 # C_3
731 1 5 0.000000000000 0.0 0.0 0.0 # O_3
732 1 4 0.000000000000 0.0 0.0 0.0 # Si3
733 1 3 0.000000000000 0.0 0.0 0.0 # C_3
734 1 3 0.000000000000 0.0 0.0 0.0 # C_3
735 1 5 0.000000000000 0.0 0.0 0.0 # O_3
736 1 2 0.000000000000 0.0 0.0 0.0 # O_
737 1 4 0.000000000000 0.0 0.0 0.0 # Si3
738 1 3 0.000000000000 0.0 0.0 0.0 # C_3
739 1 3 0.000000000000 0.0 0.0 0.0 # C_3
740 1 5 0.000000000000 0.0 0.0 0.0 # O_3
741 1 4 0.000000000000 0.0 0.0 0.0 # Si3
742 1 3 0.000000000000 0.0 0.0 0.0 # C_3
743 1 3 0.000000000000 0.0 0.0 0.0 # C_3
744 1 5 0.000000000000 0.0 0.0 0.0 # O_3
745 1 4 0.000000000000 0.0 0.0 0.0 # Si3
746 1 3 0.000000000000 0.0 0.0 0.0 # C_3
747 1 3 0.000000000000 0.0 0.0 0.0 # C_3
748 1 5 0.000000000000 0.0 0.0 0.0 # O_3
749 1 4 0.000000000000 0.0 0.0 0.0 # Si3
750 1 3 0.000000000000 0.0 0.0 0.0 # C_3
751 1 3 0.000000000000 0.0 0.0 0.0 # C_3
752 1 5 0.000000000000 0.0 0.0 0.0 # O_3
753 1 4 0.000000000000 0.0 0.0 0.0 # Si3
754 1 3 0.000000000000 0.0 0.0 0.0 # C_3
755 1 3 0.000000000000 0.0 0.0 0.0 # C_3
756 1 5 0.000000000000 0.0 0.0 0.0 # O_3
757 1 2 0.000000000000 0.0 0.0 0.0 # O_
758 1 4 0.000000000000 0.0 0.0 0.0 # Si3
759 1 3 0.000000000000 0.0 0.0 0.0 # C_3
760 1 3 0.000000000000 0.0 0.0 0.0 # C_3
761 1 5 0.000000000000 0.0 0.0 0.0 # O_3
762 1 4 0.000000000000 0.0 0.0 0.0 # Si3
763 1 3 0.000000000000 0.0 0.0 0.0 # C_3
764 1 3 0.000000000000 0.0 0.0 0.0 # C_3
765 1 5 0.000000000000 0.0 0.0 0.0 # O_3
766 1 4 0.000000000000 0.0 0.0 0.0 # Si3
767 1 3 0.000000000000 0.0 0.0 0.0 # C_3
768 1 3 0.000000000000 0.0 0.0 0.0 # C_3
769 1 5 0.000000000000 0.0 0.0 0.0 # O_3
770 1 4 0.000000000000 0.0 0.0 0.0 # Si3
771 1 3 0.000000000000 0.0 0.0 0.0 # C_3
772 1 3 0.000000000000 0.0 0.0 0.0 # C_3
773 1 5 0.000000000000 0.0 0.0 0.0 # O_3
774 1 4 0.000000000000 0.0 0.0 0.0 # Si3
775 1 3 0.000000000000 0.0 0.0 0.0 # C_3
776 1 3 0.000000000000 0.0 0.0 0.0 # C_3
777 1 5 0.000000000000 0.0 0.0 0.0 # O_3
778 1 2 0.000000000000 0.0 0.0 0.0 # O_
779 1 4 0.000000000000 0.0 0.0 0.0 # Si3
780 1 3 0.000000000000 0.0 0.0 0.0 # C_3
781 1 3 0.000000000000 0.0 0.0 0.0 # C_3
782 1 5 0.000000000000 0.0 0.0 0.0 # O_3
783 1 4 0.000000000000 0.0 0.0 0.0 # Si3
784 1 3 0.000000000000 0.0 0.0 0.0 # C_3
785 1 3 0.000000000000 0.0 0.0 0.0 # C_3
786 1 5 0.000000000000 0.0 0.0 0.0 # O_3
787 1 4 0.000000000000 0.0 0.0 0.0 # Si3
788 1 3 0.000000000000 0.0 0.0 0.0 # C_3
789 1 3 0.000000000000 0.0 0.0 0.0 # C_3
790 1 5 0.000000000000 0.0 0.0 0.0 # O_3
791 1 4 0.000000000000 0.0 0.0 0.0 # Si3
792 1 3 0.000000000000 0.0 0.0 0.0 # C_3
793 1 3 0.000000000000 0.0 0.0 0.0 # C_3
794 1 5 0.000000000000 0.0 0.0 0.0 # O_3
795 1 4 0.000000000000 0.0 0.0 0.0 # Si3
796 1 3 0.000000000000 0.0 0.0 0.0 # C_3
797 1 3 0.000000000000 0.0 0.0 0.0 # C_3
798 1 5 0.000000000000 0.0 0.0 0.0 # O_3
799 1 2 0.000000000000 0.0 0.0 0.0 # O_
800 1 4 0.000000000000 0.0 0.0 0.0 # Si3
801 1 3 0.000000000000 0.0 0.0 0.0 # C_3
802 1 3 0.000000000000 0.0 0.0 0.0 # C_3
803 1 5 0.000000000000 0.0 0.0 0.0 # O_3
804 1 4 0.000000000000 0.0 0.0 0.0 # Si3
805 1 3 0.000000000000 0.0 0.0 0.0 # C_3
806 1 3 0.000000000000 0.0 0.0 0.0 # C_3
807 1 5 0.000000000000 0.0 0.0 0.0 # O_3
808 1 4 0.000000000000 0.0 0.0 0.0 # Si3
809 1 3 0.000000000000 0.0 0.0 0.0 # C_3
810 1 3 0.000000000000 0.0 0.0 0.0 # C_3
811 1 5 0.000000000000 0.0 0.0 0.0 # O_3
812 1 4 0.000000000000 0.0 0.0 0.0 # Si3
813 1 3 0.000000000000 0.0 0.0 0.0 # C_3
814 1 3 0.000000000000 0.0 0.0 0.0 # C_3
815 1 5 0.000000000000 0.0 0.0 0.0 # O_3
816 1 4 0.000000000000 0.0 0.0 0.0 # Si3
817 1 3 0.000000000000 0.0 0.0 0.0 # C_3
818 1 3 0.000000000000 0.0 0.0 0.0 # C_3
819 1 5 0.000000000000 0.0 0.0 0.0 # O_3
820 1 2 0.000000000000 0.0 0.0 0.0 # O_
821 1 4 0.000000000000 0.0 0.0 0.0 # Si3
822 1 3 0.000000000000 0.0 0.0 0.0 # C_3
823 1 3 0.000000000000 0.0 0.0 0.0 # C_3
824 1 5 0.000000000000 0.0 0.0 0.0 # O_3
825 1 4 0.000000000000 0.0 0.0 0.0 # Si3
826 1 3 0.000000000000 0.0 0.0 0.0 # C_3
827 1 3 0.000000000000 0.0 0.0 0.0 # C_3
828 1 5 0.000000000000 0.0 0.0 0.0 # O_3
829 1 4 0.000000000000 0.0 0.0 0.0 # Si3
830 1 3 0.000000000000 0.0 0.0 0.0 # C_3
831 1 3 0.000000000000 0.0 0.0 0.0 # C_3
832 1 5 0.000000000000 0.0 0.0 0.0 # O_3
833 1 4 0.000000000000 0.0 0.0 0.0 # Si3
834 1 3 0.000000000000 0.0 0.0 0.0 # C_3
835 1 3 0.000000000000 0.0 0.0 0.0 # C_3
836 1 5 0.000000000000 0.0 0.0 0.0 # O_3
837 1 4 0.000000000000 0.0 0.0 0.0 # Si3
838 1 3 0.000000000000 0.0 0.0 0.0 # C_3
839 1 3 0.000000000000 0.0 0.0 0.0 # C_3
840 1 5 0.000000000000 0.0 0.0 0.0 # O_3
841 1 2 0.000000000000 0.0 0.0 0.0 # O_
842 1 4 0.000000000000 0.0 0.0 0.0 # Si3
843 1 3 0.000000000000 0.0 0.0 0.0 # C_3
844 1 3 0.000000000000 0.0 0.0 0.0 # C_3
845 1 5 0.000000000000 0.0 0.0 0.0 # O_3
846 1 4 0.000000000000 0.0 0.0 0.0 # Si3
847 1 3 0.000000000000 0.0 0.0 0.0 # C_3
848 1 3 0.000000000000 0.0 0.0 0.0 # C_3
849 1 5 0.000000000000 0.0 0.0 0.0 # O_3
850 1 4 0.000000000000 0.0 0.0 0.0 # Si3
851 1 3 0.000000000000 0.0 0.0 0.0 # C_3
852 1 3 0.000000000000 0.0 0.0 0.0 # C_3
853 1 5 0.000000000000 0.0 0.0 0.0 # O_3
854 1 4 0.000000000000 0.0 0.0 0.0 # Si3
855 1 3 0.000000000000 0.0 0.0 0.0 # C_3
856 1 3 0.000000000000 0.0 0.0 0.0 # C_3
857 1 5 0.000000000000 0.0 0.0 0.0 # O_3
858 1 4 0.000000000000 0.0 0.0 0.0 # Si3
859 1 3 0.000000000000 0.0 0.0 0.0 # C_3
860 1 3 0.000000000000 0.0 0.0 0.0 # C_3
861 1 5 0.000000000000 0.0 0.0 0.0 # O_3
862 1 2 0.000000000000 0.0 0.0 0.0 # O_
863 1 4 0.000000000000 0.0 0.0 0.0 # Si3
864 1 3 0.000000000000 0.0 0.0 0.0 # C_3
865 1 3 0.000000000000 0.0 0.0 0.0 # C_3
866 1 5 0.000000000000 0.0 0.0 0.0 # O_3
867 1 4 0.000000000000 0.0 0.0 0.0 # Si3
868 1 3 0.000000000000 0.0 0.0 0.0 # C_3
869 1 3 0.000000000000 0.0 0.0 0.0 # C_3
870 1 5 0.000000000000 0.0 0.0 0.0 # O_3
871 1 4 0.000000000000 0.0 0.0 0.0 # Si3
872 1 3 0.000000000000 0.0 0.0 0.0 # C_3
873 1 3 0.000000000000 0.0 0.0 0.0 # C_3
874 1 5 0.000000000000 0.0 0.0 0.0 # O_3
875 1 4 0.000000000000 0.0 0.0 0.0 # Si3
876 1 3 0.000000000000 0.0 0.0 0.0 # C_3
877 1 3 0.000000000000 0.0 0.0 0.0 # C_3
878 1 5 0.000000000000 0.0 0.0 0.0 # O_3
879 1 4 0.000000000000 0.0 0.0 0.0 # Si3
880 1 3 0.000000000000 0.0 0.0 0.0 # C_3
881 1 3 0.000000000000 0.0 0.0 0.0 # C_3
882 1 5 0.000000000000 0.0 0.0 0.0 # O_3
883 1 2 0.000000000000 0.0 0.0 0.0 # O_
884 1 4 0.000000000000 0.0 0.0 0.0 # Si3
885 1 3 0.000000000000 0.0 0.0 0.0 # C_3
886 1 3 0.000000000000 0.0 0.0 0.0 # C_3
887 1 5 0.000000000000 0.0 0.0 0.0 # O_3
888 1 4 0.000000000000 0.0 0.0 0.0 # Si3
889 1 3 0.000000000000 0.0 0.0 0.0 # C_3
890 1 3 0.000000000000 0.0 0.0 0.0 # C_3
891 1 5 0.000000000000 0.0 0.0 0.0 # O_3
892 1 4 0.000000000000 0.0 0.0 0.0 # Si3
893 1 3 0.000000000000 0.0 0.0 0.0 # C_3
894 1 3 0.000000000000 0.0 0.0 0.0 # C_3
895 1 5 0.000000000000 0.0 0.0 0.0 # O_3
896 1 4 0.000000000000 0.0 0.0 0.0 # Si3
897 1 3 0.000000000000 0.0 0.0 0.0 # C_3
898 1 3 0.000000000000 0.0 0.0 0.0 # C_3
899 1 5 0.000000000000 0.0 0.0 0.0 # O_3
900 1 4 0.000000000000 0.0 0.0 0.0 # Si3
901 1 3 0.000000000000 0.0 0.0 0.0 # C_3
902 1 3 0.000000000000 0.0 0.0 0.0 # C_3
903 1 5 0.000000000000 0.0 0.0 0.0 # O_3
904 1 2 0.000000000000 0.0 0.0 0.0 # O_
905 1 4 0.000000000000 0.0 0.0 0.0 # Si3
906 1 3 0.000000000000 0.0 0.0 0.0 # C_3
907 1 3 0.000000000000 0.0 0.0 0.0 # C_3
908 1 5 0.000000000000 0.0 0.0 0.0 # O_3
909 1 4 0.000000000000 0.0 0.0 0.0 # Si3
910 1 3 0.000000000000 0.0 0.0 0.0 # C_3
911 1 3 0.000000000000 0.0 0.0 0.0 # C_3
912 1 5 0.000000000000 0.0 0.0 0.0 # O_3
913 1 4 0.000000000000 0.0 0.0 0.0 # Si3
914 1 3 0.000000000000 0.0 0.0 0.0 # C_3
915 1 3 0.000000000000 0.0 0.0 0.0 # C_3
916 1 5 0.000000000000 0.0 0.0 0.0 # O_3
917 1 4 0.000000000000 0.0 0.0 0.0 # Si3
918 1 3 0.000000000000 0.0 0.0 0.0 # C_3
919 1 3 0.000000000000 0.0 0.0 0.0 # C_3
920 1 5 0.000000000000 0.0 0.0 0.0 # O_3
921 1 4 0.000000000000 0.0 0.0 0.0 # Si3
922 1 3 0.000000000000 0.0 0.0 0.0 # C_3
923 1 3 0.000000000000 0.0 0.0 0.0 # C_3
924 1 5 0.000000000000 0.0 0.0 0.0 # O_3
925 1 2 0.000000000000 0.0 0.0 0.0 # O_
926 1 4 0.000000000000 0.0 0.0 0.0 # Si3
927 1 3 0.000000000000 0.0 0.0 0.0 # C_3
928 1 3 0.000000000000 0.0 0.0 0.0 # C_3
929 1 5 0.000000000000 0.0 0.0 0.0 # O_3
930 1 4 0.000000000000 0.0 0.0 0.0 # Si3
931 1 3 0.000000000000 0.0 0.0 0.0 # C_3
932 1 3 0.000000000000 0.0 0.0 0.0 # C_3
933 1 5 0.000000000000 0.0 0.0 0.0 # O_3
934 1 4 0.000000000000 0.0 0.0 0.0 # Si3
935 1 3 0.000000000000 0.0 0.0 0.0 # C_3
936 1 3 0.000000000000 0.0 0.0 0.0 # C_3
937 1 5 0.000000000000 0.0 0.0 0.0 # O_3
938 1 4 0.000000000000 0.0 0.0 0.0 # Si3
939 1 3 0.000000000000 0.0 0.0 0.0 # C_3
940 1 3 0.000000000000 0.0 0.0 0.0 # C_3
941 1 5 0.000000000000 0.0 0.0 0.0 # O_3
942 1 4 0.000000000000 0.0 0.0 0.0 # Si3
943 1 3 0.000000000000 0.0 0.0 0.0 # C_3
944 1 3 0.000000000000 0.0 0.0 0.0 # C_3
945 1 5 0.000000000000 0.0 0.0 0.0 # O_3
946 1 2 0.000000000000 0.0 0.0 0.0 # O_
947 1 4 0.000000000000 0.0 0.0 0.0 # Si3
948 1 3 0.000000000000 0.0 0.0 0.0 # C_3
949 1 3 0.000000000000 0.0 0.0 0.0 # C_3
950 1 5 0.000000000000 0.0 0.0 0.0 # O_3
951 1 4 0.000000000000 0.0 0.0 0.0 # Si3
952 1 3 0.000000000000 0.0 0.0 0.0 # C_3
953 1 3 0.000000000000 0.0 0.0 0.0 # C_3
954 1 5 0.000000000000 0.0 0.0 0.0 # O_3
955 1 4 0.000000000000 0.0 0.0 0.0 # Si3
956 1 3 0.000000000000 0.0 0.0 0.0 # C_3
957 1 3 0.000000000000 0.0 0.0 0.0 # C_3
958 1 5 0.000000000000 0.0 0.0 0.0 # O_3
959 1 4 0.000000000000 0.0 0.0 0.0 # Si3
960 1 3 0.000000000000 0.0 0.0 0.0 # C_3
961 1 3 0.000000000000 0.0 0.0 0.0 # C_3
962 1 5 0.000000000000 0.0 0.0 0.0 # O_3
963 1 4 0.000000000000 0.0 0.0 0.0 # Si3
964 1 3 0.000000000000 0.0 0.0 0.0 # C_3
965 1 3 0.000000000000 0.0 0.0 0.0 # C_3
966 1 5 0.000000000000 0.0 0.0 0.0 # O_3
967 1 2 0.000000000000 0.0 0.0 0.0 # O_
968 1 4 0.000000000000 0.0 0.0 0.0 # Si3
969 1 3 0.000000000000 0.0 0.0 0.0 # C_3
970 1 3 0.000000000000 0.0 0.0 0.0 # C_3
971 1 5 0.000000000000 0.0 0.0 0.0 # O_3
972 1 4 0.000000000000 0.0 0.0 0.0 # Si3
973 1 3 0.000000000000 0.0 0.0 0.0 # C_3
974 1 3 0.000000000000 0.0 0.0 0.0 # C_3
975 1 5 0.000000000000 0.0 0.0 0.0 # O_3
976 1 4 0.000000000000 0.0 0.0 0.0 # Si3
977 1 3 0.000000000000 0.0 0.0 0.0 # C_3
978 1 3 0.000000000000 0.0 0.0 0.0 # C_3
979 1 5 0.000000000000 0.0 0.0 0.0 # O_3
980 1 4 0.000000000000 0.0 0.0 0.0 # Si3
981 1 3 0.000000000000 0.0 0.0 0.0 # C_3
982 1 3 0.000000000000 0.0 0.0 0.0 # C_3
983 1 5 0.000000000000 0.0 0.0 0.0 # O_3
984 1 4 0.000000000000 0.0 0.0 0.0 # Si3
985 1 3 0.000000000000 0.0 0.0 0.0 # C_3
986 1 3 0.000000000000 0.0 0.0 0.0 # C_3
987 1 5 0.000000000000 0.0 0.0 0.0 # O_3
988 1 2 0.000000000000 0.0 0.0 0.0 # O_
989 1 4 0.000000000000 0.0 0.0 0.0 # Si3
990 1 3 0.000000000000 0.0 0.0 0.0 # C_3
991 1 3 0.000000000000 0.0 0.0 0.0 # C_3
992 1 5 0.000000000000 0.0 0.0 0.0 # O_3
993 1 4 0.000000000000 0.0 0.0 0.0 # Si3
994 1 3 0.000000000000 0.0 0.0 0.0 # C_3
995 1 3 0.000000000000 0.0 0.0 0.0 # C_3
996 1 5 0.000000000000 0.0 0.0 0.0 # O_3
997 1 4 0.000000000000 0.0 0.0 0.0 # Si3
998 1 3 0.000000000000 0.0 0.0 0.0 # C_3
999 1 3 0.000000000000 0.0 0.0 0.0 # C_3
1000 1 5 0.000000000000 0.0 0.0 0.0 # O_3
1001 1 4 0.000000000000 0.0 0.0 0.0 # Si3
1002 1 3 0.000000000000 0.0 0.0 0.0 # C_3
1003 1 3 0.000000000000 0.0 0.0 0.0 # C_3
1004 1 5 0.000000000000 0.0 0.0 0.0 # O_3
1005 1 4 0.000000000000 0.0 0.0 0.0 # Si3
1006 1 3 0.000000000000 0.0 0.0 0.0 # C_3
1007 1 3 0.000000000000 0.0 0.0 0.0 # C_3
1008 1 5 0.000000000000 0.0 0.0 0.0 # O_3
1009 1 2 0.000000000000 0.0 0.0 0.0 # O_
1010 1 4 0.000000000000 0.0 0.0 0.0 # Si3
1011 1 3 0.000000000000 0.0 0.0 0.0 # C_3
1012 1 3 0.000000000000 0.0 0.0 0.0 # C_3
1013 1 5 0.000000000000 0.0 0.0 0.0 # O_3
1014 1 4 0.000000000000 0.0 0.0 0.0 # Si3
1015 1 3 0.000000000000 0.0 0.0 0.0 # C_3
1016 1 3 0.000000000000 0.0 0.0 0.0 # C_3
1017 1 5 0.000000000000 0.0 0.0 0.0 # O_3
1018 1 4 0.000000000000 0.0 0.0 0.0 # Si3
1019 1 3 0.000000000000 0.0 0.0 0.0 # C_3
1020 1 3 0.000000000000 0.0 0.0 0.0 # C_3
1021 1 5 0.000000000000 0.0 0.0 0.0 # O_3
1022 1 4 0.000000000000 0.0 0.0 0.0 # Si3
1023 1 3 0.000000000000 0.0 0.0 0.0 # C_3
1024 1 3 0.000000000000 0.0 0.0 0.0 # C_3
1025 1 5 0.000000000000 0.0 0.0 0.0 # O_3
1026 1 4 0.000000000000 0.0 0.0 0.0 # Si3
1027 1 3 0.000000000000 0.0 0.0 0.0 # C_3
1028 1 3 0.000000000000 0.0 0.0 0.0 # C_3
1029 1 5 0.000000000000 0.0 0.0 0.0 # O_3
1030 1 2 0.000000000000 0.0 0.0 0.0 # O_
1031 1 4 0.000000000000 0.0 0.0 0.0 # Si3
1032 1 3 0.000000000000 0.0 0.0 0.0 # C_3
1033 1 3 0.000000000000 0.0 0.0 0.0 # C_3
1034 1 5 0.000000000000 0.0 0.0 0.0 # O_3
1035 1 4 0.000000000000 0.0 0.0 0.0 # Si3
1036 1 3 0.000000000000 0.0 0.0 0.0 # C_3
1037 1 3 0.000000000000 0.0 0.0 0.0 # C_3
1038 1 5 0.000000000000 0.0 0.0 0.0 # O_3
1039 1 4 0.000000000000 0.0 0.0 0.0 # Si3
1040 1 3 0.000000000000 0.0 0.0 0.0 # C_3
1041 1 3 0.000000000000 0.0 0.0 0.0 # C_3
1042 1 5 0.000000000000 0.0 0.0 0.0 # O_3
1043 1 4 0.000000000000 0.0 0.0 0.0 # Si3
1044 1 3 0.000000000000 0.0 0.0 0.0 # C_3
1045 1 3 0.000000000000 0.0 0.0 0.0 # C_3
1046 1 5 0.000000000000 0.0 0.0 0.0 # O_3
1047 1 4 0.000000000000 0.0 0.0 0.0 # Si3
1048 1 3 0.000000000000 0.0 0.0 0.0 # C_3
1049 1 3 0.000000000000 0.0 0.0 0.0 # C_3
1050 1 5 0.000000000000 0.0 0.0 0.0 # O_3
1051 1 2 0.000000000000 0.0 0.0 0.0 # O_
1052 1 4 0.000000000000 0.0 0.0 0.0 # Si3
1053 1 3 0.000000000000 0.0 0.0 0.0 # C_3
1054 1 3 0.000000000000 0.0 0.0 0.0 # C_3
1055 1 5 0.000000000000 0.0 0.0 0.0 # O_3
1056 1 4 0.000000000000 0.0 0.0 0.0 # Si3
1057 1 3 0.000000000000 0.0 0.0 0.0 # C_3
1058 1 3 0.000000000000 0.0 0.0 0.0 # C_3
1059 1 5 0.000000000000 0.0 0.0 0.0 # O_3
1060 1 4 0.000000000000 0.0 0.0 0.0 # Si3
1061 1 3 0.000000000000 0.0 0.0 0.0 # C_3
1062 1 3 0.000000000000 0.0 0.0 0.0 # C_3
1063 1 5 0.000000000000 0.0 0.0 0.0 # O_3
1064 1 4 0.000000000000 0.0 0.0 0.0 # Si3
1065 1 3 0.000000000000 0.0 0.0 0.0 # C_3
1066 1 3 0.000000000000 0.0 0.0 0.0 # C_3
1067 1 5 0.000000000000 0.0 0.0 0.0 # O_3
1068 1 4 0.000000000000 0.0 0.0 0.0 # Si3
1069 1 3 0.000000000000 0.0 0.0 0.0 # C_3
1070 1 3 0.000000000000 0.0 0.0 0.0 # C_3
1071 1 5 0.000000000000 0.0 0.0 0.0 # O_3
1072 1 2 0.000000000000 0.0 0.0 0.0 # O_
1073 1 4 0.000000000000 0.0 0.0 0.0 # Si3
1074 1 3 0.000000000000 0.0 0.0 0.0 # C_3
1075 1 3 0.000000000000 0.0 0.0 0.0 # C_3
1076 1 5 0.000000000000 0.0 0.0 0.0 # O_3
1077 1 4 0.000000000000 0.0 0.0 0.0 # Si3
1078 1 3 0.000000000000 0.0 0.0 0.0 # C_3
1079 1 3 0.000000000000 0.0 0.0 0.0 # C_3
1080 1 5 0.000000000000 0.0 0.0 0.0 # O_3
1081 1 4 0.000000000000 0.0 0.0 0.0 # Si3
1082 1 3 0.000000000000 0.0 0.0 0.0 # C_3
1083 1 3 0.000000000000 0.0 0.0 0.0 # C_3
1084 1 5 0.000000000000 0.0 0.0 0.0 # O_3
1085 1 4 0.000000000000 0.0 0.0 0.0 # Si3
1086 1 3 0.000000000000 0.0 0.0 0.0 # C_3
1087 1 3 0.000000000000 0.0 0.0 0.0 # C_3
1088 1 5 0.000000000000 0.0 0.0 0.0 # O_3
1089 1 4 0.000000000000 0.0 0.0 0.0 # Si3
1090 1 3 0.000000000000 0.0 0.0 0.0 # C_3
1091 1 3 0.000000000000 0.0 0.0 0.0 # C_3
1092 1 5 0.000000000000 0.0 0.0 0.0 # O_3
1093 1 2 0.000000000000 0.0 0.0 0.0 # O_
1094 1 4 0.000000000000 0.0 0.0 0.0 # Si3
1095 1 3 0.000000000000 0.0 0.0 0.0 # C_3
1096 1 3 0.000000000000 0.0 0.0 0.0 # C_3
1097 1 5 0.000000000000 0.0 0.0 0.0 # O_3
1098 1 4 0.000000000000 0.0 0.0 0.0 # Si3
1099 1 3 0.000000000000 0.0 0.0 0.0 # C_3
1100 1 3 0.000000000000 0.0 0.0 0.0 # C_3
1101 1 5 0.000000000000 0.0 0.0 0.0 # O_3
1102 1 4 0.000000000000 0.0 0.0 0.0 # Si3
1103 1 3 0.000000000000 0.0 0.0 0.0 # C_3
1104 1 3 0.000000000000 0.0 0.0 0.0 # C_3
1105 1 5 0.000000000000 0.0 0.0 0.0 # O_3
1106 1 4 0.000000000000 0.0 0.0 0.0 # Si3
1107 1 3 0.000000000000 0.0 0.0 0.0 # C_3
1108 1 3 0.000000000000 0.0 0.0 0.0 # C_3
1109 1 5 0.000000000000 0.0 0.0 0.0 # O_3
1110 1 4 0.000000000000 0.0 0.0 0.0 # Si3
1111 1 3 0.000000000000 0.0 0.0 0.0 # C_3
1112 1 3 0.000000000000 0.0 0.0 0.0 # C_3
1113 1 5 0.000000000000 0.0 0.0 0.0 # O_3
1114 1 2 0.000000000000 0.0 0.0 0.0 # O_
1115 1 4 0.000000000000 0.0 0.0 0.0 # Si3
1116 1 3 0.000000000000 0.0 0.0 0.0 # C_3
1117 1 3 0.000000000000 0.0 0.0 0.0 # C_3
1118 1 5 0.000000000000 0.0 0.0 0.0 # O_3
1119 1 4 0.000000000000 0.0 0.0 0.0 # Si3
1120 1 3 0.000000000000 0.0 0.0 0.0 # C_3
1121 1 3 0.000000000000 0.0 0.0 0.0 # C_3
1122 1 5 0.000000000000 0.0 0.0 0.0 # O_3
1123 1 4 0.000000000000 0.0 0.0 0.0 # Si3
1124 1 3 0.000000000000 0.0 0.0 0.0 # C_3
1125 1 3 0.000000000000 0.0 0.0 0.0 # C_3
1126 1 5 0.000000000000 0.0 0.0 0.0 # O_3
1127 1 4 0.000000000000 0.0 0.0 0.0 # Si3
1128 1 3 0.000000000000 0.0 0.0 0.0 # C_3
1129 1 3 0.000000000000 0.0 0.0 0.0 # C_3
1130 1 5 0.000000000000 0.0 0.0 0.0 # O_3
1131 1 4 0.000000000000 0.0 0.0 0.0 # Si3
1132 1 3 0.000000000000 0.0 0.0 0.0 # C_3
1133 1 3 0.000000000000 0.0 0.0 0.0 # C_3
1134 1 5 0.000000000000 0.0 0.0 0.0 # O_3
1135 1 2 0.000000000000 0.0 0.0 0.0 # O_
1136 1 4 0.000000000000 0.0 0.0 0.0 # Si3
1137 1 3 0.000000000000 0.0 0.0 0.0 # C_3
1138 1 3 0.000000000000 0.0 0.0 0.0 # C_3
1139 1 5 0.000000000000 0.0 0.0 0.0 # O_3
1140 1 4 0.000000000000 0.0 0.0 0.0 # Si3
1141 1 3 0.000000000000 0.0 0.0 0.0 # C_3
1142 1 3 0.000000000000 0.0 0.0 0.0 # C_3
1143 1 5 0.000000000000 0.0 0.0 0.0 # O_3
1144 1 4 0.000000000000 0.0 0.0 0.0 # Si3
1145 1 3 0.000000000000 0.0 0.0 0.0 # C_3
1146 1 3 0.000000000000 0.0 0.0 0.0 # C_3
1147 1 5 0.000000000000 0.0 0.0 0.0 # O_3
1148 1 4 0.000000000000 0.0 0.0 0.0 # Si3
1149 1 3 0.000000000000 0.0 0.0 0.0 # C_3
1150 1 3 0.000000000000 0.0 0.0 0.0 # C_3
1151 1 5 0.000000000000 0.0 0.0 0.0 # O_3
1152 1 4 0.000000000000 0.0 0.0 0.0 # Si3
1153 1 3 0.000000000000 0.0 0.0 0.0 # C_3
1154 1 3 0.000000000000 0.0 0.0 0.0 # C_3
1155 1 5 0.000000000000 0.0 0.0 0.0 # O_3
1156 1 2 0.000000000000 0.0 0.0 0.0 # O_
1157 1 4 0.000000000000 0.0 0.0 0.0 # Si3
1158 1 3 0.000000000000 0.0 0.0 0.0 # C_3
1159 1 3 0.000000000000 0.0 0.0 0.0 # C_3
1160 1 5 0.000000000000 0.0 0.0 0.0 # O_3
1161 1 4 0.000000000000 0.0 0.0 0.0 # Si3
1162 1 3 0.000000000000 0.0 0.0 0.0 # C_3
1163 1 3 0.000000000000 0.0 0.0 0.0 # C_3
1164 1 5 0.000000000000 0.0 0.0 0.0 # O_3
1165 1 4 0.000000000000 0.0 0.0 0.0 # Si3
1166 1 3 0.000000000000 0.0 0.0 0.0 # C_3
1167 1 3 0.000000000000 0.0 0.0 0.0 # C_3
1168 1 5 0.000000000000 0.0 0.0 0.0 # O_3
1169 1 4 0.000000000000 0.0 0.0 0.0 # Si3
1170 1 3 0.000000000000 0.0 0.0 0.0 # C_3
1171 1 3 0.000000000000 0.0 0.0 0.0 # C_3
1172 1 5 0.000000000000 0.0 0.0 0.0 # O_3
1173 1 4 0.000000000000 0.0 0.0 0.0 # Si3
1174 1 3 0.000000000000 0.0 0.0 0.0 # C_3
1175 1 3 0.000000000000 0.0 0.0 0.0 # C_3
1176 1 5 0.000000000000 0.0 0.0 0.0 # O_3
1177 1 2 0.000000000000 0.0 0.0 0.0 # O_
1178 1 4 0.000000000000 0.0 0.0 0.0 # Si3
1179 1 3 0.000000000000 0.0 0.0 0.0 # C_3
1180 1 3 0.000000000000 0.0 0.0 0.0 # C_3
1181 1 5 0.000000000000 0.0 0.0 0.0 # O_3
1182 1 4 0.000000000000 0.0 0.0 0.0 # Si3
1183 1 3 0.000000000000 0.0 0.0 0.0 # C_3
1184 1 3 0.000000000000 0.0 0.0 0.0 # C_3
1185 1 5 0.000000000000 0.0 0.0 0.0 # O_3
1186 1 4 0.000000000000 0.0 0.0 0.0 # Si3
1187 1 3 0.000000000000 0.0 0.0 0.0 # C_3
1188 1 3 0.000000000000 0.0 0.0 0.0 # C_3
1189 1 5 0.000000000000 0.0 0.0 0.0 # O_3
1190 1 4 0.000000000000 0.0 0.0 0.0 # Si3
1191 1 3 0.000000000000 0.0 0.0 0.0 # C_3
1192 1 3 0.000000000000 0.0 0.0 0.0 # C_3
1193 1 5 0.000000000000 0.0 0.0 0.0 # O_3
1194 1 4 0.000000000000 0.0 0.0 0.0 # Si3
1195 1 3 0.000000000000 0.0 0.0 0.0 # C_3
1196 1 3 0.000000000000 0.0 0.0 0.0 # C_3
1197 1 5 0.000000000000 0.0 0.0 0.0 # O_3
1198 1 2 0.000000000000 0.0 0.0 0.0 # O_
1199 1 4 0.000000000000 0.0 0.0 0.0 # Si3
1200 1 3 0.000000000000 0.0 0.0 0.0 # C_3
1201 1 3 0.000000000000 0.0 0.0 0.0 # C_3
1202 1 5 0.000000000000 0.0 0.0 0.0 # O_3
1203 1 4 0.000000000000 0.0 0.0 0.0 # Si3
1204 1 3 0.000000000000 0.0 0.0 0.0 # C_3
1205 1 3 0.000000000000 0.0 0.0 0.0 # C_3
1206 1 5 0.000000000000 0.0 0.0 0.0 # O_3
1207 1 4 0.000000000000 0.0 0.0 0.0 # Si3
1208 1 3 0.000000000000 0.0 0.0 0.0 # C_3
1209 1 3 0.000000000000 0.0 0.0 0.0 # C_3
1210 1 5 0.000000000000 0.0 0.0 0.0 # O_3
1211 1 4 0.000000000000 0.0 0.0 0.0 # Si3
1212 1 3 0.000000000000 0.0 0.0 0.0 # C_3
1213 1 3 0.000000000000 0.0 0.0 0.0 # C_3
1214 1 5 0.000000000000 0.0 0.0 0.0 # O_3
1215 1 4 0.000000000000 0.0 0.0 0.0 # Si3
1216 1 3 0.000000000000 0.0 0.0 0.0 # C_3
1217 1 3 0.000000000000 0.0 0.0 0.0 # C_3
1218 1 5 0.000000000000 0.0 0.0 0.0 # O_3
1219 1 2 0.000000000000 0.0 0.0 0.0 # O_
1220 1 4 0.000000000000 0.0 0.0 0.0 # Si3
1221 1 3 0.000000000000 0.0 0.0 0.0 # C_3
1222 1 3 0.000000000000 0.0 0.0 0.0 # C_3
1223 1 5 0.000000000000 0.0 0.0 0.0 # O_3
1224 1 4 0.000000000000 0.0 0.0 0.0 # Si3
1225 1 3 0.000000000000 0.0 0.0 0.0 # C_3
1226 1 3 0.000000000000 0.0 0.0 0.0 # C_3
1227 1 5 0.000000000000 0.0 0.0 0.0 # O_3
1228 1 4 0.000000000000 0.0 0.0 0.0 # Si3
1229 1 3 0.000000000000 0.0 0.0 0.0 # C_3
1230 1 3 0.000000000000 0.0 0.0 0.0 # C_3
1231 1 5 0.000000000000 0.0 0.0 0.0 # O_3
1232 1 4 0.000000000000 0.0 0.0 0.0 # Si3
1233 1 3 0.000000000000 0.0 0.0 0.0 # C_3
1234 1 3 0.000000000000 0.0 0.0 0.0 # C_3
1235 1 5 0.000000000000 0.0 0.0 0.0 # O_3
1236 1 4 0.000000000000 0.0 0.0 0.0 # Si3
1237 1 3 0.000000000000 0.0 0.0 0.0 # C_3
1238 1 3 0.000000000000 0.0 0.0 0.0 # C_3
1239 1 5 0.000000000000 0.0 0.0 0.0 # O_3
1240 1 2 0.000000000000 0.0 0.0 0.0 # O_
1241 1 4 0.000000000000 0.0 0.0 0.0 # Si3
1242 1 3 0.000000000000 0.0 0.0 0.0 # C_3
1243 1 3 0.000000000000 0.0 0.0 0.0 # C_3
1244 1 5 0.000000000000 0.0 0.0 0.0 # O_3
1245 1 4 0.000000000000 0.0 0.0 0.0 # Si3
1246 1 3 0.000000000000 0.0 0.0 0.0 # C_3
1247 1 3 0.000000000000 0.0 0.0 0.0 # C_3
1248 1 5 0.000000000000 0.0 0.0 0.0 # O_3
1249 1 4 0.000000000000 0.0 0.0 0.0 # Si3
1250 1 3 0.000000000000 0.0 0.0 0.0 # C_3
1251 1 3 0.000000000000 0.0 0.0 0.0 # C_3
1252 1 5 0.000000000000 0.0 0.0 0.0 # O_3
1253 1 4 0.000000000000 0.0 0.0 0.0 # Si3
1254 1 3 0.000000000000 0.0 0.0 0.0 # C_3
1255 1 3 0.000000000000 0.0 0.0 0.0 # C_3
1256 1 5 0.000000000000 0.0 0.0 0.0 # O_3
1257 1 4 0.000000000000 0.0 0.0 0.0 # Si3
1258 1 3 0.000000000000 0.0 0.0 0.0 # C_3
1259 1 3 0.000000000000 0.0 0.0 0.0 # C_3
1260 1 5 0.000000000000 0.0 0.0 0.0 # O_3
1261 1 2 0.000000000000 0.0 0.0 0.0 # O_
1262 1 4 0.000000000000 0.0 0.0 0.0 # Si3
1263 1 3 0.000000000000 0.0 0.0 0.0 # C_3
1264 1 3 0.000000000000 0.0 0.0 0.0 # C_3
1265 1 5 0.000000000000 0.0 0.0 0.0 # O_3
1266 1 4 0.000000000000 0.0 0.0 0.0 # Si3
1267 1 3 0.000000000000 0.0 0.0 0.0 # C_3
1268 1 3 0.000000000000 0.0 0.0 0.0 # C_3
1269 1 5 0.000000000000 0.0 0.0 0.0 # O_3
1270 1 4 0.000000000000 0.0 0.0 0.0 # Si3
1271 1 3 0.000000000000 0.0 0.0 0.0 # C_3
1272 1 3 0.000000000000 0.0 0.0 0.0 # C_3
1273 1 5 0.000000000000 0.0 0.0 0.0 # O_3
1274 1 4 0.000000000000 0.0 0.0 0.0 # Si3
1275 1 3 0.000000000000 0.0 0.0 0.0 # C_3
1276 1 3 0.000000000000 0.0 0.0 0.0 # C_3
1277 1 5 0.000000000000 0.0 0.0 0.0 # O_3
1278 1 4 0.000000000000 0.0 0.0 0.0 # Si3
1279 1 3 0.000000000000 0.0 0.0 0.0 # C_3
1280 1 3 0.000000000000 0.0 0.0 0.0 # C_3
1281 1 5 0.000000000000 0.0 0.0 0.0 # O_3
1282 1 2 0.000000000000 0.0 0.0 0.0 # O_
1283 1 4 0.000000000000 0.0 0.0 0.0 # Si3
1284 1 3 0.000000000000 0.0 0.0 0.0 # C_3
1285 1 3 0.000000000000 0.0 0.0 0.0 # C_3
1286 1 5 0.000000000000 0.0 0.0 0.0 # O_3
1287 1 4 0.000000000000 0.0 0.0 0.0 # Si3
1288 1 3 0.000000000000 0.0 0.0 0.0 # C_3
1289 1 3 0.000000000000 0.0 0.0 0.0 # C_3
1290 1 5 0.000000000000 0.0 0.0 0.0 # O_3
1291 1 4 0.000000000000 0.0 0.0 0.0 # Si3
1292 1 3 0.000000000000 0.0 0.0 0.0 # C_3
1293 1 3 0.000000000000 0.0 0.0 0.0 # C_3
1294 1 5 0.000000000000 0.0 0.0 0.0 # O_3
1295 1 4 0.000000000000 0.0 0.0 0.0 # Si3
1296 1 3 0.000000000000 0.0 0.0 0.0 # C_3
1297 1 3 0.000000000000 0.0 0.0 0.0 # C_3
1298 1 5 0.000000000000 0.0 0.0 0.0 # O_3
1299 1 4 0.000000000000 0.0 0.0 0.0 # Si3
1300 1 3 0.000000000000 0.0 0.0 0.0 # C_3
1301 1 3 0.000000000000 0.0 0.0 0.0 # C_3
1302 1 5 0.000000000000 0.0 0.0 0.0 # O_3
1303 1 2 0.000000000000 0.0 0.0 0.0 # O_
1304 1 4 0.000000000000 0.0 0.0 0.0 # Si3
1305 1 3 0.000000000000 0.0 0.0 0.0 # C_3
1306 1 3 0.000000000000 0.0 0.0 0.0 # C_3
1307 1 5 0.000000000000 0.0 0.0 0.0 # O_3
1308 1 4 0.000000000000 0.0 0.0 0.0 # Si3
1309 1 3 0.000000000000 0.0 0.0 0.0 # C_3
1310 1 3 0.000000000000 0.0 0.0 0.0 # C_3
1311 1 5 0.000000000000 0.0 0.0 0.0 # O_3
1312 1 4 0.000000000000 0.0 0.0 0.0 # Si3
1313 1 3 0.000000000000 0.0 0.0 0.0 # C_3
1314 1 3 0.000000000000 0.0 0.0 0.0 # C_3
1315 1 5 0.000000000000 0.0 0.0 0.0 # O_3
1316 1 4 0.000000000000 0.0 0.0 0.0 # Si3
1317 1 3 0.000000000000 0.0 0.0 0.0 # C_3
1318 1 3 0.000000000000 0.0 0.0 0.0 # C_3
1319 1 5 0.000000000000 0.0 0.0 0.0 # O_3
1320 1 4 0.000000000000 0.0 0.0 0.0 # Si3
1321 1 3 0.000000000000 0.0 0.0 0.0 # C_3
1322 1 3 0.000000000000 0.0 0.0 0.0 # C_3
1323 1 5 0.000000000000 0.0 0.0 0.0 # O_3
1324 1 2 0.000000000000 0.0 0.0 0.0 # O_
1325 1 4 0.000000000000 0.0 0.0 0.0 # Si3
1326 1 3 0.000000000000 0.0 0.0 0.0 # C_3
1327 1 3 0.000000000000 0.0 0.0 0.0 # C_3
1328 1 5 0.000000000000 0.0 0.0 0.0 # O_3
1329 1 4 0.000000000000 0.0 0.0 0.0 # Si3
1330 1 3 0.000000000000 0.0 0.0 0.0 # C_3
1331 1 3 0.000000000000 0.0 0.0 0.0 # C_3
1332 1 5 0.000000000000 0.0 0.0 0.0 # O_3
1333 1 4 0.000000000000 0.0 0.0 0.0 # Si3
1334 1 3 0.000000000000 0.0 0.0 0.0 # C_3
1335 1 3 0.000000000000 0.0 0.0 0.0 # C_3
1336 1 5 0.000000000000 0.0 0.0 0.0 # O_3
1337 1 4 0.000000000000 0.0 0.0 0.0 # Si3
1338 1 3 0.000000000000 0.0 0.0 0.0 # C_3
1339 1 3 0.000000000000 0.0 0.0 0.0 # C_3
1340 1 5 0.000000000000 0.0 0.0 0.0 # O_3
1341 1 4 0.000000000000 0.0 0.0 0.0 # Si3
1342 1 3 0.000000000000 0.0 0.0 0.0 # C_3
1343 1 3 0.000000000000 0.0 0.0 0.0 # C_3
1344 1 5 0.000000000000 0.0 0.0 0.0 # O_3
1345 1 2 0.000000000000 0.0 0.0 0.0 # O_
1346 1 4 0.000000000000 0.0 0.0 0.0 # Si3
1347 1 3 0.000000000000 0.0 0.0 0.0 # C_3
1348 1 3 0.000000000000 0.0 0.0 0.0 # C_3
1349 1 5 0.000000000000 0.0 0.0 0.0 # O_3
1350 1 4 0.000000000000 0.0 0.0 0.0 # Si3
1351 1 3 0.000000000000 0.0 0.0 0.0 # C_3
1352 1 3 0.000000000000 0.0 0.0 0.0 # C_3
1353 1 5 0.000000000000 0.0 0.0 0.0 # O_3
1354 1 4 0.000000000000 0.0 0.0 0.0 # Si3
1355 1 3 0.000000000000 0.0 0.0 0.0 # C_3
1356 1 3 0.000000000000 0.0 0.0 0.0 # C_3
1357 1 5 0.000000000000 0.0 0.0 0.0 # O_3
1358 1 4 0.000000000000 0.0 0.0 0.0 # Si3
1359 1 3 0.000000000000 0.0 0.0 0.0 # C_3
1360 1 3 0.000000000000 0.0 0.0 0.0 # C_3
1361 1 5 0.000000000000 0.0 0.0 0.0 # O_3
1362 1 4 0.000000000000 0.0 0.0 0.0 # Si3
1363 1 3 0.000000000000 0.0 0.0 0.0 # C_3
1364 1 3 0.000000000000 0.0 0.0 0.0 # C_3
1365 1 5 0.000000000000 0.0 0.0 0.0 # O_3
1366 1 2 0.000000000000 0.0 0.0 0.0 # O_
1367 1 4 0.000000000000 0.0 0.0 0.0 # Si3
1368 1 3 0.000000000000 0.0 0.0 0.0 # C_3
1369 1 3 0.000000000000 0.0 0.0 0.0 # C_3
1370 1 5 0.000000000000 0.0 0.0 0.0 # O_3
1371 1 4 0.000000000000 0.0 0.0 0.0 # Si3
1372 1 3 0.000000000000 0.0 0.0 0.0 # C_3
1373 1 3 0.000000000000 0.0 0.0 0.0 # C_3
1374 1 5 0.000000000000 0.0 0.0 0.0 # O_3
1375 1 4 0.000000000000 0.0 0.0 0.0 # Si3
1376 1 3 0.000000000000 0.0 0.0 0.0 # C_3
1377 1 3 0.000000000000 0.0 0.0 0.0 # C_3
1378 1 5 0.000000000000 0.0 0.0 0.0 # O_3
1379 1 4 0.000000000000 0.0 0.0 0.0 # Si3
1380 1 3 0.000000000000 0.0 0.0 0.0 # C_3
1381 1 3 0.000000000000 0.0 0.0 0.0 # C_3
1382 1 5 0.000000000000 0.0 0.0 0.0 # O_3
1383 1 4 0.000000000000 0.0 0.0 0.0 # Si3
1384 1 3 0.000000000000 0.0 0.0 0.0 # C_3
1385 1 3 0.000000000000 0.0 0.0 0.0 # C_3
1386 1 5 0.000000000000 0.0 0.0 0.0 # O_3
1387 1 2 0.000000000000 0.0 0.0 0.0 # O_
1388 1 4 0.000000000000 0.0 0.0 0.0 # Si3
1389 1 3 0.000000000000 0.0 0.0 0.0 # C_3
1390 1 3 0.000000000000 0.0 0.0 0.0 # C_3
1391 1 5 0.000000000000 0.0 0.0 0.0 # O_3
1392 1 4 0.000000000000 0.0 0.0 0.0 # Si3
1393 1 3 0.000000000000 0.0 0.0 0.0 # C_3
1394 1 3 0.000000000000 0.0 0.0 0.0 # C_3
1395 1 5 0.000000000000 0.0 0.0 0.0 # O_3
1396 1 4 0.000000000000 0.0 0.0 0.0 # Si3
1397 1 3 0.000000000000 0.0 0.0 0.0 # C_3
1398 1 3 0.000000000000 0.0 0.0 0.0 # C_3
1399 1 5 0.000000000000 0.0 0.0 0.0 # O_3
1400 1 4 0.000000000000 0.0 0.0 0.0 # Si3
1401 1 3 0.000000000000 0.0 0.0 0.0 # C_3
1402 1 3 0.000000000000 0.0 0.0 0.0 # C_3
1403 1 5 0.000000000000 0.0 0.0 0.0 # O_3
1404 1 4 0.000000000000 0.0 0.0 0.0 # Si3
1405 1 3 0.000000000000 0.0 0.0 0.0 # C_3
1406 1 3 0.000000000000 0.0 0.0 0.0 # C_3
1407 1 5 0.000000000000 0.0 0.0 0.0 # O_3
1408 1 2 0.000000000000 0.0 0.0 0.0 # O_
1409 1 4 0.000000000000 0.0 0.0 0.0 # Si3
1410 1 3 0.000000000000 0.0 0.0 0.0 # C_3
1411 1 3 0.000000000000 0.0 0.0 0.0 # C_3
1412 1 5 0.000000000000 0.0 0.0 0.0 # O_3
1413 1 4 0.000000000000 0.0 0.0 0.0 # Si3
1414 1 3 0.000000000000 0.0 0.0 0.0 # C_3
1415 1 3 0.000000000000 0.0 0.0 0.0 # C_3
1416 1 5 0.000000000000 0.0 0.0 0.0 # O_3
1417 1 4 0.000000000000 0.0 0.0 0.0 # Si3
1418 1 3 0.000000000000 0.0 0.0 0.0 # C_3
1419 1 3 0.000000000000 0.0 0.0 0.0 # C_3
1420 1 5 0.000000000000 0.0 0.0 0.0 # O_3
1421 1 4 0.000000000000 0.0 0.0 0.0 # Si3
1422 1 3 0.000000000000 0.0 0.0 0.0 # C_3
1423 1 3 0.000000000000 0.0 0.0 0.0 # C_3
1424 1 5 0.000000000000 0.0 0.0 0.0 # O_3
1425 1 4 0.000000000000 0.0 0.0 0.0 # Si3
1426 1 3 0.000000000000 0.0 0.0 0.0 # C_3
1427 1 3 0.000000000000 0.0 0.0 0.0 # C_3
1428 1 5 0.000000000000 0.0 0.0 0.0 # O_3
1429 1 2 0.000000000000 0.0 0.0 0.0 # O_
1430 1 4 0.000000000000 0.0 0.0 0.0 # Si3
1431 1 3 0.000000000000 0.0 0.0 0.0 # C_3
1432 1 3 0.000000000000 0.0 0.0 0.0 # C_3
1433 1 5 0.000000000000 0.0 0.0 0.0 # O_3
1434 1 4 0.000000000000 0.0 0.0 0.0 # Si3
1435 1 3 0.000000000000 0.0 0.0 0.0 # C_3
1436 1 3 0.000000000000 0.0 0.0 0.0 # C_3
1437 1 5 0.000000000000 0.0 0.0 0.0 # O_3
1438 1 4 0.000000000000 0.0 0.0 0.0 # Si3
1439 1 3 0.000000000000 0.0 0.0 0.0 # C_3
1440 1 3 0.000000000000 0.0 0.0 0.0 # C_3
1441 1 5 0.000000000000 0.0 0.0 0.0 # O_3
1442 1 4 0.000000000000 0.0 0.0 0.0 # Si3
1443 1 3 0.000000000000 0.0 0.0 0.0 # C_3
1444 1 3 0.000000000000 0.0 0.0 0.0 # C_3
1445 1 5 0.000000000000 0.0 0.0 0.0 # O_3
1446 1 4 0.000000000000 0.0 0.0 0.0 # Si3
1447 1 3 0.000000000000 0.0 0.0 0.0 # C_3
1448 1 3 0.000000000000 0.0 0.0 0.0 # C_3
1449 1 5 0.000000000000 0.0 0.0 0.0 # O_3
1450 1 2 0.000000000000 0.0 0.0 0.0 # O_
1451 1 4 0.000000000000 0.0 0.0 0.0 # Si3
1452 1 3 0.000000000000 0.0 0.0 0.0 # C_3
1453 1 3 0.000000000000 0.0 0.0 0.0 # C_3
1454 1 5 0.000000000000 0.0 0.0 0.0 # O_3
1455 1 4 0.000000000000 0.0 0.0 0.0 # Si3
1456 1 3 0.000000000000 0.0 0.0 0.0 # C_3
1457 1 3 0.000000000000 0.0 0.0 0.0 # C_3
1458 1 5 0.000000000000 0.0 0.0 0.0 # O_3
1459 1 4 0.000000000000 0.0 0.0 0.0 # Si3
1460 1 3 0.000000000000 0.0 0.0 0.0 # C_3
1461 1 3 0.000000000000 0.0 0.0 0.0 # C_3
1462 1 5 0.000000000000 0.0 0.0 0.0 # O_3
1463 1 4 0.000000000000 0.0 0.0 0.0 # Si3
1464 1 3 0.000000000000 0.0 0.0 0.0 # C_3
1465 1 3 0.000000000000 0.0 0.0 0.0 # C_3
1466 1 5 0.000000000000 0.0 0.0 0.0 # O_3
1467 1 4 0.000000000000 0.0 0.0 0.0 # Si3
1468 1 3 0.000000000000 0.0 0.0 0.0 # C_3
1469 1 3 0.000000000000 0.0 0.0 0.0 # C_3
1470 1 5 0.000000000000 0.0 0.0 0.0 # O_3
1471 1 4 0.000000000000 0.0 0.0 0.0 # Si3
1472 1 3 0.000000000000 0.0 0.0 0.0 # C_3
1473 1 3 0.000000000000 0.0 0.0 0.0 # C_3
1474 1 5 0.000000000000 0.0 0.0 0.0 # O_3
1475 1 4 0.000000000000 0.0 0.0 0.0 # Si3
1476 1 3 0.000000000000 0.0 0.0 0.0 # C_3
1477 1 3 0.000000000000 0.0 0.0 0.0 # C_3
1478 1 5 0.000000000000 0.0 0.0 0.0 # O_3
1479 1 4 0.000000000000 0.0 0.0 0.0 # Si3
1480 1 3 0.000000000000 0.0 0.0 0.0 # C_3
1481 1 3 0.000000000000 0.0 0.0 0.0 # C_3
1482 1 5 0.000000000000 0.0 0.0 0.0 # O_3
1483 1 4 0.000000000000 0.0 0.0 0.0 # Si3
1484 1 3 0.000000000000 0.0 0.0 0.0 # C_3
1485 1 3 0.000000000000 0.0 0.0 0.0 # C_3
1486 1 5 0.000000000000 0.0 0.0 0.0 # O_3
1487 1 4 0.000000000000 0.0 0.0 0.0 # Si3
1488 1 3 0.000000000000 0.0 0.0 0.0 # C_3
1489 1 3 0.000000000000 0.0 0.0 0.0 # C_3
1490 1 5 0.000000000000 0.0 0.0 0.0 # O_3
1491 1 2 0.000000000000 0.0 0.0 0.0 # O_
1492 1 4 0.000000000000 0.0 0.0 0.0 # Si3
1493 1 3 0.000000000000 0.0 0.0 0.0 # C_3
1494 1 3 0.000000000000 0.0 0.0 0.0 # C_3
1495 1 5 0.000000000000 0.0 0.0 0.0 # O_3
1496 1 4 0.000000000000 0.0 0.0 0.0 # Si3
1497 1 3 0.000000000000 0.0 0.0 0.0 # C_3
1498 1 3 0.000000000000 0.0 0.0 0.0 # C_3
1499 1 5 0.000000000000 0.0 0.0 0.0 # O_3
1500 1 4 0.000000000000 0.0 0.0 0.0 # Si3
1501 1 3 0.000000000000 0.0 0.0 0.0 # C_3
1502 1 3 0.000000000000 0.0 0.0 0.0 # C_3
1503 1 5 0.000000000000 0.0 0.0 0.0 # O_3
1504 1 4 0.000000000000 0.0 0.0 0.0 # Si3
1505 1 3 0.000000000000 0.0 0.0 0.0 # C_3
1506 1 3 0.000000000000 0.0 0.0 0.0 # C_3
1507 1 5 0.000000000000 0.0 0.0 0.0 # O_3
1508 1 4 0.000000000000 0.0 0.0 0.0 # Si3
1509 1 3 0.000000000000 0.0 0.0 0.0 # C_3
1510 1 3 0.000000000000 0.0 0.0 0.0 # C_3
1511 1 5 0.000000000000 0.0 0.0 0.0 # O_3
1512 1 2 0.000000000000 0.0 0.0 0.0 # O_
1513 1 4 0.000000000000 0.0 0.0 0.0 # Si3
1514 1 3 0.000000000000 0.0 0.0 0.0 # C_3
1515 1 3 0.000000000000 0.0 0.0 0.0 # C_3
1516 1 5 0.000000000000 0.0 0.0 0.0 # O_3
1517 1 4 0.000000000000 0.0 0.0 0.0 # Si3
1518 1 3 0.000000000000 0.0 0.0 0.0 # C_3
1519 1 3 0.000000000000 0.0 0.0 0.0 # C_3
1520 1 5 0.000000000000 0.0 0.0 0.0 # O_3
1521 1 4 0.000000000000 0.0 0.0 0.0 # Si3
1522 1 3 0.000000000000 0.0 0.0 0.0 # C_3
1523 1 3 0.000000000000 0.0 0.0 0.0 # C_3
1524 1 5 0.000000000000 0.0 0.0 0.0 # O_3
1525 1 4 0.000000000000 0.0 0.0 0.0 # Si3
1526 1 3 0.000000000000 0.0 0.0 0.0 # C_3
1527 1 3 0.000000000000 0.0 0.0 0.0 # C_3
1528 1 5 0.000000000000 0.0 0.0 0.0 # O_3
1529 1 4 0.000000000000 0.0 0.0 0.0 # Si3
1530 1 3 0.000000000000 0.0 0.0 0.0 # C_3
1531 1 3 0.000000000000 0.0 0.0 0.0 # C_3
1532 1 5 0.000000000000 0.0 0.0 0.0 # O_3
1533 1 2 0.000000000000 0.0 0.0 0.0 # O_
1534 1 4 0.000000000000 0.0 0.0 0.0 # Si3
1535 1 3 0.000000000000 0.0 0.0 0.0 # C_3
1536 1 3 0.000000000000 0.0 0.0 0.0 # C_3
1537 1 5 0.000000000000 0.0 0.0 0.0 # O_3
1538 1 4 0.000000000000 0.0 0.0 0.0 # Si3
1539 1 3 0.000000000000 0.0 0.0 0.0 # C_3
1540 1 3 0.000000000000 0.0 0.0 0.0 # C_3
1541 1 5 0.000000000000 0.0 0.0 0.0 # O_3
1542 1 4 0.000000000000 0.0 0.0 0.0 # Si3
1543 1 3 0.000000000000 0.0 0.0 0.0 # C_3
1544 1 3 0.000000000000 0.0 0.0 0.0 # C_3
1545 1 5 0.000000000000 0.0 0.0 0.0 # O_3
1546 1 4 0.000000000000 0.0 0.0 0.0 # Si3
1547 1 3 0.000000000000 0.0 0.0 0.0 # C_3
1548 1 3 0.000000000000 0.0 0.0 0.0 # C_3
1549 1 5 0.000000000000 0.0 0.0 0.0 # O_3
1550 1 4 0.000000000000 0.0 0.0 0.0 # Si3
1551 1 3 0.000000000000 0.0 0.0 0.0 # C_3
1552 1 3 0.000000000000 0.0 0.0 0.0 # C_3
1553 1 5 0.000000000000 0.0 0.0 0.0 # O_3
1554 1 2 0.000000000000 0.0 0.0 0.0 # O_
1555 1 4 0.000000000000 0.0 0.0 0.0 # Si3
1556 1 3 0.000000000000 0.0 0.0 0.0 # C_3
1557 1 3 0.000000000000 0.0 0.0 0.0 # C_3
1558 1 5 0.000000000000 0.0 0.0 0.0 # O_3
1559 1 4 0.000000000000 0.0 0.0 0.0 # Si3
1560 1 3 0.000000000000 0.0 0.0 0.0 # C_3
1561 1 3 0.000000000000 0.0 0.0 0.0 # C_3
1562 1 5 0.000000000000 0.0 0.0 0.0 # O_3
1563 1 4 0.000000000000 0.0 0.0 0.0 # Si3
1564 1 3 0.000000000000 0.0 0.0 0.0 # C_3
1565 1 3 0.000000000000 0.0 0.0 0.0 # C_3
1566 1 5 0.000000000000 0.0 0.0 0.0 # O_3
1567 1 4 0.000000000000 0.0 0.0 0.0 # Si3
1568 1 3 0.000000000000 0.0 0.0 0.0 # C_3
1569 1 3 0.000000000000 0.0 0.0 0.0 # C_3
1570 1 5 0.000000000000 0.0 0.0 0.0 # O_3
1571 1 4 0.000000000000 0.0 0.0 0.0 # Si3
1572 1 3 0.000000000000 0.0 0.0 0.0 # C_3
1573 1 3 0.000000000000 0.0 0.0 0.0 # C_3
1574 1 5 0.000000000000 0.0 0.0 0.0 # O_3
1575 1 2 0.000000000000 0.0 0.0 0.0 # O_
1576 1 4 0.000000000000 0.0 0.0 0.0 # Si3
1577 1 3 0.000000000000 0.0 0.0 0.0 # C_3
1578 1 3 0.000000000000 0.0 0.0 0.0 # C_3
1579 1 5 0.000000000000 0.0 0.0 0.0 # O_3
1580 1 4 0.000000000000 0.0 0.0 0.0 # Si3
1581 1 3 0.000000000000 0.0 0.0 0.0 # C_3
1582 1 3 0.000000000000 0.0 0.0 0.0 # C_3
1583 1 5 0.000000000000 0.0 0.0 0.0 # O_3
1584 1 4 0.000000000000 0.0 0.0 0.0 # Si3
1585 1 3 0.000000000000 0.0 0.0 0.0 # C_3
1586 1 3 0.000000000000 0.0 0.0 0.0 # C_3
1587 1 5 0.000000000000 0.0 0.0 0.0 # O_3
1588 1 4 0.000000000000 0.0 0.0 0.0 # Si3
1589 1 3 0.000000000000 0.0 0.0 0.0 # C_3
1590 1 3 0.000000000000 0.0 0.0 0.0 # C_3
1591 1 5 0.000000000000 0.0 0.0 0.0 # O_3
1592 1 4 0.000000000000 0.0 0.0 0.0 # Si3
1593 1 3 0.000000000000 0.0 0.0 0.0 # C_3
1594 1 3 0.000000000000 0.0 0.0 0.0 # C_3
1595 1 5 0.000000000000 0.0 0.0 0.0 # O_3
1596 1 2 0.000000000000 0.0 0.0 0.0 # O_
1597 1 4 0.000000000000 0.0 0.0 0.0 # Si3
1598 1 3 0.000000000000 0.0 0.0 0.0 # C_3
1599 1 3 0.000000000000 0.0 0.0 0.0 # C_3
1600 1 5 0.000000000000 0.0 0.0 0.0 # O_3
1601 1 4 0.000000000000 0.0 0.0 0.0 # Si3
1602 1 3 0.000000000000 0.0 0.0 0.0 # C_3
1603 1 3 0.000000000000 0.0 0.0 0.0 # C_3
1604 1 5 0.000000000000 0.0 0.0 0.0 # O_3
1605 1 4 0.000000000000 0.0 0.0 0.0 # Si3
1606 1 3 0.000000000000 0.0 0.0 0.0 # C_3
1607 1 3 0.000000000000 0.0 0.0 0.0 # C_3
1608 1 5 0.000000000000 0.0 0.0 0.0 # O_3
1609 1 4 0.000000000000 0.0 0.0 0.0 # Si3
1610 1 3 0.000000000000 0.0 0.0 0.0 # C_3
1611 1 3 0.000000000000 0.0 0.0 0.0 # C_3
1612 1 5 0.000000000000 0.0 0.0 0.0 # O_3
1613 1 4 0.000000000000 0.0 0.0 0.0 # Si3
1614 1 3 0.000000000000 0.0 0.0 0.0 # C_3
1615 1 3 0.000000000000 0.0 0.0 0.0 # C_3
1616 1 5 0.000000000000 0.0 0.0 0.0 # O_3
1617 1 2 0.000000000000 0.0 0.0 0.0 # O_
1618 1 4 0.000000000000 0.0 0.0 0.0 # Si3
1619 1 3 0.000000000000 0.0 0.0 0.0 # C_3
1620 1 3 0.000000000000 0.0 0.0 0.0 # C_3
1621 1 5 0.000000000000 0.0 0.0 0.0 # O_3
1622 1 4 0.000000000000 0.0 0.0 0.0 # Si3
1623 1 3 0.000000000000 0.0 0.0 0.0 # C_3
1624 1 3 0.000000000000 0.0 0.0 0.0 # C_3
1625 1 5 0.000000000000 0.0 0.0 0.0 # O_3
1626 1 4 0.000000000000 0.0 0.0 0.0 # Si3
1627 1 3 0.000000000000 0.0 0.0 0.0 # C_3
1628 1 3 0.000000000000 0.0 0.0 0.0 # C_3
1629 1 5 0.000000000000 0.0 0.0 0.0 # O_3
1630 1 4 0.000000000000 0.0 0.0 0.0 # Si3
1631 1 3 0.000000000000 0.0 0.0 0.0 # C_3
1632 1 3 0.000000000000 0.0 0.0 0.0 # C_3
1633 1 5 0.000000000000 0.0 0.0 0.0 # O_3
1634 1 4 0.000000000000 0.0 0.0 0.0 # Si3
1635 1 3 0.000000000000 0.0 0.0 0.0 # C_3
1636 1 3 0.000000000000 0.0 0.0 0.0 # C_3
1637 1 5 0.000000000000 0.0 0.0 0.0 # O_3
1638 1 2 0.000000000000 0.0 0.0 0.0 # O_
1639 1 4 0.000000000000 0.0 0.0 0.0 # Si3
1640 1 3 0.000000000000 0.0 0.0 0.0 # C_3
1641 1 3 0.000000000000 0.0 0.0 0.0 # C_3
1642 1 5 0.000000000000 0.0 0.0 0.0 # O_3
1643 1 4 0.000000000000 0.0 0.0 0.0 # Si3
1644 1 3 0.000000000000 0.0 0.0 0.0 # C_3
1645 1 3 0.000000000000 0.0 0.0 0.0 # C_3
1646 1 5 0.000000000000 0.0 0.0 0.0 # O_3
1647 1 4 0.000000000000 0.0 0.0 0.0 # Si3
1648 1 3 0.000000000000 0.0 0.0 0.0 # C_3
1649 1 3 0.000000000000 0.0 0.0 0.0 # C_3
1650 1 5 0.000000000000 0.0 0.0 0.0 # O_3
1651 1 4 0.000000000000 0.0 0.0 0.0 # Si3
1652 1 3 0.000000000000 0.0 0.0 0.0 # C_3
1653 1 3 0.000000000000 0.0 0.0 0.0 # C_3
1654 1 5 0.000000000000 0.0 0.0 0.0 # O_3
1655 1 4 0.000000000000 0.0 0.0 0.0 # Si3
1656 1 3 0.000000000000 0.0 0.0 0.0 # C_3
1657 1 3 0.000000000000 0.0 0.0 0.0 # C_3
1658 1 5 0.000000000000 0.0 0.0 0.0 # O_3
1659 1 2 0.000000000000 0.0 0.0 0.0 # O_
1660 1 4 0.000000000000 0.0 0.0 0.0 # Si3
1661 1 3 0.000000000000 0.0 0.0 0.0 # C_3
1662 1 3 0.000000000000 0.0 0.0 0.0 # C_3
1663 1 5 0.000000000000 0.0 0.0 0.0 # O_3
1664 1 4 0.000000000000 0.0 0.0 0.0 # Si3
1665 1 3 0.000000000000 0.0 0.0 0.0 # C_3
1666 1 3 0.000000000000 0.0 0.0 0.0 # C_3
1667 1 5 0.000000000000 0.0 0.0 0.0 # O_3
1668 1 4 0.000000000000 0.0 0.0 0.0 # Si3
1669 1 3 0.000000000000 0.0 0.0 0.0 # C_3
1670 1 3 0.000000000000 0.0 0.0 0.0 # C_3
1671 1 5 0.000000000000 0.0 0.0 0.0 # O_3
1672 1 4 0.000000000000 0.0 0.0 0.0 # Si3
1673 1 3 0.000000000000 0.0 0.0 0.0 # C_3
1674 1 3 0.000000000000 0.0 0.0 0.0 # C_3
1675 1 5 0.000000000000 0.0 0.0 0.0 # O_3
1676 1 4 0.000000000000 0.0 0.0 0.0 # Si3
1677 1 3 0.000000000000 0.0 0.0 0.0 # C_3
1678 1 3 0.000000000000 0.0 0.0 0.0 # C_3
1679 1 5 0.000000000000 0.0 0.0 0.0 # O_3
1680 1 2 0.000000000000 0.0 0.0 0.0 # O_
1681 1 4 0.000000000000 0.0 0.0 0.0 # Si3
1682 1 3 0.000000000000 0.0 0.0 0.0 # C_3
1683 1 3 0.000000000000 0.0 0.0 0.0 # C_3
1684 1 5 0.000000000000 0.0 0.0 0.0 # O_3
1685 1 4 0.000000000000 0.0 0.0 0.0 # Si3
1686 1 3 0.000000000000 0.0 0.0 0.0 # C_3
1687 1 3 0.000000000000 0.0 0.0 0.0 # C_3
1688 1 5 0.000000000000 0.0 0.0 0.0 # O_3
1689 1 4 0.000000000000 0.0 0.0 0.0 # Si3
1690 1 3 0.000000000000 0.0 0.0 0.0 # C_3
1691 1 3 0.000000000000 0.0 0.0 0.0 # C_3
1692 1 5 0.000000000000 0.0 0.0 0.0 # O_3
1693 1 4 0.000000000000 0.0 0.0 0.0 # Si3
1694 1 3 0.000000000000 0.0 0.0 0.0 # C_3
1695 1 3 0.000000000000 0.0 0.0 0.0 # C_3
1696 1 5 0.000000000000 0.0 0.0 0.0 # O_3
1697 1 4 0.000000000000 0.0 0.0 0.0 # Si3
1698 1 3 0.000000000000 0.0 0.0 0.0 # C_3
1699 1 3 0.000000000000 0.0 0.0 0.0 # C_3
1700 1 5 0.000000000000 0.0 0.0 0.0 # O_3
1701 1 2 0.000000000000 0.0 0.0 0.0 # O_
1702 1 4 0.000000000000 0.0 0.0 0.0 # Si3
1703 1 3 0.000000000000 0.0 0.0 0.0 # C_3
1704 1 3 0.000000000000 0.0 0.0 0.0 # C_3
1705 1 5 0.000000000000 0.0 0.0 0.0 # O_3
1706 1 4 0.000000000000 0.0 0.0 0.0 # Si3
1707 1 3 0.000000000000 0.0 0.0 0.0 # C_3
1708 1 3 0.000000000000 0.0 0.0 0.0 # C_3
1709 1 5 0.000000000000 0.0 0.0 0.0 # O_3
1710 1 4 0.000000000000 0.0 0.0 0.0 # Si3
1711 1 3 0.000000000000 0.0 0.0 0.0 # C_3
1712 1 3 0.000000000000 0.0 0.0 0.0 # C_3
1713 1 5 0.000000000000 0.0 0.0 0.0 # O_3
1714 1 4 0.000000000000 0.0 0.0 0.0 # Si3
1715 1 3 0.000000000000 0.0 0.0 0.0 # C_3
1716 1 3 0.000000000000 0.0 0.0 0.0 # C_3
1717 1 5 0.000000000000 0.0 0.0 0.0 # O_3
1718 1 4 0.000000000000 0.0 0.0 0.0 # Si3
1719 1 3 0.000000000000 0.0 0.0 0.0 # C_3
1720 1 3 0.000000000000 0.0 0.0 0.0 # C_3
1721 1 5 0.000000000000 0.0 0.0 0.0 # O_3
1722 1 2 0.000000000000 0.0 0.0 0.0 # O_
1723 1 4 0.000000000000 0.0 0.0 0.0 # Si3
1724 1 3 0.000000000000 0.0 0.0 0.0 # C_3
1725 1 3 0.000000000000 0.0 0.0 0.0 # C_3
1726 1 5 0.000000000000 0.0 0.0 0.0 # O_3
1727 1 4 0.000000000000 0.0 0.0 0.0 # Si3
1728 1 3 0.000000000000 0.0 0.0 0.0 # C_3
1729 1 3 0.000000000000 0.0 0.0 0.0 # C_3
1730 1 5 0.000000000000 0.0 0.0 0.0 # O_3
1731 1 4 0.000000000000 0.0 0.0 0.0 # Si3
1732 1 3 0.000000000000 0.0 0.0 0.0 # C_3
1733 1 3 0.000000000000 0.0 0.0 0.0 # C_3
1734 1 5 0.000000000000 0.0 0.0 0.0 # O_3
1735 1 4 0.000000000000 0.0 0.0 0.0 # Si3
1736 1 3 0.000000000000 0.0 0.0 0.0 # C_3
1737 1 3 0.000000000000 0.0 0.0 0.0 # C_3
1738 1 5 0.000000000000 0.0 0.0 0.0 # O_3
1739 1 4 0.000000000000 0.0 0.0 0.0 # Si3
1740 1 3 0.000000000000 0.0 0.0 0.0 # C_3
1741 1 3 0.000000000000 0.0 0.0 0.0 # C_3
1742 1 5 0.000000000000 0.0 0.0 0.0 # O_3
1743 1 2 0.000000000000 0.0 0.0 0.0 # O_
1744 1 4 0.000000000000 0.0 0.0 0.0 # Si3
1745 1 3 0.000000000000 0.0 0.0 0.0 # C_3
1746 1 3 0.000000000000 0.0 0.0 0.0 # C_3
1747 1 5 0.000000000000 0.0 0.0 0.0 # O_3
1748 1 4 0.000000000000 0.0 0.0 0.0 # Si3
1749 1 3 0.000000000000 0.0 0.0 0.0 # C_3
1750 1 3 0.000000000000 0.0 0.0 0.0 # C_3
1751 1 5 0.000000000000 0.0 0.0 0.0 # O_3
1752 1 4 0.000000000000 0.0 0.0 0.0 # Si3
1753 1 3 0.000000000000 0.0 0.0 0.0 # C_3
1754 1 3 0.000000000000 0.0 0.0 0.0 # C_3
1755 1 5 0.000000000000 0.0 0.0 0.0 # O_3
1756 1 4 0.000000000000 0.0 0.0 0.0 # Si3
1757 1 3 0.000000000000 0.0 0.0 0.0 # C_3
1758 1 3 0.000000000000 0.0 0.0 0.0 # C_3
1759 1 5 0.000000000000 0.0 0.0 0.0 # O_3
1760 1 4 0.000000000000 0.0 0.0 0.0 # Si3
1761 1 3 0.000000000000 0.0 0.0 0.0 # C_3
1762 1 3 0.000000000000 0.0 0.0 0.0 # C_3
1763 1 5 0.000000000000 0.0 0.0 0.0 # O_3
1764 1 2 0.000000000000 0.0 0.0 0.0 # O_
1765 1 4 0.000000000000 0.0 0.0 0.0 # Si3
1766 1 3 0.000000000000 0.0 0.0 0.0 # C_3
1767 1 3 0.000000000000 0.0 0.0 0.0 # C_3
1768 1 5 0.000000000000 0.0 0.0 0.0 # O_3
1769 1 4 0.000000000000 0.0 0.0 0.0 # Si3
1770 1 3 0.000000000000 0.0 0.0 0.0 # C_3
1771 1 3 0.000000000000 0.0 0.0 0.0 # C_3
1772 1 5 0.000000000000 0.0 0.0 0.0 # O_3
1773 1 4 0.000000000000 0.0 0.0 0.0 # Si3
1774 1 3 0.000000000000 0.0 0.0 0.0 # C_3
1775 1 3 0.000000000000 0.0 0.0 0.0 # C_3
1776 1 5 0.000000000000 0.0 0.0 0.0 # O_3
1777 1 4 0.000000000000 0.0 0.0 0.0 # Si3
1778 1 3 0.000000000000 0.0 0.0 0.0 # C_3
1779 1 3 0.000000000000 0.0 0.0 0.0 # C_3
1780 1 5 0.000000000000 0.0 0.0 0.0 # O_3
1781 1 4 0.000000000000 0.0 0.0 0.0 # Si3
1782 1 3 0.000000000000 0.0 0.0 0.0 # C_3
1783 1 3 0.000000000000 0.0 0.0 0.0 # C_3
1784 1 5 0.000000000000 0.0 0.0 0.0 # O_3
1785 1 2 0.000000000000 0.0 0.0 0.0 # O_
1786 1 4 0.000000000000 0.0 0.0 0.0 # Si3
1787 1 3 0.000000000000 0.0 0.0 0.0 # C_3
1788 1 3 0.000000000000 0.0 0.0 0.0 # C_3
1789 1 5 0.000000000000 0.0 0.0 0.0 # O_3
1790 1 4 0.000000000000 0.0 0.0 0.0 # Si3
1791 1 3 0.000000000000 0.0 0.0 0.0 # C_3
1792 1 3 0.000000000000 0.0 0.0 0.0 # C_3
1793 1 5 0.000000000000 0.0 0.0 0.0 # O_3
1794 1 4 0.000000000000 0.0 0.0 0.0 # Si3
1795 1 3 0.000000000000 0.0 0.0 0.0 # C_3
1796 1 3 0.000000000000 0.0 0.0 0.0 # C_3
1797 1 5 0.000000000000 0.0 0.0 0.0 # O_3
1798 1 4 0.000000000000 0.0 0.0 0.0 # Si3
1799 1 3 0.000000000000 0.0 0.0 0.0 # C_3
1800 1 3 0.000000000000 0.0 0.0 0.0 # C_3
1801 1 5 0.000000000000 0.0 0.0 0.0 # O_3
1802 1 4 0.000000000000 0.0 0.0 0.0 # Si3
1803 1 3 0.000000000000 0.0 0.0 0.0 # C_3
1804 1 3 0.000000000000 0.0 0.0 0.0 # C_3
1805 1 5 0.000000000000 0.0 0.0 0.0 # O_3
1806 1 2 0.000000000000 0.0 0.0 0.0 # O_
1807 1 4 0.000000000000 0.0 0.0 0.0 # Si3
1808 1 3 0.000000000000 0.0 0.0 0.0 # C_3
1809 1 3 0.000000000000 0.0 0.0 0.0 # C_3
1810 1 5 0.000000000000 0.0 0.0 0.0 # O_3
1811 1 4 0.000000000000 0.0 0.0 0.0 # Si3
1812 1 3 0.000000000000 0.0 0.0 0.0 # C_3
1813 1 3 0.000000000000 0.0 0.0 0.0 # C_3
1814 1 5 0.000000000000 0.0 0.0 0.0 # O_3
1815 1 4 0.000000000000 0.0 0.0 0.0 # Si3
1816 1 3 0.000000000000 0.0 0.0 0.0 # C_3
1817 1 3 0.000000000000 0.0 0.0 0.0 # C_3
1818 1 5 0.000000000000 0.0 0.0 0.0 # O_3
1819 1 4 0.000000000000 0.0 0.0 0.0 # Si3
1820 1 3 0.000000000000 0.0 0.0 0.0 # C_3
1821 1 3 0.000000000000 0.0 0.0 0.0 # C_3
1822 1 5 0.000000000000 0.0 0.0 0.0 # O_3
1823 1 4 0.000000000000 0.0 0.0 0.0 # Si3
1824 1 3 0.000000000000 0.0 0.0 0.0 # C_3
1825 1 3 0.000000000000 0.0 0.0 0.0 # C_3
1826 1 5 0.000000000000 0.0 0.0 0.0 # O_3
1827 1 2 0.000000000000 0.0 0.0 0.0 # O_
1828 1 4 0.000000000000 0.0 0.0 0.0 # Si3
1829 1 3 0.000000000000 0.0 0.0 0.0 # C_3
1830 1 3 0.000000000000 0.0 0.0 0.0 # C_3
1831 1 5 0.000000000000 0.0 0.0 0.0 # O_3
1832 1 4 0.000000000000 0.0 0.0 0.0 # Si3
1833 1 3 0.000000000000 0.0 0.0 0.0 # C_3
1834 1 3 0.000000000000 0.0 0.0 0.0 # C_3
1835 1 5 0.000000000000 0.0 0.0 0.0 # O_3
1836 1 4 0.000000000000 0.0 0.0 0.0 # Si3
1837 1 3 0.000000000000 0.0 0.0 0.0 # C_3
1838 1 3 0.000000000000 0.0 0.0 0.0 # C_3
1839 1 5 0.000000000000 0.0 0.0 0.0 # O_3
1840 1 4 0.000000000000 0.0 0.0 0.0 # Si3
1841 1 3 0.000000000000 0.0 0.0 0.0 # C_3
1842 1 3 0.000000000000 0.0 0.0 0.0 # C_3
1843 1 5 0.000000000000 0.0 0.0 0.0 # O_3
1844 1 4 0.000000000000 0.0 0.0 0.0 # Si3
1845 1 3 0.000000000000 0.0 0.0 0.0 # C_3
1846 1 3 0.000000000000 0.0 0.0 0.0 # C_3
1847 1 5 0.000000000000 0.0 0.0 0.0 # O_3
1848 1 2 0.000000000000 0.0 0.0 0.0 # O_
1849 1 4 0.000000000000 0.0 0.0 0.0 # Si3
1850 1 3 0.000000000000 0.0 0.0 0.0 # C_3
1851 1 3 0.000000000000 0.0 0.0 0.0 # C_3
1852 1 5 0.000000000000 0.0 0.0 0.0 # O_3
1853 1 4 0.000000000000 0.0 0.0 0.0 # Si3
1854 1 3 0.000000000000 0.0 0.0 0.0 # C_3
1855 1 3 0.000000000000 0.0 0.0 0.0 # C_3
1856 1 5 0.000000000000 0.0 0.0 0.0 # O_3
1857 1 4 0.000000000000 0.0 0.0 0.0 # Si3
1858 1 3 0.000000000000 0.0 0.0 0.0 # C_3
1859 1 3 0.000000000000 0.0 0.0 0.0 # C_3
1860 1 5 0.000000000000 0.0 0.0 0.0 # O_3
1861 1 4 0.000000000000 0.0 0.0 0.0 # Si3
1862 1 3 0.000000000000 0.0 0.0 0.0 # C_3
1863 1 3 0.000000000000 0.0 0.0 0.0 # C_3
1864 1 5 0.000000000000 0.0 0.0 0.0 # O_3
1865 1 4 0.000000000000 0.0 0.0 0.0 # Si3
1866 1 3 0.000000000000 0.0 0.0 0.0 # C_3
1867 1 3 0.000000000000 0.0 0.0 0.0 # C_3
1868 1 5 0.000000000000 0.0 0.0 0.0 # O_3
1869 1 2 0.000000000000 0.0 0.0 0.0 # O_
1870 1 4 0.000000000000 0.0 0.0 0.0 # Si3
1871 1 3 0.000000000000 0.0 0.0 0.0 # C_3
1872 1 3 0.000000000000 0.0 0.0 0.0 # C_3
1873 1 5 0.000000000000 0.0 0.0 0.0 # O_3
1874 1 4 0.000000000000 0.0 0.0 0.0 # Si3
1875 1 3 0.000000000000 0.0 0.0 0.0 # C_3
1876 1 3 0.000000000000 0.0 0.0 0.0 # C_3
1877 1 5 0.000000000000 0.0 0.0 0.0 # O_3
1878 1 4 0.000000000000 0.0 0.0 0.0 # Si3
1879 1 3 0.000000000000 0.0 0.0 0.0 # C_3
1880 1 3 0.000000000000 0.0 0.0 0.0 # C_3
1881 1 5 0.000000000000 0.0 0.0 0.0 # O_3
1882 1 4 0.000000000000 0.0 0.0 0.0 # Si3
1883 1 3 0.000000000000 0.0 0.0 0.0 # C_3
1884 1 3 0.000000000000 0.0 0.0 0.0 # C_3
1885 1 5 0.000000000000 0.0 0.0 0.0 # O_3
1886 1 4 0.000000000000 0.0 0.0 0.0 # Si3
1887 1 3 0.000000000000 0.0 0.0 0.0 # C_3
1888 1 3 0.000000000000 0.0 0.0 0.0 # C_3
1889 1 5 0.000000000000 0.0 0.0 0.0 # O_3
1890 1 2 0.000000000000 0.0 0.0 0.0 # O_
1891 1 4 0.000000000000 0.0 0.0 0.0 # Si3
1892 1 3 0.000000000000 0.0 0.0 0.0 # C_3
1893 1 3 0.000000000000 0.0 0.0 0.0 # C_3
1894 1 5 0.000000000000 0.0 0.0 0.0 # O_3
1895 1 4 0.000000000000 0.0 0.0 0.0 # Si3
1896 1 3 0.000000000000 0.0 0.0 0.0 # C_3
1897 1 3 0.000000000000 0.0 0.0 0.0 # C_3
1898 1 5 0.000000000000 0.0 0.0 0.0 # O_3
1899 1 4 0.000000000000 0.0 0.0 0.0 # Si3
1900 1 3 0.000000000000 0.0 0.0 0.0 # C_3
1901 1 3 0.000000000000 0.0 0.0 0.0 # C_3
1902 1 5 0.000000000000 0.0 0.0 0.0 # O_3
1903 1 4 0.000000000000 0.0 0.0 0.0 # Si3
1904 1 3 0.000000000000 0.0 0.0 0.0 # C_3
1905 1 3 0.000000000000 0.0 0.0 0.0 # C_3
1906 1 5 0.000000000000 0.0 0.0 0.0 # O_3
1907 1 4 0.000000000000 0.0 0.0 0.0 # Si3
1908 1 3 0.000000000000 0.0 0.0 0.0 # C_3
1909 1 3 0.000000000000 0.0 0.0 0.0 # C_3
1910 1 5 0.000000000000 0.0 0.0 0.0 # O_3
1911 1 2 0.000000000000 0.0 0.0 0.0 # O_
1912 1 4 0.000000000000 0.0 0.0 0.0 # Si3
1913 1 3 0.000000000000 0.0 0.0 0.0 # C_3
1914 1 3 0.000000000000 0.0 0.0 0.0 # C_3
1915 1 5 0.000000000000 0.0 0.0 0.0 # O_3
1916 1 4 0.000000000000 0.0 0.0 0.0 # Si3
1917 1 3 0.000000000000 0.0 0.0 0.0 # C_3
1918 1 3 0.000000000000 0.0 0.0 0.0 # C_3
1919 1 5 0.000000000000 0.0 0.0 0.0 # O_3
1920 1 4 0.000000000000 0.0 0.0 0.0 # Si3
1921 1 3 0.000000000000 0.0 0.0 0.0 # C_3
1922 1 3 0.000000000000 0.0 0.0 0.0 # C_3
1923 1 5 0.000000000000 0.0 0.0 0.0 # O_3
1924 1 4 0.000000000000 0.0 0.0 0.0 # Si3
1925 1 3 0.000000000000 0.0 0.0 0.0 # C_3
1926 1 3 0.000000000000 0.0 0.0 0.0 # C_3
1927 1 5 0.000000000000 0.0 0.0 0.0 # O_3
1928 1 4 0.000000000000 0.0 0.0 0.0 # Si3
1929 1 3 0.000000000000 0.0 0.0 0.0 # C_3
1930 1 3 0.000000000000 0.0 0.0 0.0 # C_3
1931 1 5 0.000000000000 0.0 0.0 0.0 # O_3
1932 1 2 0.000000000000 0.0 0.0 0.0 # O_
1933 1 4 0.000000000000 0.0 0.0 0.0 # Si3
1934 1 3 0.000000000000 0.0 0.0 0.0 # C_3
1935 1 3 0.000000000000 0.0 0.0 0.0 # C_3
1936 1 5 0.000000000000 0.0 0.0 0.0 # O_3
1937 1 4 0.000000000000 0.0 0.0 0.0 # Si3
1938 1 3 0.000000000000 0.0 0.0 0.0 # C_3
1939 1 3 0.000000000000 0.0 0.0 0.0 # C_3
1940 1 5 0.000000000000 0.0 0.0 0.0 # O_3
1941 1 4 0.000000000000 0.0 0.0 0.0 # Si3
1942 1 3 0.000000000000 0.0 0.0 0.0 # C_3
1943 1 3 0.000000000000 0.0 0.0 0.0 # C_3
1944 1 5 0.000000000000 0.0 0.0 0.0 # O_3
1945 1 4 0.000000000000 0.0 0.0 0.0 # Si3
1946 1 3 0.000000000000 0.0 0.0 0.0 # C_3
1947 1 3 0.000000000000 0.0 0.0 0.0 # C_3
1948 1 5 0.000000000000 0.0 0.0 0.0 # O_3
1949 1 4 0.000000000000 0.0 0.0 0.0 # Si3
1950 1 3 0.000000000000 0.0 0.0 0.0 # C_3
1951 1 3 0.000000000000 0.0 0.0 0.0 # C_3
1952 1 5 0.000000000000 0.0 0.0 0.0 # O_3
1953 1 2 0.000000000000 0.0 0.0 0.0 # O_
1954 1 4 0.000000000000 0.0 0.0 0.0 # Si3
1955 1 3 0.000000000000 0.0 0.0 0.0 # C_3
1956 1 3 0.000000000000 0.0 0.0 0.0 # C_3
1957 1 5 0.000000000000 0.0 0.0 0.0 # O_3
1958 1 4 0.000000000000 0.0 0.0 0.0 # Si3
1959 1 3 0.000000000000 0.0 0.0 0.0 # C_3
1960 1 3 0.000000000000 0.0 0.0 0.0 # C_3
1961 1 5 0.000000000000 0.0 0.0 0.0 # O_3
1962 1 4 0.000000000000 0.0 0.0 0.0 # Si3
1963 1 3 0.000000000000 0.0 0.0 0.0 # C_3
1964 1 3 0.000000000000 0.0 0.0 0.0 # C_3
1965 1 5 0.000000000000 0.0 0.0 0.0 # O_3
1966 1 4 0.000000000000 0.0 0.0 0.0 # Si3
1967 1 3 0.000000000000 0.0 0.0 0.0 # C_3
1968 1 3 0.000000000000 0.0 0.0 0.0 # C_3
1969 1 5 0.000000000000 0.0 0.0 0.0 # O_3
1970 1 4 0.000000000000 0.0 0.0 0.0 # Si3
1971 1 3 0.000000000000 0.0 0.0 0.0 # C_3
1972 1 3 0.000000000000 0.0 0.0 0.0 # C_3
1973 1 5 0.000000000000 0.0 0.0 0.0 # O_3
1974 1 2 0.000000000000 0.0 0.0 0.0 # O_
1975 1 4 0.000000000000 0.0 0.0 0.0 # Si3
1976 1 3 0.000000000000 0.0 0.0 0.0 # C_3
1977 1 3 0.000000000000 0.0 0.0 0.0 # C_3
1978 1 5 0.000000000000 0.0 0.0 0.0 # O_3
1979 1 4 0.000000000000 0.0 0.0 0.0 # Si3
1980 1 3 0.000000000000 0.0 0.0 0.0 # C_3
1981 1 3 0.000000000000 0.0 0.0 0.0 # C_3
1982 1 5 0.000000000000 0.0 0.0 0.0 # O_3
1983 1 4 0.000000000000 0.0 0.0 0.0 # Si3
1984 1 3 0.000000000000 0.0 0.0 0.0 # C_3
1985 1 3 0.000000000000 0.0 0.0 0.0 # C_3
1986 1 5 0.000000000000 0.0 0.0 0.0 # O_3
1987 1 4 0.000000000000 0.0 0.0 0.0 # Si3
1988 1 3 0.000000000000 0.0 0.0 0.0 # C_3
1989 1 3 0.000000000000 0.0 0.0 0.0 # C_3
1990 1 5 0.000000000000 0.0 0.0 0.0 # O_3
1991 1 4 0.000000000000 0.0 0.0 0.0 # Si3
1992 1 3 0.000000000000 0.0 0.0 0.0 # C_3
1993 1 3 0.000000000000 0.0 0.0 0.0 # C_3
1994 1 5 0.000000000000 0.0 0.0 0.0 # O_3
1995 1 2 0.000000000000 0.0 0.0 0.0 # O_
1996 1 4 0.000000000000 0.0 0.0 0.0 # Si3
1997 1 3 0.000000000000 0.0 0.0 0.0 # C_3
1998 1 3 0.000000000000 0.0 0.0 0.0 # C_3
1999 1 5 0.000000000000 0.0 0.0 0.0 # O_3
2000 1 4 0.000000000000 0.0 0.0 0.0 # Si3
2001 1 3 0.000000000000 0.0 0.0 0.0 # C_3
2002 1 3 0.000000000000 0.0 0.0 0.0 # C_3
2003 1 5 0.000000000000 0.0 0.0 0.0 # O_3
2004 1 4 0.000000000000 0.0 0.0 0.0 # Si3
2005 1 3 0.000000000000 0.0 0.0 0.0 # C_3
2006 1 3 0.000000000000 0.0 0.0 0.0 # C_3
2007 1 5 0.000000000000 0.0 0.0 0.0 # O_3
2008 1 4 0.000000000000 0.0 0.0 0.0 # Si3
2009 1 3 0.000000000000 0.0 0.0 0.0 # C_3
2010 1 3 0.000000000000 0.0 0.0 0.0 # C_3
2011 1 5 0.000000000000 0.0 0.0 0.0 # O_3
2012 1 4 0.000000000000 0.0 0.0 0.0 # Si3
2013 1 3 0.000000000000 0.0 0.0 0.0 # C_3
2014 1 3 0.000000000000 0.0 0.0 0.0 # C_3
2015 1 5 0.000000000000 0.0 0.0 0.0 # O_3
2016 1 2 0.000000000000 0.0 0.0 0.0 # O_
2017 1 4 0.000000000000 0.0 0.0 0.0 # Si3
2018 1 3 0.000000000000 0.0 0.0 0.0 # C_3
2019 1 3 0.000000000000 0.0 0.0 0.0 # C_3
2020 1 5 0.000000000000 0.0 0.0 0.0 # O_3
2021 1 4 0.000000000000 0.0 0.0 0.0 # Si3
2022 1 3 0.000000000000 0.0 0.0 0.0 # C_3
2023 1 3 0.000000000000 0.0 0.0 0.0 # C_3
2024 1 5 0.000000000000 0.0 0.0 0.0 # O_3
2025 1 4 0.000000000000 0.0 0.0 0.0 # Si3
2026 1 3 0.000000000000 0.0 0.0 0.0 # C_3
2027 1 3 0.000000000000 0.0 0.0 0.0 # C_3
2028 1 5 0.000000000000 0.0 0.0 0.0 # O_3
2029 1 4 0.000000000000 0.0 0.0 0.0 # Si3
2030 1 3 0.000000000000 0.0 0.0 0.0 # C_3
2031 1 3 0.000000000000 0.0 0.0 0.0 # C_3
2032 1 5 0.000000000000 0.0 0.0 0.0 # O_3
2033 1 4 0.000000000000 0.0 0.0 0.0 # Si3
2034 1 3 0.000000000000 0.0 0.0 0.0 # C_3
2035 1 3 0.000000000000 0.0 0.0 0.0 # C_3
2036 1 5 0.000000000000 0.0 0.0 0.0 # O_3
2037 1 2 0.000000000000 0.0 0.0 0.0 # O_
2038 1 4 0.000000000000 0.0 0.0 0.0 # Si3
2039 1 3 0.000000000000 0.0 0.0 0.0 # C_3
2040 1 3 0.000000000000 0.0 0.0 0.0 # C_3
2041 1 5 0.000000000000 0.0 0.0 0.0 # O_3
2042 1 4 0.000000000000 0.0 0.0 0.0 # Si3
2043 1 3 0.000000000000 0.0 0.0 0.0 # C_3
2044 1 3 0.000000000000 0.0 0.0 0.0 # C_3
2045 1 5 0.000000000000 0.0 0.0 0.0 # O_3
2046 1 4 0.000000000000 0.0 0.0 0.0 # Si3
2047 1 3 0.000000000000 0.0 0.0 0.0 # C_3
2048 1 3 0.000000000000 0.0 0.0 0.0 # C_3
2049 1 5 0.000000000000 0.0 0.0 0.0 # O_3
2050 1 4 0.000000000000 0.0 0.0 0.0 # Si3
2051 1 3 0.000000000000 0.0 0.0 0.0 # C_3
2052 1 3 0.000000000000 0.0 0.0 0.0 # C_3
2053 1 5 0.000000000000 0.0 0.0 0.0 # O_3
2054 1 4 0.000000000000 0.0 0.0 0.0 # Si3
2055 1 3 0.000000000000 0.0 0.0 0.0 # C_3
2056 1 3 0.000000000000 0.0 0.0 0.0 # C_3
2057 1 5 0.000000000000 0.0 0.0 0.0 # O_3
2058 1 2 0.000000000000 0.0 0.0 0.0 # O_
2059 1 4 0.000000000000 0.0 0.0 0.0 # Si3
2060 1 3 0.000000000000 0.0 0.0 0.0 # C_3
2061 1 3 0.000000000000 0.0 0.0 0.0 # C_3
2062 1 5 0.000000000000 0.0 0.0 0.0 # O_3
2063 1 4 0.000000000000 0.0 0.0 0.0 # Si3
2064 1 3 0.000000000000 0.0 0.0 0.0 # C_3
2065 1 3 0.000000000000 0.0 0.0 0.0 # C_3
2066 1 5 0.000000000000 0.0 0.0 0.0 # O_3
2067 1 4 0.000000000000 0.0 0.0 0.0 # Si3
2068 1 3 0.000000000000 0.0 0.0 0.0 # C_3
2069 1 3 0.000000000000 0.0 0.0 0.0 # C_3
2070 1 5 0.000000000000 0.0 0.0 0.0 # O_3
2071 1 4 0.000000000000 0.0 0.0 0.0 # Si3
2072 1 3 0.000000000000 0.0 0.0 0.0 # C_3
2073 1 3 0.000000000000 0.0 0.0 0.0 # C_3
2074 1 5 0.000000000000 0.0 0.0 0.0 # O_3
2075 1 4 0.000000000000 0.0 0.0 0.0 # Si3
2076 1 3 0.000000000000 0.0 0.0 0.0 # C_3
2077 1 3 0.000000000000 0.0 0.0 0.0 # C_3
2078 1 5 0.000000000000 0.0 0.0 0.0 # O_3
2079 1 2 0.000000000000 0.0 0.0 0.0 # O_
2080 1 4 0.000000000000 0.0 0.0 0.0 # Si3
2081 1 3 0.000000000000 0.0 0.0 0.0 # C_3
2082 1 3 0.000000000000 0.0 0.0 0.0 # C_3
2083 1 5 0.000000000000 0.0 0.0 0.0 # O_3
2084 1 4 0.000000000000 0.0 0.0 0.0 # Si3
2085 1 3 0.000000000000 0.0 0.0 0.0 # C_3
2086 1 3 0.000000000000 0.0 0.0 0.0 # C_3
2087 1 5 0.000000000000 0.0 0.0 0.0 # O_3
2088 1 4 0.000000000000 0.0 0.0 0.0 # Si3
2089 1 3 0.000000000000 0.0 0.0 0.0 # C_3
2090 1 3 0.000000000000 0.0 0.0 0.0 # C_3
2091 1 5 0.000000000000 0.0 0.0 0.0 # O_3
2092 1 4 0.000000000000 0.0 0.0 0.0 # Si3
2093 1 3 0.000000000000 0.0 0.0 0.0 # C_3
2094 1 3 0.000000000000 0.0 0.0 0.0 # C_3
2095 1 5 0.000000000000 0.0 0.0 0.0 # O_3
2096 1 4 0.000000000000 0.0 0.0 0.0 # Si3
2097 1 3 0.000000000000 0.0 0.0 0.0 # C_3
2098 1 3 0.000000000000 0.0 0.0 0.0 # C_3
2099 1 5 0.000000000000 0.0 0.0 0.0 # O_3
2100 1 2 0.000000000000 0.0 0.0 0.0 # O_
2101 1 4 0.000000000000 0.0 0.0 0.0 # Si3
2102 1 3 0.000000000000 0.0 0.0 0.0 # C_3
2103 1 3 0.000000000000 0.0 0.0 0.0 # C_3
2104 1 5 0.000000000000 0.0 0.0 0.0 # O_3
2105 1 4 0.000000000000 0.0 0.0 0.0 # Si3
2106 1 3 0.000000000000 0.0 0.0 0.0 # C_3
2107 1 3 0.000000000000 0.0 0.0 0.0 # C_3
2108 1 5 0.000000000000 0.0 0.0 0.0 # O_3
2109 1 4 0.000000000000 0.0 0.0 0.0 # Si3
2110 1 3 0.000000000000 0.0 0.0 0.0 # C_3
2111 1 3 0.000000000000 0.0 0.0 0.0 # C_3
2112 1 5 0.000000000000 0.0 0.0 0.0 # O_3
2113 1 4 0.000000000000 0.0 0.0 0.0 # Si3
2114 1 3 0.000000000000 0.0 0.0 0.0 # C_3
2115 1 3 0.000000000000 0.0 0.0 0.0 # C_3
2116 1 5 0.000000000000 0.0 0.0 0.0 # O_3
2117 1 4 0.000000000000 0.0 0.0 0.0 # Si3
2118 1 3 0.000000000000 0.0 0.0 0.0 # C_3
2119 1 3 0.000000000000 0.0 0.0 0.0 # C_3
2120 1 5 0.000000000000 0.0 0.0 0.0 # O_3
2121 1 2 0.000000000000 0.0 0.0 0.0 # O_
2122 1 4 0.000000000000 0.0 0.0 0.0 # Si3
2123 1 3 0.000000000000 0.0 0.0 0.0 # C_3
2124 1 3 0.000000000000 0.0 0.0 0.0 # C_3
2125 1 5 0.000000000000 0.0 0.0 0.0 # O_3
2126 1 4 0.000000000000 0.0 0.0 0.0 # Si3
2127 1 3 0.000000000000 0.0 0.0 0.0 # C_3
2128 1 3 0.000000000000 0.0 0.0 0.0 # C_3
2129 1 5 0.000000000000 0.0 0.0 0.0 # O_3
2130 1 4 0.000000000000 0.0 0.0 0.0 # Si3
2131 1 3 0.000000000000 0.0 0.0 0.0 # C_3
2132 1 3 0.000000000000 0.0 0.0 0.0 # C_3
2133 1 5 0.000000000000 0.0 0.0 0.0 # O_3
2134 1 4 0.000000000000 0.0 0.0 0.0 # Si3
2135 1 3 0.000000000000 0.0 0.0 0.0 # C_3
2136 1 3 0.000000000000 0.0 0.0 0.0 # C_3
2137 1 5 0.000000000000 0.0 0.0 0.0 # O_3
2138 1 4 0.000000000000 0.0 0.0 0.0 # Si3
2139 1 3 0.000000000000 0.0 0.0 0.0 # C_3
2140 1 3 0.000000000000 0.0 0.0 0.0 # C_3
2141 1 5 0.000000000000 0.0 0.0 0.0 # O_3
2142 1 2 0.000000000000 0.0 0.0 0.0 # O_
2143 1 4 0.000000000000 0.0 0.0 0.0 # Si3
2144 1 3 0.000000000000 0.0 0.0 0.0 # C_3
2145 1 3 0.000000000000 0.0 0.0 0.0 # C_3
2146 1 5 0.000000000000 0.0 0.0 0.0 # O_3
2147 1 4 0.000000000000 0.0 0.0 0.0 # Si3
2148 1 3 0.000000000000 0.0 0.0 0.0 # C_3
2149 1 3 0.000000000000 0.0 0.0 0.0 # C_3
2150 1 5 0.000000000000 0.0 0.0 0.0 # O_3
2151 1 4 0.000000000000 0.0 0.0 0.0 # Si3
2152 1 3 0.000000000000 0.0 0.0 0.0 # C_3
2153 1 3 0.000000000000 0.0 0.0 0.0 # C_3
2154 1 5 0.000000000000 0.0 0.0 0.0 # O_3
2155 1 4 0.000000000000 0.0 0.0 0.0 # Si3
2156 1 3 0.000000000000 0.0 0.0 0.0 # C_3
2157 1 3 0.000000000000 0.0 0.0 0.0 # C_3
2158 1 5 0.000000000000 0.0 0.0 0.0 # O_3
2159 1 4 0.000000000000 0.0 0.0 0.0 # Si3
2160 1 3 0.000000000000 0.0 0.0 0.0 # C_3
2161 1 3 0.000000000000 0.0 0.0 0.0 # C_3
2162 1 5 0.000000000000 0.0 0.0 0.0 # O_3
2163 1 2 0.000000000000 0.0 0.0 0.0 # O_
2164 1 4 0.000000000000 0.0 0.0 0.0 # Si3
2165 1 3 0.000000000000 0.0 0.0 0.0 # C_3
2166 1 3 0.000000000000 0.0 0.0 0.0 # C_3
2167 1 5 0.000000000000 0.0 0.0 0.0 # O_3
2168 1 4 0.000000000000 0.0 0.0 0.0 # Si3
2169 1 3 0.000000000000 0.0 0.0 0.0 # C_3
2170 1 3 0.000000000000 0.0 0.0 0.0 # C_3
2171 1 5 0.000000000000 0.0 0.0 0.0 # O_3
2172 1 4 0.000000000000 0.0 0.0 0.0 # Si3
2173 1 3 0.000000000000 0.0 0.0 0.0 # C_3
2174 1 3 0.000000000000 0.0 0.0 0.0 # C_3
2175 1 5 0.000000000000 0.0 0.0 0.0 # O_3
2176 1 4 0.000000000000 0.0 0.0 0.0 # Si3
2177 1 3 0.000000000000 0.0 0.0 0.0 # C_3
2178 1 3 0.000000000000 0.0 0.0 0.0 # C_3
2179 1 5 0.000000000000 0.0 0.0 0.0 # O_3
2180 1 4 0.000000000000 0.0 0.0 0.0 # Si3
2181 1 3 0.000000000000 0.0 0.0 0.0 # C_3
2182 1 3 0.000000000000 0.0 0.0 0.0 # C_3
2183 1 5 0.000000000000 0.0 0.0 0.0 # O_3
2184 1 2 0.000000000000 0.0 0.0 0.0 # O_
2185 1 4 0.000000000000 0.0 0.0 0.0 # Si3
2186 1 3 0.000000000000 0.0 0.0 0.0 # C_3
2187 1 3 0.000000000000 0.0 0.0 0.0 # C_3
2188 1 5 0.000000000000 0.0 0.0 0.0 # O_3
2189 1 4 0.000000000000 0.0 0.0 0.0 # Si3
2190 1 3 0.000000000000 0.0 0.0 0.0 # C_3
2191 1 3 0.000000000000 0.0 0.0 0.0 # C_3
2192 1 5 0.000000000000 0.0 0.0 0.0 # O_3
2193 1 4 0.000000000000 0.0 0.0 0.0 # Si3
2194 1 3 0.000000000000 0.0 0.0 0.0 # C_3
2195 1 3 0.000000000000 0.0 0.0 0.0 # C_3
2196 1 5 0.000000000000 0.0 0.0 0.0 # O_3
2197 1 4 0.000000000000 0.0 0.0 0.0 # Si3
2198 1 3 0.000000000000 0.0 0.0 0.0 # C_3
2199 1 3 0.000000000000 0.0 0.0 0.0 # C_3
2200 1 5 0.000000000000 0.0 0.0 0.0 # O_3
2201 1 4 0.000000000000 0.0 0.0 0.0 # Si3
2202 1 3 0.000000000000 0.0 0.0 0.0 # C_3
2203 1 3 0.000000000000 0.0 0.0 0.0 # C_3
2204 1 5 0.000000000000 0.0 0.0 0.0 # O_3
2205 1 2 0.000000000000 0.0 0.0 0.0 # O_
2206 1 4 0.000000000000 0.0 0.0 0.0 # Si3
2207 1 3 0.000000000000 0.0 0.0 0.0 # C_3
2208 1 3 0.000000000000 0.0 0.0 0.0 # C_3
2209 1 5 0.000000000000 0.0 0.0 0.0 # O_3
2210 1 4 0.000000000000 0.0 0.0 0.0 # Si3
2211 1 3 0.000000000000 0.0 0.0 0.0 # C_3
2212 1 3 0.000000000000 0.0 0.0 0.0 # C_3
2213 1 5 0.000000000000 0.0 0.0 0.0 # O_3
2214 1 4 0.000000000000 0.0 0.0 0.0 # Si3
2215 1 3 0.000000000000 0.0 0.0 0.0 # C_3
2216 1 3 0.000000000000 0.0 0.0 0.0 # C_3
2217 1 5 0.000000000000 0.0 0.0 0.0 # O_3
2218 1 4 0.000000000000 0.0 0.0 0.0 # Si3
2219 1 3 0.000000000000 0.0 0.0 0.0 # C_3
2220 1 3 0.000000000000 0.0 0.0 0.0 # C_3
2221 1 5 0.000000000000 0.0 0.0 0.0 # O_3
2222 1 4 0.000000000000 0.0 0.0 0.0 # Si3
2223 1 3 0.000000000000 0.0 0.0 0.0 # C_3
2224 1 3 0.000000000000 0.0 0.0 0.0 # C_3
2225 1 5 0.000000000000 0.0 0.0 0.0 # O_3
2226 1 2 0.000000000000 0.0 0.0 0.0 # O_
2227 1 4 0.000000000000 0.0 0.0 0.0 # Si3
2228 1 3 0.000000000000 0.0 0.0 0.0 # C_3
2229 1 3 0.000000000000 0.0 0.0 0.0 # C_3
2230 1 5 0.000000000000 0.0 0.0 0.0 # O_3
2231 1 4 0.000000000000 0.0 0.0 0.0 # Si3
2232 1 3 0.000000000000 0.0 0.0 0.0 # C_3
2233 1 3 0.000000000000 0.0 0.0 0.0 # C_3
2234 1 5 0.000000000000 0.0 0.0 0.0 # O_3
2235 1 4 0.000000000000 0.0 0.0 0.0 # Si3
2236 1 3 0.000000000000 0.0 0.0 0.0 # C_3
2237 1 3 0.000000000000 0.0 0.0 0.0 # C_3
2238 1 5 0.000000000000 0.0 0.0 0.0 # O_3
2239 1 4 0.000000000000 0.0 0.0 0.0 # Si3
2240 1 3 0.000000000000 0.0 0.0 0.0 # C_3
2241 1 3 0.000000000000 0.0 0.0 0.0 # C_3
2242 1 5 0.000000000000 0.0 0.0 0.0 # O_3
2243 1 4 0.000000000000 0.0 0.0 0.0 # Si3
2244 1 3 0.000000000000 0.0 0.0 0.0 # C_3
2245 1 3 0.000000000000 0.0 0.0 0.0 # C_3
2246 1 5 0.000000000000 0.0 0.0 0.0 # O_3
2247 1 2 0.000000000000 0.0 0.0 0.0 # O_
2248 1 4 0.000000000000 0.0 0.0 0.0 # Si3
2249 1 3 0.000000000000 0.0 0.0 0.0 # C_3
2250 1 3 0.000000000000 0.0 0.0 0.0 # C_3
2251 1 5 0.000000000000 0.0 0.0 0.0 # O_3
2252 1 4 0.000000000000 0.0 0.0 0.0 # Si3
2253 1 3 0.000000000000 0.0 0.0 0.0 # C_3
2254 1 3 0.000000000000 0.0 0.0 0.0 # C_3
2255 1 5 0.000000000000 0.0 0.0 0.0 # O_3
2256 1 4 0.000000000000 0.0 0.0 0.0 # Si3
2257 1 3 0.000000000000 0.0 0.0 0.0 # C_3
2258 1 3 0.000000000000 0.0 0.0 0.0 # C_3
2259 1 5 0.000000000000 0.0 0.0 0.0 # O_3
2260 1 4 0.000000000000 0.0 0.0 0.0 # Si3
2261 1 3 0.000000000000 0.0 0.0 0.0 # C_3
2262 1 3 0.000000000000 0.0 0.0 0.0 # C_3
2263 1 5 0.000000000000 0.0 0.0 0.0 # O_3
2264 1 4 0.000000000000 0.0 0.0 0.0 # Si3
2265 1 3 0.000000000000 0.0 0.0 0.0 # C_3
2266 1 3 0.000000000000 0.0 0.0 0.0 # C_3
2267 1 5 0.000000000000 0.0 0.0 0.0 # O_3
2268 1 2 0.000000000000 0.0 0.0 0.0 # O_
2269 1 4 0.000000000000 0.0 0.0 0.0 # Si3
2270 1 3 0.000000000000 0.0 0.0 0.0 # C_3
2271 1 3 0.000000000000 0.0 0.0 0.0 # C_3
2272 1 5 0.000000000000 0.0 0.0 0.0 # O_3
2273 1 4 0.000000000000 0.0 0.0 0.0 # Si3
2274 1 3 0.000000000000 0.0 0.0 0.0 # C_3
2275 1 3 0.000000000000 0.0 0.0 0.0 # C_3
2276 1 5 0.000000000000 0.0 0.0 0.0 # O_3
2277 1 4 0.000000000000 0.0 0.0 0.0 # Si3
2278 1 3 0.000000000000 0.0 0.0 0.0 # C_3
2279 1 3 0.000000000000 0.0 0.0 0.0 # C_3
2280 1 5 0.000000000000 0.0 0.0 0.0 # O_3
2281 1 4 0.000000000000 0.0 0.0 0.0 # Si3
2282 1 3 0.000000000000 0.0 0.0 0.0 # C_3
2283 1 3 0.000000000000 0.0 0.0 0.0 # C_3
2284 1 5 0.000000000000 0.0 0.0 0.0 # O_3
2285 1 4 0.000000000000 0.0 0.0 0.0 # Si3
2286 1 3 0.000000000000 0.0 0.0 0.0 # C_3
2287 1 3 0.000000000000 0.0 0.0 0.0 # C_3
2288 1 5 0.000000000000 0.0 0.0 0.0 # O_3
2289 1 2 0.000000000000 0.0 0.0 0.0 # O_
2290 1 4 0.000000000000 0.0 0.0 0.0 # Si3
2291 1 3 0.000000000000 0.0 0.0 0.0 # C_3
2292 1 3 0.000000000000 0.0 0.0 0.0 # C_3
2293 1 5 0.000000000000 0.0 0.0 0.0 # O_3
2294 1 4 0.000000000000 0.0 0.0 0.0 # Si3
2295 1 3 0.000000000000 0.0 0.0 0.0 # C_3
2296 1 3 0.000000000000 0.0 0.0 0.0 # C_3
2297 1 5 0.000000000000 0.0 0.0 0.0 # O_3
2298 1 4 0.000000000000 0.0 0.0 0.0 # Si3
2299 1 3 0.000000000000 0.0 0.0 0.0 # C_3
2300 1 3 0.000000000000 0.0 0.0 0.0 # C_3
2301 1 5 0.000000000000 0.0 0.0 0.0 # O_3
2302 1 4 0.000000000000 0.0 0.0 0.0 # Si3
2303 1 3 0.000000000000 0.0 0.0 0.0 # C_3
2304 1 3 0.000000000000 0.0 0.0 0.0 # C_3
2305 1 5 0.000000000000 0.0 0.0 0.0 # O_3
2306 1 4 0.000000000000 0.0 0.0 0.0 # Si3
2307 1 3 0.000000000000 0.0 0.0 0.0 # C_3
2308 1 3 0.000000000000 0.0 0.0 0.0 # C_3
2309 1 5 0.000000000000 0.0 0.0 0.0 # O_3
2310 1 2 0.000000000000 0.0 0.0 0.0 # O_
2311 1 4 0.000000000000 0.0 0.0 0.0 # Si3
2312 1 3 0.000000000000 0.0 0.0 0.0 # C_3
2313 1 3 0.000000000000 0.0 0.0 0.0 # C_3
2314 1 5 0.000000000000 0.0 0.0 0.0 # O_3
2315 1 4 0.000000000000 0.0 0.0 0.0 # Si3
2316 1 3 0.000000000000 0.0 0.0 0.0 # C_3
2317 1 3 0.000000000000 0.0 0.0 0.0 # C_3
2318 1 5 0.000000000000 0.0 0.0 0.0 # O_3
2319 1 4 0.000000000000 0.0 0.0 0.0 # Si3
2320 1 3 0.000000000000 0.0 0.0 0.0 # C_3
2321 1 3 0.000000000000 0.0 0.0 0.0 # C_3
2322 1 5 0.000000000000 0.0 0.0 0.0 # O_3
2323 1 4 0.000000000000 0.0 0.0 0.0 # Si3
2324 1 3 0.000000000000 0.0 0.0 0.0 # C_3
2325 1 3 0.000000000000 0.0 0.0 0.0 # C_3
2326 1 5 0.000000000000 0.0 0.0 0.0 # O_3
2327 1 4 0.000000000000 0.0 0.0 0.0 # Si3
2328 1 3 0.000000000000 0.0 0.0 0.0 # C_3
2329 1 3 0.000000000000 0.0 0.0 0.0 # C_3
2330 1 5 0.000000000000 0.0 0.0 0.0 # O_3
2331 1 2 0.000000000000 0.0 0.0 0.0 # O_
2332 1 4 0.000000000000 0.0 0.0 0.0 # Si3
2333 1 3 0.000000000000 0.0 0.0 0.0 # C_3
2334 1 3 0.000000000000 0.0 0.0 0.0 # C_3
2335 1 5 0.000000000000 0.0 0.0 0.0 # O_3
2336 1 4 0.000000000000 0.0 0.0 0.0 # Si3
2337 1 3 0.000000000000 0.0 0.0 0.0 # C_3
2338 1 3 0.000000000000 0.0 0.0 0.0 # C_3
2339 1 5 0.000000000000 0.0 0.0 0.0 # O_3
2340 1 4 0.000000000000 0.0 0.0 0.0 # Si3
2341 1 3 0.000000000000 0.0 0.0 0.0 # C_3
2342 1 3 0.000000000000 0.0 0.0 0.0 # C_3
2343 1 5 0.000000000000 0.0 0.0 0.0 # O_3
2344 1 4 0.000000000000 0.0 0.0 0.0 # Si3
2345 1 3 0.000000000000 0.0 0.0 0.0 # C_3
2346 1 3 0.000000000000 0.0 0.0 0.0 # C_3
2347 1 5 0.000000000000 0.0 0.0 0.0 # O_3
2348 1 4 0.000000000000 0.0 0.0 0.0 # Si3
2349 1 3 0.000000000000 0.0 0.0 0.0 # C_3
2350 1 3 0.000000000000 0.0 0.0 0.0 # C_3
2351 1 5 0.000000000000 0.0 0.0 0.0 # O_3
2352 1 2 0.000000000000 0.0 0.0 0.0 # O_
2353 1 4 0.000000000000 0.0 0.0 0.0 # Si3
2354 1 3 0.000000000000 0.0 0.0 0.0 # C_3
2355 1 3 0.000000000000 0.0 0.0 0.0 # C_3
2356 1 5 0.000000000000 0.0 0.0 0.0 # O_3
2357 1 4 0.000000000000 0.0 0.0 0.0 # Si3
2358 1 3 0.000000000000 0.0 0.0 0.0 # C_3
2359 1 3 0.000000000000 0.0 0.0 0.0 # C_3
2360 1 5 0.000000000000 0.0 0.0 0.0 # O_3
2361 1 4 0.000000000000 0.0 0.0 0.0 # Si3
2362 1 3 0.000000000000 0.0 0.0 0.0 # C_3
2363 1 3 0.000000000000 0.0 0.0 0.0 # C_3
2364 1 5 0.000000000000 0.0 0.0 0.0 # O_3
2365 1 4 0.000000000000 0.0 0.0 0.0 # Si3
2366 1 3 0.000000000000 0.0 0.0 0.0 # C_3
2367 1 3 0.000000000000 0.0 0.0 0.0 # C_3
2368 1 5 0.000000000000 0.0 0.0 0.0 # O_3
2369 1 4 0.000000000000 0.0 0.0 0.0 # Si3
2370 1 3 0.000000000000 0.0 0.0 0.0 # C_3
2371 1 3 0.000000000000 0.0 0.0 0.0 # C_3
2372 1 5 0.000000000000 0.0 0.0 0.0 # O_3
2373 1 2 0.000000000000 0.0 0.0 0.0 # O_
2374 1 4 0.000000000000 0.0 0.0 0.0 # Si3
2375 1 3 0.000000000000 0.0 0.0 0.0 # C_3
2376 1 3 0.000000000000 0.0 0.0 0.0 # C_3
2377 1 5 0.000000000000 0.0 0.0 0.0 # O_3
2378 1 4 0.000000000000 0.0 0.0 0.0 # Si3
2379 1 3 0.000000000000 0.0 0.0 0.0 # C_3
2380 1 3 0.000000000000 0.0 0.0 0.0 # C_3
2381 1 5 0.000000000000 0.0 0.0 0.0 # O_3
2382 1 4 0.000000000000 0.0 0.0 0.0 # Si3
2383 1 3 0.000000000000 0.0 0.0 0.0 # C_3
2384 1 3 0.000000000000 0.0 0.0 0.0 # C_3
2385 1 5 0.000000000000 0.0 0.0 0.0 # O_3
2386 1 4 0.000000000000 0.0 0.0 0.0 # Si3
2387 1 3 0.000000000000 0.0 0.0 0.0 # C_3
2388 1 3 0.000000000000 0.0 0.0 0.0 # C_3
2389 1 5 0.000000000000 0.0 0.0 0.0 # O_3
2390 1 4 0.000000000000 0.0 0.0 0.0 # Si3
2391 1 3 0.000000000000 0.0 0.0 0.0 # C_3
2392 1 3 0.000000000000 0.0 0.0 0.0 # C_3
2393 1 5 0.000000000000 0.0 0.0 0.0 # O_3
2394 1 2 0.000000000000 0.0 0.0 0.0 # O_
2395 1 4 0.000000000000 0.0 0.0 0.0 # Si3
2396 1 3 0.000000000000 0.0 0.0 0.0 # C_3
2397 1 3 0.000000000000 0.0 0.0 0.0 # C_3
2398 1 5 0.000000000000 0.0 0.0 0.0 # O_3
2399 1 4 0.000000000000 0.0 0.0 0.0 # Si3
2400 1 3 0.000000000000 0.0 0.0 0.0 # C_3
2401 1 3 0.000000000000 0.0 0.0 0.0 # C_3
2402 1 5 0.000000000000 0.0 0.0 0.0 # O_3
2403 1 4 0.000000000000 0.0 0.0 0.0 # Si3
2404 1 3 0.000000000000 0.0 0.0 0.0 # C_3
2405 1 3 0.000000000000 0.0 0.0 0.0 # C_3
2406 1 5 0.000000000000 0.0 0.0 0.0 # O_3
2407 1 4 0.000000000000 0.0 0.0 0.0 # Si3
2408 1 3 0.000000000000 0.0 0.0 0.0 # C_3
2409 1 3 0.000000000000 0.0 0.0 0.0 # C_3
2410 1 5 0.000000000000 0.0 0.0 0.0 # O_3
2411 1 4 0.000000000000 0.0 0.0 0.0 # Si3
2412 1 3 0.000000000000 0.0 0.0 0.0 # C_3
2413 1 3 0.000000000000 0.0 0.0 0.0 # C_3
2414 1 5 0.000000000000 0.0 0.0 0.0 # O_3
2415 1 2 0.000000000000 0.0 0.0 0.0 # O_
2416 1 4 0.000000000000 0.0 0.0 0.0 # Si3
2417 1 3 0.000000000000 0.0 0.0 0.0 # C_3
2418 1 3 0.000000000000 0.0 0.0 0.0 # C_3
2419 1 5 0.000000000000 0.0 0.0 0.0 # O_3
2420 1 4 0.000000000000 0.0 0.0 0.0 # Si3
2421 1 3 0.000000000000 0.0 0.0 0.0 # C_3
2422 1 3 0.000000000000 0.0 0.0 0.0 # C_3
2423 1 5 0.000000000000 0.0 0.0 0.0 # O_3
2424 1 4 0.000000000000 0.0 0.0 0.0 # Si3
2425 1 3 0.000000000000 0.0 0.0 0.0 # C_3
2426 1 3 0.000000000000 0.0 0.0 0.0 # C_3
2427 1 5 0.000000000000 0.0 0.0 0.0 # O_3
2428 1 4 0.000000000000 0.0 0.0 0.0 # Si3
2429 1 3 0.000000000000 0.0 0.0 0.0 # C_3
2430 1 3 0.000000000000 0.0 0.0 0.0 # C_3
2431 1 5 0.000000000000 0.0 0.0 0.0 # O_3
2432 1 4 0.000000000000 0.0 0.0 0.0 # Si3
2433 1 3 0.000000000000 0.0 0.0 0.0 # C_3
2434 1 3 0.000000000000 0.0 0.0 0.0 # C_3
2435 1 5 0.000000000000 0.0 0.0 0.0 # O_3
2436 1 2 0.000000000000 0.0 0.0 0.0 # O_
2437 1 4 0.000000000000 0.0 0.0 0.0 # Si3
2438 1 3 0.000000000000 0.0 0.0 0.0 # C_3
2439 1 3 0.000000000000 0.0 0.0 0.0 # C_3
2440 1 5 0.000000000000 0.0 0.0 0.0 # O_3
2441 1 4 0.000000000000 0.0 0.0 0.0 # Si3
2442 1 3 0.000000000000 0.0 0.0 0.0 # C_3
2443 1 3 0.000000000000 0.0 0.0 0.0 # C_3
2444 1 5 0.000000000000 0.0 0.0 0.0 # O_3
2445 1 4 0.000000000000 0.0 0.0 0.0 # Si3
2446 1 3 0.000000000000 0.0 0.0 0.0 # C_3
2447 1 3 0.000000000000 0.0 0.0 0.0 # C_3
2448 1 5 0.000000000000 0.0 0.0 0.0 # O_3
2449 1 4 0.000000000000 0.0 0.0 0.0 # Si3
2450 1 3 0.000000000000 0.0 0.0 0.0 # C_3
2451 1 3 0.000000000000 0.0 0.0 0.0 # C_3
2452 1 5 0.000000000000 0.0 0.0 0.0 # O_3
2453 1 4 0.000000000000 0.0 0.0 0.0 # Si3
2454 1 3 0.000000000000 0.0 0.0 0.0 # C_3
2455 1 3 0.000000000000 0.0 0.0 0.0 # C_3
2456 1 5 0.000000000000 0.0 0.0 0.0 # O_3
2457 1 2 0.000000000000 0.0 0.0 0.0 # O_
2458 1 4 0.000000000000 0.0 0.0 0.0 # Si3
2459 1 3 0.000000000000 0.0 0.0 0.0 # C_3
2460 1 3 0.000000000000 0.0 0.0 0.0 # C_3
2461 1 5 0.000000000000 0.0 0.0 0.0 # O_3
2462 1 4 0.000000000000 0.0 0.0 0.0 # Si3
2463 1 3 0.000000000000 0.0 0.0 0.0 # C_3
2464 1 3 0.000000000000 0.0 0.0 0.0 # C_3
2465 1 5 0.000000000000 0.0 0.0 0.0 # O_3
2466 1 4 0.000000000000 0.0 0.0 0.0 # Si3
2467 1 3 0.000000000000 0.0 0.0 0.0 # C_3
2468 1 3 0.000000000000 0.0 0.0 0.0 # C_3
2469 1 5 0.000000000000 0.0 0.0 0.0 # O_3
2470 1 4 0.000000000000 0.0 0.0 0.0 # Si3
2471 1 3 0.000000000000 0.0 0.0 0.0 # C_3
2472 1 3 0.000000000000 0.0 0.0 0.0 # C_3
2473 1 5 0.000000000000 0.0 0.0 0.0 # O_3
2474 1 4 0.000000000000 0.0 0.0 0.0 # Si3
2475 1 3 0.000000000000 0.0 0.0 0.0 # C_3
2476 1 3 0.000000000000 0.0 0.0 0.0 # C_3
2477 1 5 0.000000000000 0.0 0.0 0.0 # O_3
2478 1 2 0.000000000000 0.0 0.0 0.0 # O_
2479 1 4 0.000000000000 0.0 0.0 0.0 # Si3
2480 1 3 0.000000000000 0.0 0.0 0.0 # C_3
2481 1 3 0.000000000000 0.0 0.0 0.0 # C_3
2482 1 5 0.000000000000 0.0 0.0 0.0 # O_3
2483 1 4 0.000000000000 0.0 0.0 0.0 # Si3
2484 1 3 0.000000000000 0.0 0.0 0.0 # C_3
2485 1 3 0.000000000000 0.0 0.0 0.0 # C_3
2486 1 5 0.000000000000 0.0 0.0 0.0 # O_3
2487 1 4 0.000000000000 0.0 0.0 0.0 # Si3
2488 1 3 0.000000000000 0.0 0.0 0.0 # C_3
2489 1 3 0.000000000000 0.0 0.0 0.0 # C_3
2490 1 5 0.000000000000 0.0 0.0 0.0 # O_3
2491 1 4 0.000000000000 0.0 0.0 0.0 # Si3
2492 1 3 0.000000000000 0.0 0.0 0.0 # C_3
2493 1 3 0.000000000000 0.0 0.0 0.0 # C_3
2494 1 5 0.000000000000 0.0 0.0 0.0 # O_3
2495 1 4 0.000000000000 0.0 0.0 0.0 # Si3
2496 1 3 0.000000000000 0.0 0.0 0.0 # C_3
2497 1 3 0.000000000000 0.0 0.0 0.0 # C_3
2498 1 5 0.000000000000 0.0 0.0 0.0 # O_3
2499 1 2 0.000000000000 0.0 0.0 0.0 # O_
2500 1 4 0.000000000000 0.0 0.0 0.0 # Si3
2501 1 3 0.000000000000 0.0 0.0 0.0 # C_3
2502 1 3 0.000000000000 0.0 0.0 0.0 # C_3
2503 1 5 0.000000000000 0.0 0.0 0.0 # O_3
2504 1 4 0.000000000000 0.0 0.0 0.0 # Si3
2505 1 3 0.000000000000 0.0 0.0 0.0 # C_3
2506 1 3 0.000000000000 0.0 0.0 0.0 # C_3
2507 1 5 0.000000000000 0.0 0.0 0.0 # O_3
2508 1 4 0.000000000000 0.0 0.0 0.0 # Si3
2509 1 3 0.000000000000 0.0 0.0 0.0 # C_3
2510 1 3 0.000000000000 0.0 0.0 0.0 # C_3
2511 1 5 0.000000000000 0.0 0.0 0.0 # O_3
2512 1 4 0.000000000000 0.0 0.0 0.0 # Si3
2513 1 3 0.000000000000 0.0 0.0 0.0 # C_3
2514 1 3 0.000000000000 0.0 0.0 0.0 # C_3
2515 1 5 0.000000000000 0.0 0.0 0.0 # O_3
2516 1 4 0.000000000000 0.0 0.0 0.0 # Si3
2517 1 3 0.000000000000 0.0 0.0 0.0 # C_3
2518 1 3 0.000000000000 0.0 0.0 0.0 # C_3
2519 1 5 0.000000000000 0.0 0.0 0.0 # O_3
2520 1 2 0.000000000000 0.0 0.0 0.0 # O_
2521 1 4 0.000000000000 0.0 0.0 0.0 # Si3
2522 1 3 0.000000000000 0.0 0.0 0.0 # C_3
2523 1 3 0.000000000000 0.0 0.0 0.0 # C_3
2524 1 5 0.000000000000 0.0 0.0 0.0 # O_3
2525 1 4 0.000000000000 0.0 0.0 0.0 # Si3
2526 1 3 0.000000000000 0.0 0.0 0.0 # C_3
2527 1 3 0.000000000000 0.0 0.0 0.0 # C_3
2528 1 5 0.000000000000 0.0 0.0 0.0 # O_3
2529 1 4 0.000000000000 0.0 0.0 0.0 # Si3
2530 1 3 0.000000000000 0.0 0.0 0.0 # C_3
2531 1 3 0.000000000000 0.0 0.0 0.0 # C_3
2532 1 5 0.000000000000 0.0 0.0 0.0 # O_3
2533 1 4 0.000000000000 0.0 0.0 0.0 # Si3
2534 1 3 0.000000000000 0.0 0.0 0.0 # C_3
2535 1 3 0.000000000000 0.0 0.0 0.0 # C_3
2536 1 5 0.000000000000 0.0 0.0 0.0 # O_3
2537 1 4 0.000000000000 0.0 0.0 0.0 # Si3
2538 1 3 0.000000000000 0.0 0.0 0.0 # C_3
2539 1 3 0.000000000000 0.0 0.0 0.0 # C_3
2540 1 5 0.000000000000 0.0 0.0 0.0 # O_3
2541 1 2 0.000000000000 0.0 0.0 0.0 # O_
2542 1 4 0.000000000000 0.0 0.0 0.0 # Si3
2543 1 3 0.000000000000 0.0 0.0 0.0 # C_3
2544 1 3 0.000000000000 0.0 0.0 0.0 # C_3
2545 1 5 0.000000000000 0.0 0.0 0.0 # O_3
2546 1 4 0.000000000000 0.0 0.0 0.0 # Si3
2547 1 3 0.000000000000 0.0 0.0 0.0 # C_3
2548 1 3 0.000000000000 0.0 0.0 0.0 # C_3
2549 1 5 0.000000000000 0.0 0.0 0.0 # O_3
2550 1 4 0.000000000000 0.0 0.0 0.0 # Si3
2551 1 3 0.000000000000 0.0 0.0 0.0 # C_3
2552 1 3 0.000000000000 0.0 0.0 0.0 # C_3
2553 1 5 0.000000000000 0.0 0.0 0.0 # O_3
2554 1 4 0.000000000000 0.0 0.0 0.0 # Si3
2555 1 3 0.000000000000 0.0 0.0 0.0 # C_3
2556 1 3 0.000000000000 0.0 0.0 0.0 # C_3
2557 1 5 0.000000000000 0.0 0.0 0.0 # O_3
2558 1 4 0.000000000000 0.0 0.0 0.0 # Si3
2559 1 3 0.000000000000 0.0 0.0 0.0 # C_3
2560 1 3 0.000000000000 0.0 0.0 0.0 # C_3
2561 1 5 0.000000000000 0.0 0.0 0.0 # O_3
2562 1 2 0.000000000000 0.0 0.0 0.0 # O_
2563 1 4 0.000000000000 0.0 0.0 0.0 # Si3
2564 1 3 0.000000000000 0.0 0.0 0.0 # C_3
2565 1 3 0.000000000000 0.0 0.0 0.0 # C_3
2566 1 5 0.000000000000 0.0 0.0 0.0 # O_3
2567 1 4 0.000000000000 0.0 0.0 0.0 # Si3
2568 1 3 0.000000000000 0.0 0.0 0.0 # C_3
2569 1 3 0.000000000000 0.0 0.0 0.0 # C_3
2570 1 5 0.000000000000 0.0 0.0 0.0 # O_3
2571 1 4 0.000000000000 0.0 0.0 0.0 # Si3
2572 1 3 0.000000000000 0.0 0.0 0.0 # C_3
2573 1 3 0.000000000000 0.0 0.0 0.0 # C_3
2574 1 5 0.000000000000 0.0 0.0 0.0 # O_3
2575 1 4 0.000000000000 0.0 0.0 0.0 # Si3
2576 1 3 0.000000000000 0.0 0.0 0.0 # C_3
2577 1 3 0.000000000000 0.0 0.0 0.0 # C_3
2578 1 5 0.000000000000 0.0 0.0 0.0 # O_3
2579 1 4 0.000000000000 0.0 0.0 0.0 # Si3
2580 1 3 0.000000000000 0.0 0.0 0.0 # C_3
2581 1 3 0.000000000000 0.0 0.0 0.0 # C_3
2582 1 5 0.000000000000 0.0 0.0 0.0 # O_3
2583 1 2 0.000000000000 0.0 0.0 0.0 # O_
2584 1 4 0.000000000000 0.0 0.0 0.0 # Si3
2585 1 3 0.000000000000 0.0 0.0 0.0 # C_3
2586 1 3 0.000000000000 0.0 0.0 0.0 # C_3
2587 1 5 0.000000000000 0.0 0.0 0.0 # O_3
2588 1 4 0.000000000000 0.0 0.0 0.0 # Si3
2589 1 3 0.000000000000 0.0 0.0 0.0 # C_3
2590 1 3 0.000000000000 0.0 0.0 0.0 # C_3
2591 1 5 0.000000000000 0.0 0.0 0.0 # O_3
2592 1 4 0.000000000000 0.0 0.0 0.0 # Si3
2593 1 3 0.000000000000 0.0 0.0 0.0 # C_3
2594 1 3 0.000000000000 0.0 0.0 0.0 # C_3
2595 1 5 0.000000000000 0.0 0.0 0.0 # O_3
2596 1 4 0.000000000000 0.0 0.0 0.0 # Si3
2597 1 3 0.000000000000 0.0 0.0 0.0 # C_3
2598 1 3 0.000000000000 0.0 0.0 0.0 # C_3
2599 1 5 0.000000000000 0.0 0.0 0.0 # O_3
2600 1 4 0.000000000000 0.0 0.0 0.0 # Si3
2601 1 3 0.000000000000 0.0 0.0 0.0 # C_3
2602 1 3 0.000000000000 0.0 0.0 0.0 # C_3
2603 1 5 0.000000000000 0.0 0.0 0.0 # O_3
2604 1 2 0.000000000000 0.0 0.0 0.0 # O_
2605 1 4 0.000000000000 0.0 0.0 0.0 # Si3
2606 1 3 0.000000000000 0.0 0.0 0.0 # C_3
2607 1 3 0.000000000000 0.0 0.0 0.0 # C_3
2608 1 5 0.000000000000 0.0 0.0 0.0 # O_3
2609 1 4 0.000000000000 0.0 0.0 0.0 # Si3
2610 1 3 0.000000000000 0.0 0.0 0.0 # C_3
2611 1 3 0.000000000000 0.0 0.0 0.0 # C_3
2612 1 5 0.000000000000 0.0 0.0 0.0 # O_3
2613 1 4 0.000000000000 0.0 0.0 0.0 # Si3
2614 1 3 0.000000000000 0.0 0.0 0.0 # C_3
2615 1 3 0.000000000000 0.0 0.0 0.0 # C_3
2616 1 5 0.000000000000 0.0 0.0 0.0 # O_3
2617 1 4 0.000000000000 0.0 0.0 0.0 # Si3
2618 1 3 0.000000000000 0.0 0.0 0.0 # C_3
2619 1 3 0.000000000000 0.0 0.0 0.0 # C_3
2620 1 5 0.000000000000 0.0 0.0 0.0 # O_3
2621 1 4 0.000000000000 0.0 0.0 0.0 # Si3
2622 1 3 0.000000000000 0.0 0.0 0.0 # C_3
2623 1 3 0.000000000000 0.0 0.0 0.0 # C_3
2624 1 5 0.000000000000 0.0 0.0 0.0 # O_3
2625 1 2 0.000000000000 0.0 0.0 0.0 # O_
2626 1 4 0.000000000000 0.0 0.0 0.0 # Si3
2627 1 3 0.000000000000 0.0 0.0 0.0 # C_3
2628 1 3 0.000000000000 0.0 0.0 0.0 # C_3
2629 1 5 0.000000000000 0.0 0.0 0.0 # O_3
2630 1 4 0.000000000000 0.0 0.0 0.0 # Si3
2631 1 3 0.000000000000 0.0 0.0 0.0 # C_3
2632 1 3 0.000000000000 0.0 0.0 0.0 # C_3
2633 1 5 0.000000000000 0.0 0.0 0.0 # O_3
2634 1 4 0.000000000000 0.0 0.0 0.0 # Si3
2635 1 3 0.000000000000 0.0 0.0 0.0 # C_3
2636 1 3 0.000000000000 0.0 0.0 0.0 # C_3
2637 1 5 0.000000000000 0.0 0.0 0.0 # O_3
2638 1 4 0.000000000000 0.0 0.0 0.0 # Si3
2639 1 3 0.000000000000 0.0 0.0 0.0 # C_3
2640 1 3 0.000000000000 0.0 0.0 0.0 # C_3
2641 1 5 0.000000000000 0.0 0.0 0.0 # O_3
2642 1 4 0.000000000000 0.0 0.0 0.0 # Si3
2643 1 3 0.000000000000 0.0 0.0 0.0 # C_3
2644 1 3 0.000000000000 0.0 0.0 0.0 # C_3
2645 1 5 0.000000000000 0.0 0.0 0.0 # O_3
2646 1 2 0.000000000000 0.0 0.0 0.0 # O_
2647 1 4 0.000000000000 0.0 0.0 0.0 # Si3
2648 1 3 0.000000000000 0.0 0.0 0.0 # C_3
2649 1 3 0.000000000000 0.0 0.0 0.0 # C_3
2650 1 5 0.000000000000 0.0 0.0 0.0 # O_3
2651 1 4 0.000000000000 0.0 0.0 0.0 # Si3
2652 1 3 0.000000000000 0.0 0.0 0.0 # C_3
2653 1 3 0.000000000000 0.0 0.0 0.0 # C_3
2654 1 5 0.000000000000 0.0 0.0 0.0 # O_3
2655 1 4 0.000000000000 0.0 0.0 0.0 # Si3
2656 1 3 0.000000000000 0.0 0.0 0.0 # C_3
2657 1 3 0.000000000000 0.0 0.0 0.0 # C_3
2658 1 5 0.000000000000 0.0 0.0 0.0 # O_3
2659 1 4 0.000000000000 0.0 0.0 0.0 # Si3
2660 1 3 0.000000000000 0.0 0.0 0.0 # C_3
2661 1 3 0.000000000000 0.0 0.0 0.0 # C_3
2662 1 5 0.000000000000 0.0 0.0 0.0 # O_3
2663 1 4 0.000000000000 0.0 0.0 0.0 # Si3
2664 1 3 0.000000000000 0.0 0.0 0.0 # C_3
2665 1 3 0.000000000000 0.0 0.0 0.0 # C_3
2666 1 5 0.000000000000 0.0 0.0 0.0 # O_3
2667 1 2 0.000000000000 0.0 0.0 0.0 # O_
2668 1 4 0.000000000000 0.0 0.0 0.0 # Si3
2669 1 3 0.000000000000 0.0 0.0 0.0 # C_3
2670 1 3 0.000000000000 0.0 0.0 0.0 # C_3
2671 1 5 0.000000000000 0.0 0.0 0.0 # O_3
2672 1 4 0.000000000000 0.0 0.0 0.0 # Si3
2673 1 3 0.000000000000 0.0 0.0 0.0 # C_3
2674 1 3 0.000000000000 0.0 0.0 0.0 # C_3
2675 1 5 0.000000000000 0.0 0.0 0.0 # O_3
2676 1 4 0.000000000000 0.0 0.0 0.0 # Si3
2677 1 3 0.000000000000 0.0 0.0 0.0 # C_3
2678 1 3 0.000000000000 0.0 0.0 0.0 # C_3
2679 1 5 0.000000000000 0.0 0.0 0.0 # O_3
2680 1 4 0.000000000000 0.0 0.0 0.0 # Si3
2681 1 3 0.000000000000 0.0 0.0 0.0 # C_3
2682 1 3 0.000000000000 0.0 0.0 0.0 # C_3
2683 1 5 0.000000000000 0.0 0.0 0.0 # O_3
2684 1 4 0.000000000000 0.0 0.0 0.0 # Si3
2685 1 3 0.000000000000 0.0 0.0 0.0 # C_3
2686 1 3 0.000000000000 0.0 0.0 0.0 # C_3
2687 1 5 0.000000000000 0.0 0.0 0.0 # O_3
2688 1 2 0.000000000000 0.0 0.0 0.0 # O_
2689 1 4 0.000000000000 0.0 0.0 0.0 # Si3
2690 1 3 0.000000000000 0.0 0.0 0.0 # C_3
2691 1 3 0.000000000000 0.0 0.0 0.0 # C_3
2692 1 5 0.000000000000 0.0 0.0 0.0 # O_3
2693 1 4 0.000000000000 0.0 0.0 0.0 # Si3
2694 1 3 0.000000000000 0.0 0.0 0.0 # C_3
2695 1 3 0.000000000000 0.0 0.0 0.0 # C_3
2696 1 5 0.000000000000 0.0 0.0 0.0 # O_3
2697 1 4 0.000000000000 0.0 0.0 0.0 # Si3
2698 1 3 0.000000000000 0.0 0.0 0.0 # C_3
2699 1 3 0.000000000000 0.0 0.0 0.0 # C_3
2700 1 5 0.000000000000 0.0 0.0 0.0 # O_3
2701 1 4 0.000000000000 0.0 0.0 0.0 # Si3
2702 1 3 0.000000000000 0.0 0.0 0.0 # C_3
2703 1 3 0.000000000000 0.0 0.0 0.0 # C_3
2704 1 5 0.000000000000 0.0 0.0 0.0 # O_3
2705 1 4 0.000000000000 0.0 0.0 0.0 # Si3
2706 1 3 0.000000000000 0.0 0.0 0.0 # C_3
2707 1 3 0.000000000000 0.0 0.0 0.0 # C_3
2708 1 5 0.000000000000 0.0 0.0 0.0 # O_3
2709 1 2 0.000000000000 0.0 0.0 0.0 # O_
2710 1 4 0.000000000000 0.0 0.0 0.0 # Si3
2711 1 3 0.000000000000 0.0 0.0 0.0 # C_3
2712 1 3 0.000000000000 0.0 0.0 0.0 # C_3
2713 1 5 0.000000000000 0.0 0.0 0.0 # O_3
2714 1 4 0.000000000000 0.0 0.0 0.0 # Si3
2715 1 3 0.000000000000 0.0 0.0 0.0 # C_3
2716 1 3 0.000000000000 0.0 0.0 0.0 # C_3
2717 1 5 0.000000000000 0.0 0.0 0.0 # O_3
2718 1 4 0.000000000000 0.0 0.0 0.0 # Si3
2719 1 3 0.000000000000 0.0 0.0 0.0 # C_3
2720 1 3 0.000000000000 0.0 0.0 0.0 # C_3
2721 1 5 0.000000000000 0.0 0.0 0.0 # O_3
2722 1 4 0.000000000000 0.0 0.0 0.0 # Si3
2723 1 3 0.000000000000 0.0 0.0 0.0 # C_3
2724 1 3 0.000000000000 0.0 0.0 0.0 # C_3
2725 1 5 0.000000000000 0.0 0.0 0.0 # O_3
2726 1 4 0.000000000000 0.0 0.0 0.0 # Si3
2727 1 3 0.000000000000 0.0 0.0 0.0 # C_3
2728 1 3 0.000000000000 0.0 0.0 0.0 # C_3
2729 1 5 0.000000000000 0.0 0.0 0.0 # O_3
2730 1 2 0.000000000000 0.0 0.0 0.0 # O_
2731 1 4 0.000000000000 0.0 0.0 0.0 # Si3
2732 1 3 0.000000000000 0.0 0.0 0.0 # C_3
2733 1 3 0.000000000000 0.0 0.0 0.0 # C_3
2734 1 5 0.000000000000 0.0 0.0 0.0 # O_3
2735 1 4 0.000000000000 0.0 0.0 0.0 # Si3
2736 1 3 0.000000000000 0.0 0.0 0.0 # C_3
2737 1 3 0.000000000000 0.0 0.0 0.0 # C_3
2738 1 5 0.000000000000 0.0 0.0 0.0 # O_3
2739 1 4 0.000000000000 0.0 0.0 0.0 # Si3
2740 1 3 0.000000000000 0.0 0.0 0.0 # C_3
2741 1 3 0.000000000000 0.0 0.0 0.0 # C_3
2742 1 5 0.000000000000 0.0 0.0 0.0 # O_3
2743 1 4 0.000000000000 0.0 0.0 0.0 # Si3
2744 1 3 0.000000000000 0.0 0.0 0.0 # C_3
2745 1 3 0.000000000000 0.0 0.0 0.0 # C_3
2746 1 5 0.000000000000 0.0 0.0 0.0 # O_3
2747 1 4 0.000000000000 0.0 0.0 0.0 # Si3
2748 1 3 0.000000000000 0.0 0.0 0.0 # C_3
2749 1 3 0.000000000000 0.0 0.0 0.0 # C_3
2750 1 5 0.000000000000 0.0 0.0 0.0 # O_3
2751 1 2 0.000000000000 0.0 0.0 0.0 # O_
2752 1 4 0.000000000000 0.0 0.0 0.0 # Si3
2753 1 3 0.000000000000 0.0 0.0 0.0 # C_3
2754 1 3 0.000000000000 0.0 0.0 0.0 # C_3
2755 1 5 0.000000000000 0.0 0.0 0.0 # O_3
2756 1 4 0.000000000000 0.0 0.0 0.0 # Si3
2757 1 3 0.000000000000 0.0 0.0 0.0 # C_3
2758 1 3 0.000000000000 0.0 0.0 0.0 # C_3
2759 1 5 0.000000000000 0.0 0.0 0.0 # O_3
2760 1 4 0.000000000000 0.0 0.0 0.0 # Si3
2761 1 3 0.000000000000 0.0 0.0 0.0 # C_3
2762 1 3 0.000000000000 0.0 0.0 0.0 # C_3
2763 1 5 0.000000000000 0.0 0.0 0.0 # O_3
2764 1 4 0.000000000000 0.0 0.0 0.0 # Si3
2765 1 3 0.000000000000 0.0 0.0 0.0 # C_3
2766 1 3 0.000000000000 0.0 0.0 0.0 # C_3
2767 1 5 0.000000000000 0.0 0.0 0.0 # O_3
2768 1 4 0.000000000000 0.0 0.0 0.0 # Si3
2769 1 3 0.000000000000 0.0 0.0 0.0 # C_3
2770 1 3 0.000000000000 0.0 0.0 0.0 # C_3
2771 1 5 0.000000000000 0.0 0.0 0.0 # O_3
2772 1 2 0.000000000000 0.0 0.0 0.0 # O_
2773 1 4 0.000000000000 0.0 0.0 0.0 # Si3
2774 1 3 0.000000000000 0.0 0.0 0.0 # C_3
2775 1 3 0.000000000000 0.0 0.0 0.0 # C_3
2776 1 5 0.000000000000 0.0 0.0 0.0 # O_3
2777 1 4 0.000000000000 0.0 0.0 0.0 # Si3
2778 1 3 0.000000000000 0.0 0.0 0.0 # C_3
2779 1 3 0.000000000000 0.0 0.0 0.0 # C_3
2780 1 5 0.000000000000 0.0 0.0 0.0 # O_3
2781 1 4 0.000000000000 0.0 0.0 0.0 # Si3
2782 1 3 0.000000000000 0.0 0.0 0.0 # C_3
2783 1 3 0.000000000000 0.0 0.0 0.0 # C_3
2784 1 5 0.000000000000 0.0 0.0 0.0 # O_3
2785 1 4 0.000000000000 0.0 0.0 0.0 # Si3
2786 1 3 0.000000000000 0.0 0.0 0.0 # C_3
2787 1 3 0.000000000000 0.0 0.0 0.0 # C_3
2788 1 5 0.000000000000 0.0 0.0 0.0 # O_3
2789 1 4 0.000000000000 0.0 0.0 0.0 # Si3
2790 1 3 0.000000000000 0.0 0.0 0.0 # C_3
2791 1 3 0.000000000000 0.0 0.0 0.0 # C_3
2792 1 5 0.000000000000 0.0 0.0 0.0 # O_3
2793 1 2 0.000000000000 0.0 0.0 0.0 # O_
2794 1 4 0.000000000000 0.0 0.0 0.0 # Si3
2795 1 3 0.000000000000 0.0 0.0 0.0 # C_3
2796 1 3 0.000000000000 0.0 0.0 0.0 # C_3
2797 1 5 0.000000000000 0.0 0.0 0.0 # O_3
2798 1 4 0.000000000000 0.0 0.0 0.0 # Si3
2799 1 3 0.000000000000 0.0 0.0 0.0 # C_3
2800 1 3 0.000000000000 0.0 0.0 0.0 # C_3
2801 1 5 0.000000000000 0.0 0.0 0.0 # O_3
2802 1 4 0.000000000000 0.0 0.0 0.0 # Si3
2803 1 3 0.000000000000 0.0 0.0 0.0 # C_3
2804 1 3 0.000000000000 0.0 0.0 0.0 # C_3
2805 1 5 0.000000000000 0.0 0.0 0.0 # O_3
2806 1 4 0.000000000000 0.0 0.0 0.0 # Si3
2807 1 3 0.000000000000 0.0 0.0 0.0 # C_3
2808 1 3 0.000000000000 0.0 0.0 0.0 # C_3
2809 1 5 0.000000000000 0.0 0.0 0.0 # O_3
2810 1 4 0.000000000000 0.0 0.0 0.0 # Si3
2811 1 3 0.000000000000 0.0 0.0 0.0 # C_3
2812 1 3 0.000000000000 0.0 0.0 0.0 # C_3
2813 1 5 0.000000000000 0.0 0.0 0.0 # O_3
2814 1 2 0.000000000000 0.0 0.0 0.0 # O_
2815 1 4 0.000000000000 0.0 0.0 0.0 # Si3
2816 1 3 0.000000000000 0.0 0.0 0.0 # C_3
2817 1 3 0.000000000000 0.0 0.0 0.0 # C_3
2818 1 5 0.000000000000 0.0 0.0 0.0 # O_3
2819 1 4 0.000000000000 0.0 0.0 0.0 # Si3
2820 1 3 0.000000000000 0.0 0.0 0.0 # C_3
2821 1 3 0.000000000000 0.0 0.0 0.0 # C_3
2822 1 5 0.000000000000 0.0 0.0 0.0 # O_3
2823 1 4 0.000000000000 0.0 0.0 0.0 # Si3
2824 1 3 0.000000000000 0.0 0.0 0.0 # C_3
2825 1 3 0.000000000000 0.0 0.0 0.0 # C_3
2826 1 5 0.000000000000 0.0 0.0 0.0 # O_3
2827 1 4 0.000000000000 0.0 0.0 0.0 # Si3
2828 1 3 0.000000000000 0.0 0.0 0.0 # C_3
2829 1 3 0.000000000000 0.0 0.0 0.0 # C_3
2830 1 5 0.000000000000 0.0 0.0 0.0 # O_3
2831 1 4 0.000000000000 0.0 0.0 0.0 # Si3
2832 1 3 0.000000000000 0.0 0.0 0.0 # C_3
2833 1 3 0.000000000000 0.0 0.0 0.0 # C_3
2834 1 5 0.000000000000 0.0 0.0 0.0 # O_3
2835 1 2 0.000000000000 0.0 0.0 0.0 # O_
2836 1 4 0.000000000000 0.0 0.0 0.0 # Si3
2837 1 3 0.000000000000 0.0 0.0 0.0 # C_3
2838 1 3 0.000000000000 0.0 0.0 0.0 # C_3
2839 1 5 0.000000000000 0.0 0.0 0.0 # O_3
2840 1 4 0.000000000000 0.0 0.0 0.0 # Si3
2841 1 3 0.000000000000 0.0 0.0 0.0 # C_3
2842 1 3 0.000000000000 0.0 0.0 0.0 # C_3
2843 1 5 0.000000000000 0.0 0.0 0.0 # O_3
2844 1 4 0.000000000000 0.0 0.0 0.0 # Si3
2845 1 3 0.000000000000 0.0 0.0 0.0 # C_3
2846 1 3 0.000000000000 0.0 0.0 0.0 # C_3
2847 1 5 0.000000000000 0.0 0.0 0.0 # O_3
2848 1 4 0.000000000000 0.0 0.0 0.0 # Si3
2849 1 3 0.000000000000 0.0 0.0 0.0 # C_3
2850 1 3 0.000000000000 0.0 0.0 0.0 # C_3
2851 1 5 0.000000000000 0.0 0.0 0.0 # O_3
2852 1 4 0.000000000000 0.0 0.0 0.0 # Si3
2853 1 3 0.000000000000 0.0 0.0 0.0 # C_3
2854 1 3 0.000000000000 0.0 0.0 0.0 # C_3
2855 1 5 0.000000000000 0.0 0.0 0.0 # O_3
2856 1 2 0.000000000000 0.0 0.0 0.0 # O_
2857 1 4 0.000000000000 0.0 0.0 0.0 # Si3
2858 1 3 0.000000000000 0.0 0.0 0.0 # C_3
2859 1 3 0.000000000000 0.0 0.0 0.0 # C_3
2860 1 5 0.000000000000 0.0 0.0 0.0 # O_3
2861 1 4 0.000000000000 0.0 0.0 0.0 # Si3
2862 1 3 0.000000000000 0.0 0.0 0.0 # C_3
2863 1 3 0.000000000000 0.0 0.0 0.0 # C_3
2864 1 5 0.000000000000 0.0 0.0 0.0 # O_3
2865 1 4 0.000000000000 0.0 0.0 0.0 # Si3
2866 1 3 0.000000000000 0.0 0.0 0.0 # C_3
2867 1 3 0.000000000000 0.0 0.0 0.0 # C_3
2868 1 5 0.000000000000 0.0 0.0 0.0 # O_3
2869 1 4 0.000000000000 0.0 0.0 0.0 # Si3
2870 1 3 0.000000000000 0.0 0.0 0.0 # C_3
2871 1 3 0.000000000000 0.0 0.0 0.0 # C_3
2872 1 5 0.000000000000 0.0 0.0 0.0 # O_3
2873 1 4 0.000000000000 0.0 0.0 0.0 # Si3
2874 1 3 0.000000000000 0.0 0.0 0.0 # C_3
2875 1 3 0.000000000000 0.0 0.0 0.0 # C_3
2876 1 5 0.000000000000 0.0 0.0 0.0 # O_3
2877 1 2 0.000000000000 0.0 0.0 0.0 # O_
2878 1 4 0.000000000000 0.0 0.0 0.0 # Si3
2879 1 3 0.000000000000 0.0 0.0 0.0 # C_3
2880 1 3 0.000000000000 0.0 0.0 0.0 # C_3
2881 1 5 0.000000000000 0.0 0.0 0.0 # O_3
2882 1 4 0.000000000000 0.0 0.0 0.0 # Si3
2883 1 3 0.000000000000 0.0 0.0 0.0 # C_3
2884 1 3 0.000000000000 0.0 0.0 0.0 # C_3
2885 1 5 0.000000000000 0.0 0.0 0.0 # O_3
2886 1 4 0.000000000000 0.0 0.0 0.0 # Si3
2887 1 3 0.000000000000 0.0 0.0 0.0 # C_3
2888 1 3 0.000000000000 0.0 0.0 0.0 # C_3
2889 1 5 0.000000000000 0.0 0.0 0.0 # O_3
2890 1 4 0.000000000000 0.0 0.0 0.0 # Si3
2891 1 3 0.000000000000 0.0 0.0 0.0 # C_3
2892 1 3 0.000000000000 0.0 0.0 0.0 # C_3
2893 1 5 0.000000000000 0.0 0.0 0.0 # O_3
2894 1 4 0.000000000000 0.0 0.0 0.0 # Si3
2895 1 3 0.000000000000 0.0 0.0 0.0 # C_3
2896 1 3 0.000000000000 0.0 0.0 0.0 # C_3
2897 1 5 0.000000000000 0.0 0.0 0.0 # O_3
2898 1 2 0.000000000000 0.0 0.0 0.0 # O_
2899 1 4 0.000000000000 0.0 0.0 0.0 # Si3
2900 1 3 0.000000000000 0.0 0.0 0.0 # C_3
2901 1 3 0.000000000000 0.0 0.0 0.0 # C_3
2902 1 5 0.000000000000 0.0 0.0 0.0 # O_3
2903 1 4 0.000000000000 0.0 0.0 0.0 # Si3
2904 1 3 0.000000000000 0.0 0.0 0.0 # C_3
2905 1 3 0.000000000000 0.0 0.0 0.0 # C_3
2906 1 5 0.000000000000 0.0 0.0 0.0 # O_3
2907 1 4 0.000000000000 0.0 0.0 0.0 # Si3
2908 1 3 0.000000000000 0.0 0.0 0.0 # C_3
2909 1 3 0.000000000000 0.0 0.0 0.0 # C_3
2910 1 5 0.000000000000 0.0 0.0 0.0 # O_3
2911 1 4 0.000000000000 0.0 0.0 0.0 # Si3
2912 1 3 0.000000000000 0.0 0.0 0.0 # C_3
2913 1 3 0.000000000000 0.0 0.0 0.0 # C_3
2914 1 5 0.000000000000 0.0 0.0 0.0 # O_3
2915 1 4 0.000000000000 0.0 0.0 0.0 # Si3
2916 1 3 0.000000000000 0.0 0.0 0.0 # C_3
2917 1 3 0.000000000000 0.0 0.0 0.0 # C_3
2918 1 5 0.000000000000 0.0 0.0 0.0 # O_3
2919 1 2 0.000000000000 0.0 0.0 0.0 # O_
2920 1 4 0.000000000000 0.0 0.0 0.0 # Si3
2921 1 3 0.000000000000 0.0 0.0 0.0 # C_3
2922 1 3 0.000000000000 0.0 0.0 0.0 # C_3
2923 1 5 0.000000000000 0.0 0.0 0.0 # O_3
2924 1 4 0.000000000000 0.0 0.0 0.0 # Si3
2925 1 3 0.000000000000 0.0 0.0 0.0 # C_3
2926 1 3 0.000000000000 0.0 0.0 0.0 # C_3
2927 1 5 0.000000000000 0.0 0.0 0.0 # O_3
2928 1 4 0.000000000000 0.0 0.0 0.0 # Si3
2929 1 3 0.000000000000 0.0 0.0 0.0 # C_3
2930 1 3 0.000000000000 0.0 0.0 0.0 # C_3
2931 1 5 0.000000000000 0.0 0.0 0.0 # O_3
2932 1 4 0.000000000000 0.0 0.0 0.0 # Si3
2933 1 3 0.000000000000 0.0 0.0 0.0 # C_3
2934 1 3 0.000000000000 0.0 0.0 0.0 # C_3
2935 1 5 0.000000000000 0.0 0.0 0.0 # O_3
2936 1 4 0.000000000000 0.0 0.0 0.0 # Si3
2937 1 3 0.000000000000 0.0 0.0 0.0 # C_3
2938 1 3 0.000000000000 0.0 0.0 0.0 # C_3
2939 1 5 0.000000000000 0.0 0.0 0.0 # O_3
2940 1 2 0.000000000000 0.0 0.0 0.0 # O_
2941 1 4 0.000000000000 0.0 0.0 0.0 # Si3
2942 1 3 0.000000000000 0.0 0.0 0.0 # C_3
2943 1 3 0.000000000000 0.0 0.0 0.0 # C_3
2944 1 5 0.000000000000 0.0 0.0 0.0 # O_3
2945 1 4 0.000000000000 0.0 0.0 0.0 # Si3
2946 1 3 0.000000000000 0.0 0.0 0.0 # C_3
2947 1 3 0.000000000000 0.0 0.0 0.0 # C_3
2948 1 5 0.000000000000 0.0 0.0 0.0 # O_3
2949 1 4 0.000000000000 0.0 0.0 0.0 # Si3
2950 1 3 0.000000000000 0.0 0.0 0.0 # C_3
2951 1 3 0.000000000000 0.0 0.0 0.0 # C_3
2952 1 5 0.000000000000 0.0 0.0 0.0 # O_3
2953 1 4 0.000000000000 0.0 0.0 0.0 # Si3
2954 1 3 0.000000000000 0.0 0.0 0.0 # C_3
2955 1 3 0.000000000000 0.0 0.0 0.0 # C_3
2956 1 5 0.000000000000 0.0 0.0 0.0 # O_3
2957 1 4 0.000000000000 0.0 0.0 0.0 # Si3
2958 1 3 0.000000000000 0.0 0.0 0.0 # C_3
2959 1 3 0.000000000000 0.0 0.0 0.0 # C_3
2960 1 5 0.000000000000 0.0 0.0 0.0 # O_3
2961 1 2 0.000000000000 0.0 0.0 0.0 # O_
2962 1 4 0.000000000000 0.0 0.0 0.0 # Si3
2963 1 3 0.000000000000 0.0 0.0 0.0 # C_3
2964 1 3 0.000000000000 0.0 0.0 0.0 # C_3
2965 1 5 0.000000000000 0.0 0.0 0.0 # O_3
2966 1 4 0.000000000000 0.0 0.0 0.0 # Si3
2967 1 3 0.000000000000 0.0 0.0 0.0 # C_3
2968 1 3 0.000000000000 0.0 0.0 0.0 # C_3
2969 1 5 0.000000000000 0.0 0.0 0.0 # O_3
2970 1 4 0.000000000000 0.0 0.0 0.0 # Si3
2971 1 3 0.000000000000 0.0 0.0 0.0 # C_3
2972 1 3 0.000000000000 0.0 0.0 0.0 # C_3
2973 1 5 0.000000000000 0.0 0.0 0.0 # O_3
2974 1 4 0.000000000000 0.0 0.0 0.0 # Si3
2975 1 3 0.000000000000 0.0 0.0 0.0 # C_3
2976 1 3 0.000000000000 0.0 0.0 0.0 # C_3
2977 1 5 0.000000000000 0.0 0.0 0.0 # O_3
2978 1 4 0.000000000000 0.0 0.0 0.0 # Si3
2979 1 3 0.000000000000 0.0 0.0 0.0 # C_3
2980 1 3 0.000000000000 0.0 0.0 0.0 # C_3
2981 1 5 0.000000000000 0.0 0.0 0.0 # O_3
2982 1 2 0.000000000000 0.0 0.0 0.0 # O_
2983 1 4 0.000000000000 0.0 0.0 0.0 # Si3
2984 1 3 0.000000000000 0.0 0.0 0.0 # C_3
2985 1 3 0.000000000000 0.0 0.0 0.0 # C_3
2986 1 5 0.000000000000 0.0 0.0 0.0 # O_3
2987 1 4 0.000000000000 0.0 0.0 0.0 # Si3
2988 1 3 0.000000000000 0.0 0.0 0.0 # C_3
2989 1 3 0.000000000000 0.0 0.0 0.0 # C_3
2990 1 5 0.000000000000 0.0 0.0 0.0 # O_3
2991 1 4 0.000000000000 0.0 0.0 0.0 # Si3
2992 1 3 0.000000000000 0.0 0.0 0.0 # C_3
2993 1 3 0.000000000000 0.0 0.0 0.0 # C_3
2994 1 5 0.000000000000 0.0 0.0 0.0 # O_3
2995 1 4 0.000000000000 0.0 0.0 0.0 # Si3
2996 1 3 0.000000000000 0.0 0.0 0.0 # C_3
2997 1 3 0.000000000000 0.0 0.0 0.0 # C_3
2998 1 5 0.000000000000 0.0 0.0 0.0 # O_3
2999 1 4 0.000000000000 0.0 0.0 0.0 # Si3
3000 1 3 0.000000000000 0.0 0.0 0.0 # C_3
3001 1 3 0.000000000000 0.0 0.0 0.0 # C_3
3002 1 5 0.000000000000 0.0 0.0 0.0 # O_3
3003 1 2 0.000000000000 0.0 0.0 0.0 # O_
3004 1 4 0.000000000000 0.0 0.0 0.0 # Si3
3005 1 3 0.000000000000 0.0 0.0 0.0 # C_3
3006 1 3 0.000000000000 0.0 0.0 0.0 # C_3
3007 1 5 0.000000000000 0.0 0.0 0.0 # O_3
3008 1 4 0.000000000000 0.0 0.0 0.0 # Si3
3009 1 3 0.000000000000 0.0 0.0 0.0 # C_3
3010 1 3 0.000000000000 0.0 0.0 0.0 # C_3
3011 1 5 0.000000000000 0.0 0.0 0.0 # O_3
3012 1 4 0.000000000000 0.0 0.0 0.0 # Si3
3013 1 3 0.000000000000 0.0 0.0 0.0 # C_3
3014 1 3 0.000000000000 0.0 0.0 0.0 # C_3
3015 1 5 0.000000000000 0.0 0.0 0.0 # O_3
3016 1 4 0.000000000000 0.0 0.0 0.0 # Si3
3017 1 3 0.000000000000 0.0 0.0 0.0 # C_3
3018 1 3 0.000000000000 0.0 0.0 0.0 # C_3
3019 1 5 0.000000000000 0.0 0.0 0.0 # O_3
3020 1 4 0.000000000000 0.0 0.0 0.0 # Si3
3021 1 3 0.000000000000 0.0 0.0 0.0 # C_3
3022 1 3 0.000000000000 0.0 0.0 0.0 # C_3
3023 1 5 0.000000000000 0.0 0.0 0.0 # O_3
3024 1 2 0.000000000000 0.0 0.0 0.0 # O_
3025 1 4 0.000000000000 0.0 0.0 0.0 # Si3
3026 1 3 0.000000000000 0.0 0.0 0.0 # C_3
3027 1 3 0.000000000000 0.0 0.0 0.0 # C_3
3028 1 5 0.000000000000 0.0 0.0 0.0 # O_3
3029 1 4 0.000000000000 0.0 0.0 0.0 # Si3
3030 1 3 0.000000000000 0.0 0.0 0.0 # C_3
3031 1 3 0.000000000000 0.0 0.0 0.0 # C_3
3032 1 5 0.000000000000 0.0 0.0 0.0 # O_3
3033 1 4 0.000000000000 0.0 0.0 0.0 # Si3
3034 1 3 0.000000000000 0.0 0.0 0.0 # C_3
3035 1 3 0.000000000000 0.0 0.0 0.0 # C_3
3036 1 5 0.000000000000 0.0 0.0 0.0 # O_3
3037 1 4 0.000000000000 0.0 0.0 0.0 # Si3
3038 1 3 0.000000000000 0.0 0.0 0.0 # C_3
3039 1 3 0.000000000000 0.0 0.0 0.0 # C_3
3040 1 5 0.000000000000 0.0 0.0 0.0 # O_3
3041 1 4 0.000000000000 0.0 0.0 0.0 # Si3
3042 1 3 0.000000000000 0.0 0.0 0.0 # C_3
3043 1 3 0.000000000000 0.0 0.0 0.0 # C_3
3044 1 5 0.000000000000 0.0 0.0 0.0 # O_3
3045 1 2 0.000000000000 0.0 0.0 0.0 # O_
3046 1 4 0.000000000000 0.0 0.0 0.0 # Si3
3047 1 3 0.000000000000 0.0 0.0 0.0 # C_3
3048 1 3 0.000000000000 0.0 0.0 0.0 # C_3
3049 1 5 0.000000000000 0.0 0.0 0.0 # O_3
3050 1 4 0.000000000000 0.0 0.0 0.0 # Si3
3051 1 3 0.000000000000 0.0 0.0 0.0 # C_3
3052 1 3 0.000000000000 0.0 0.0 0.0 # C_3
3053 1 5 0.000000000000 0.0 0.0 0.0 # O_3
3054 1 4 0.000000000000 0.0 0.0 0.0 # Si3
3055 1 3 0.000000000000 0.0 0.0 0.0 # C_3
3056 1 3 0.000000000000 0.0 0.0 0.0 # C_3
3057 1 5 0.000000000000 0.0 0.0 0.0 # O_3
3058 1 4 0.000000000000 0.0 0.0 0.0 # Si3
3059 1 3 0.000000000000 0.0 0.0 0.0 # C_3
3060 1 3 0.000000000000 0.0 0.0 0.0 # C_3
3061 1 5 0.000000000000 0.0 0.0 0.0 # O_3
3062 1 4 0.000000000000 0.0 0.0 0.0 # Si3
3063 1 3 0.000000000000 0.0 0.0 0.0 # C_3
3064 1 3 0.000000000000 0.0 0.0 0.0 # C_3
3065 1 5 0.000000000000 0.0 0.0 0.0 # O_3
3066 1 2 0.000000000000 0.0 0.0 0.0 # O_
3067 1 4 0.000000000000 0.0 0.0 0.0 # Si3
3068 1 3 0.000000000000 0.0 0.0 0.0 # C_3
3069 1 3 0.000000000000 0.0 0.0 0.0 # C_3
3070 1 5 0.000000000000 0.0 0.0 0.0 # O_3
3071 1 4 0.000000000000 0.0 0.0 0.0 # Si3
3072 1 3 0.000000000000 0.0 0.0 0.0 # C_3
3073 1 3 0.000000000000 0.0 0.0 0.0 # C_3
3074 1 5 0.000000000000 0.0 0.0 0.0 # O_3
3075 1 4 0.000000000000 0.0 0.0 0.0 # Si3
3076 1 3 0.000000000000 0.0 0.0 0.0 # C_3
3077 1 3 0.000000000000 0.0 0.0 0.0 # C_3
3078 1 5 0.000000000000 0.0 0.0 0.0 # O_3
3079 1 4 0.000000000000 0.0 0.0 0.0 # Si3
3080 1 3 0.000000000000 0.0 0.0 0.0 # C_3
3081 1 3 0.000000000000 0.0 0.0 0.0 # C_3
3082 1 5 0.000000000000 0.0 0.0 0.0 # O_3
3083 1 4 0.000000000000 0.0 0.0 0.0 # Si3
3084 1 3 0.000000000000 0.0 0.0 0.0 # C_3
3085 1 3 0.000000000000 0.0 0.0 0.0 # C_3
3086 1 5 0.000000000000 0.0 0.0 0.0 # O_3
3087 1 2 0.000000000000 0.0 0.0 0.0 # O_
3088 1 4 0.000000000000 0.0 0.0 0.0 # Si3
3089 1 3 0.000000000000 0.0 0.0 0.0 # C_3
3090 1 3 0.000000000000 0.0 0.0 0.0 # C_3
3091 1 5 0.000000000000 0.0 0.0 0.0 # O_3
3092 1 4 0.000000000000 0.0 0.0 0.0 # Si3
3093 1 3 0.000000000000 0.0 0.0 0.0 # C_3
3094 1 3 0.000000000000 0.0 0.0 0.0 # C_3
3095 1 5 0.000000000000 0.0 0.0 0.0 # O_3
3096 1 4 0.000000000000 0.0 0.0 0.0 # Si3
3097 1 3 0.000000000000 0.0 0.0 0.0 # C_3
3098 1 3 0.000000000000 0.0 0.0 0.0 # C_3
3099 1 5 0.000000000000 0.0 0.0 0.0 # O_3
3100 1 4 0.000000000000 0.0 0.0 0.0 # Si3
3101 1 3 0.000000000000 0.0 0.0 0.0 # C_3
3102 1 3 0.000000000000 0.0 0.0 0.0 # C_3
3103 1 5 0.000000000000 0.0 0.0 0.0 # O_3
3104 1 4 0.000000000000 0.0 0.0 0.0 # Si3
3105 1 3 0.000000000000 0.0 0.0 0.0 # C_3
3106 1 3 0.000000000000 0.0 0.0 0.0 # C_3
3107 1 5 0.000000000000 0.0 0.0 0.0 # O_3
3108 1 2 0.000000000000 0.0 0.0 0.0 # O_
3109 1 4 0.000000000000 0.0 0.0 0.0 # Si3
3110 1 3 0.000000000000 0.0 0.0 0.0 # C_3
3111 1 3 0.000000000000 0.0 0.0 0.0 # C_3
3112 1 5 0.000000000000 0.0 0.0 0.0 # O_3
3113 1 4 0.000000000000 0.0 0.0 0.0 # Si3
3114 1 3 0.000000000000 0.0 0.0 0.0 # C_3
3115 1 3 0.000000000000 0.0 0.0 0.0 # C_3
3116 1 5 0.000000000000 0.0 0.0 0.0 # O_3
3117 1 4 0.000000000000 0.0 0.0 0.0 # Si3
3118 1 3 0.000000000000 0.0 0.0 0.0 # C_3
3119 1 3 0.000000000000 0.0 0.0 0.0 # C_3
3120 1 5 0.000000000000 0.0 0.0 0.0 # O_3
3121 1 4 0.000000000000 0.0 0.0 0.0 # Si3
3122 1 3 0.000000000000 0.0 0.0 0.0 # C_3
3123 1 3 0.000000000000 0.0 0.0 0.0 # C_3
3124 1 5 0.000000000000 0.0 0.0 0.0 # O_3
3125 1 4 0.000000000000 0.0 0.0 0.0 # Si3
3126 1 3 0.000000000000 0.0 0.0 0.0 # C_3
3127 1 3 0.000000000000 0.0 0.0 0.0 # C_3
3128 1 5 0.000000000000 0.0 0.0 0.0 # O_3
3129 1 2 0.000000000000 0.0 0.0 0.0 # O_
3130 1 4 0.000000000000 0.0 0.0 0.0 # Si3
3131 1 3 0.000000000000 0.0 0.0 0.0 # C_3
3132 1 3 0.000000000000 0.0 0.0 0.0 # C_3
3133 1 5 0.000000000000 0.0 0.0 0.0 # O_3
3134 1 4 0.000000000000 0.0 0.0 0.0 # Si3
3135 1 3 0.000000000000 0.0 0.0 0.0 # C_3
3136 1 3 0.000000000000 0.0 0.0 0.0 # C_3
3137 1 5 0.000000000000 0.0 0.0 0.0 # O_3
3138 1 4 0.000000000000 0.0 0.0 0.0 # Si3
3139 1 3 0.000000000000 0.0 0.0 0.0 # C_3
3140 1 3 0.000000000000 0.0 0.0 0.0 # C_3
3141 1 5 0.000000000000 0.0 0.0 0.0 # O_3
3142 1 4 0.000000000000 0.0 0.0 0.0 # Si3
3143 1 3 0.000000000000 0.0 0.0 0.0 # C_3
3144 1 3 0.000000000000 0.0 0.0 0.0 # C_3
3145 1 5 0.000000000000 0.0 0.0 0.0 # O_3
3146 1 4 0.000000000000 0.0 0.0 0.0 # Si3
3147 1 3 0.000000000000 0.0 0.0 0.0 # C_3
3148 1 3 0.000000000000 0.0 0.0 0.0 # C_3
3149 1 5 0.000000000000 0.0 0.0 0.0 # O_3
3150 1 2 0.000000000000 0.0 0.0 0.0 # O_
3151 1 4 0.000000000000 0.0 0.0 0.0 # Si3
3152 1 3 0.000000000000 0.0 0.0 0.0 # C_3
3153 1 3 0.000000000000 0.0 0.0 0.0 # C_3
3154 1 5 0.000000000000 0.0 0.0 0.0 # O_3
3155 1 4 0.000000000000 0.0 0.0 0.0 # Si3
3156 1 3 0.000000000000 0.0 0.0 0.0 # C_3
3157 1 3 0.000000000000 0.0 0.0 0.0 # C_3
3158 1 5 0.000000000000 0.0 0.0 0.0 # O_3
3159 1 4 0.000000000000 0.0 0.0 0.0 # Si3
3160 1 3 0.000000000000 0.0 0.0 0.0 # C_3
3161 1 3 0.000000000000 0.0 0.0 0.0 # C_3
3162 1 5 0.000000000000 0.0 0.0 0.0 # O_3
3163 1 4 0.000000000000 0.0 0.0 0.0 # Si3
3164 1 3 0.000000000000 0.0 0.0 0.0 # C_3
3165 1 3 0.000000000000 0.0 0.0 0.0 # C_3
3166 1 5 0.000000000000 0.0 0.0 0.0 # O_3
3167 1 4 0.000000000000 0.0 0.0 0.0 # Si3
3168 1 3 0.000000000000 0.0 0.0 0.0 # C_3
3169 1 3 0.000000000000 0.0 0.0 0.0 # C_3
3170 1 5 0.000000000000 0.0 0.0 0.0 # O_3
3171 1 2 0.000000000000 0.0 0.0 0.0 # O_
3172 1 4 0.000000000000 0.0 0.0 0.0 # Si3
3173 1 3 0.000000000000 0.0 0.0 0.0 # C_3
3174 1 3 0.000000000000 0.0 0.0 0.0 # C_3
3175 1 5 0.000000000000 0.0 0.0 0.0 # O_3
3176 1 4 0.000000000000 0.0 0.0 0.0 # Si3
3177 1 3 0.000000000000 0.0 0.0 0.0 # C_3
3178 1 3 0.000000000000 0.0 0.0 0.0 # C_3
3179 1 5 0.000000000000 0.0 0.0 0.0 # O_3
3180 1 4 0.000000000000 0.0 0.0 0.0 # Si3
3181 1 3 0.000000000000 0.0 0.0 0.0 # C_3
3182 1 3 0.000000000000 0.0 0.0 0.0 # C_3
3183 1 5 0.000000000000 0.0 0.0 0.0 # O_3
3184 1 4 0.000000000000 0.0 0.0 0.0 # Si3
3185 1 3 0.000000000000 0.0 0.0 0.0 # C_3
3186 1 3 0.000000000000 0.0 0.0 0.0 # C_3
3187 1 5 0.000000000000 0.0 0.0 0.0 # O_3
3188 1 4 0.000000000000 0.0 0.0 0.0 # Si3
3189 1 3 0.000000000000 0.0 0.0 0.0 # C_3
3190 1 3 0.000000000000 0.0 0.0 0.0 # C_3
3191 1 5 0.000000000000 0.0 0.0 0.0 # O_3
3192 1 2 0.000000000000 0.0 0.0 0.0 # O_
3193 1 4 0.000000000000 0.0 0.0 0.0 # Si3
3194 1 3 0.000000000000 0.0 0.0 0.0 # C_3
3195 1 3 0.000000000000 0.0 0.0 0.0 # C_3
3196 1 5 0.000000000000 0.0 0.0 0.0 # O_3
3197 1 4 0.000000000000 0.0 0.0 0.0 # Si3
3198 1 3 0.000000000000 0.0 0.0 0.0 # C_3
3199 1 3 0.000000000000 0.0 0.0 0.0 # C_3
3200 1 5 0.000000000000 0.0 0.0 0.0 # O_3
3201 1 4 0.000000000000 0.0 0.0 0.0 # Si3
3202 1 3 0.000000000000 0.0 0.0 0.0 # C_3
3203 1 3 0.000000000000 0.0 0.0 0.0 # C_3
3204 1 5 0.000000000000 0.0 0.0 0.0 # O_3
3205 1 4 0.000000000000 0.0 0.0 0.0 # Si3
3206 1 3 0.000000000000 0.0 0.0 0.0 # C_3
3207 1 3 0.000000000000 0.0 0.0 0.0 # C_3
3208 1 5 0.000000000000 0.0 0.0 0.0 # O_3
3209 1 4 0.000000000000 0.0 0.0 0.0 # Si3
3210 1 3 0.000000000000 0.0 0.0 0.0 # C_3
3211 1 3 0.000000000000 0.0 0.0 0.0 # C_3
3212 1 5 0.000000000000 0.0 0.0 0.0 # O_3
3213 1 2 0.000000000000 0.0 0.0 0.0 # O_
3214 1 4 0.000000000000 0.0 0.0 0.0 # Si3
3215 1 3 0.000000000000 0.0 0.0 0.0 # C_3
3216 1 3 0.000000000000 0.0 0.0 0.0 # C_3
3217 1 5 0.000000000000 0.0 0.0 0.0 # O_3
3218 1 4 0.000000000000 0.0 0.0 0.0 # Si3
3219 1 3 0.000000000000 0.0 0.0 0.0 # C_3
3220 1 3 0.000000000000 0.0 0.0 0.0 # C_3
3221 1 5 0.000000000000 0.0 0.0 0.0 # O_3
3222 1 4 0.000000000000 0.0 0.0 0.0 # Si3
3223 1 3 0.000000000000 0.0 0.0 0.0 # C_3
3224 1 3 0.000000000000 0.0 0.0 0.0 # C_3
3225 1 5 0.000000000000 0.0 0.0 0.0 # O_3
3226 1 4 0.000000000000 0.0 0.0 0.0 # Si3
3227 1 3 0.000000000000 0.0 0.0 0.0 # C_3
3228 1 3 0.000000000000 0.0 0.0 0.0 # C_3
3229 1 5 0.000000000000 0.0 0.0 0.0 # O_3
3230 1 4 0.000000000000 0.0 0.0 0.0 # Si3
3231 1 3 0.000000000000 0.0 0.0 0.0 # C_3
3232 1 3 0.000000000000 0.0 0.0 0.0 # C_3
3233 1 5 0.000000000000 0.0 0.0 0.0 # O_3
3234 1 2 0.000000000000 0.0 0.0 0.0 # O_
3235 1 4 0.000000000000 0.0 0.0 0.0 # Si3
3236 1 3 0.000000000000 0.0 0.0 0.0 # C_3
3237 1 3 0.000000000000 0.0 0.0 0.0 # C_3
3238 1 5 0.000000000000 0.0 0.0 0.0 # O_3
3239 1 4 0.000000000000 0.0 0.0 0.0 # Si3
3240 1 3 0.000000000000 0.0 0.0 0.0 # C_3
3241 1 3 0.000000000000 0.0 0.0 0.0 # C_3
3242 1 5 0.000000000000 0.0 0.0 0.0 # O_3
3243 1 4 0.000000000000 0.0 0.0 0.0 # Si3
3244 1 3 0.000000000000 0.0 0.0 0.0 # C_3
3245 1 3 0.000000000000 0.0 0.0 0.0 # C_3
3246 1 5 0.000000000000 0.0 0.0 0.0 # O_3
3247 1 4 0.000000000000 0.0 0.0 0.0 # Si3
3248 1 3 0.000000000000 0.0 0.0 0.0 # C_3
3249 1 3 0.000000000000 0.0 0.0 0.0 # C_3
3250 1 5 0.000000000000 0.0 0.0 0.0 # O_3
3251 1 4 0.000000000000 0.0 0.0 0.0 # Si3
3252 1 3 0.000000000000 0.0 0.0 0.0 # C_3
3253 1 3 0.000000000000 0.0 0.0 0.0 # C_3
3254 1 5 0.000000000000 0.0 0.0 0.0 # O_3
3255 1 2 0.000000000000 0.0 0.0 0.0 # O_
3256 1 4 0.000000000000 0.0 0.0 0.0 # Si3
3257 1 3 0.000000000000 0.0 0.0 0.0 # C_3
3258 1 3 0.000000000000 0.0 0.0 0.0 # C_3
3259 1 5 0.000000000000 0.0 0.0 0.0 # O_3
3260 1 4 0.000000000000 0.0 0.0 0.0 # Si3
3261 1 3 0.000000000000 0.0 0.0 0.0 # C_3
3262 1 3 0.000000000000 0.0 0.0 0.0 # C_3
3263 1 5 0.000000000000 0.0 0.0 0.0 # O_3
3264 1 4 0.000000000000 0.0 0.0 0.0 # Si3
3265 1 3 0.000000000000 0.0 0.0 0.0 # C_3
3266 1 3 0.000000000000 0.0 0.0 0.0 # C_3
3267 1 5 0.000000000000 0.0 0.0 0.0 # O_3
3268 1 4 0.000000000000 0.0 0.0 0.0 # Si3
3269 1 3 0.000000000000 0.0 0.0 0.0 # C_3
3270 1 3 0.000000000000 0.0 0.0 0.0 # C_3
3271 1 5 0.000000000000 0.0 0.0 0.0 # O_3
3272 1 4 0.000000000000 0.0 0.0 0.0 # Si3
3273 1 3 0.000000000000 0.0 0.0 0.0 # C_3
3274 1 3 0.000000000000 0.0 0.0 0.0 # C_3
3275 1 5 0.000000000000 0.0 0.0 0.0 # O_3
3276 1 2 0.000000000000 0.0 0.0 0.0 # O_
3277 1 4 0.000000000000 0.0 0.0 0.0 # Si3
3278 1 3 0.000000000000 0.0 0.0 0.0 # C_3
3279 1 3 0.000000000000 0.0 0.0 0.0 # C_3
3280 1 5 0.000000000000 0.0 0.0 0.0 # O_3
3281 1 4 0.000000000000 0.0 0.0 0.0 # Si3
3282 1 3 0.000000000000 0.0 0.0 0.0 # C_3
3283 1 3 0.000000000000 0.0 0.0 0.0 # C_3
3284 1 5 0.000000000000 0.0 0.0 0.0 # O_3
3285 1 4 0.000000000000 0.0 0.0 0.0 # Si3
3286 1 3 0.000000000000 0.0 0.0 0.0 # C_3
3287 1 3 0.000000000000 0.0 0.0 0.0 # C_3
3288 1 5 0.000000000000 0.0 0.0 0.0 # O_3
3289 1 4 0.000000000000 0.0 0.0 0.0 # Si3
3290 1 3 0.000000000000 0.0 0.0 0.0 # C_3
3291 1 3 0.000000000000 0.0 0.0 0.0 # C_3
3292 1 5 0.000000000000 0.0 0.0 0.0 # O_3
3293 1 4 0.000000000000 0.0 0.0 0.0 # Si3
3294 1 3 0.000000000000 0.0 0.0 0.0 # C_3
3295 1 3 0.000000000000 0.0 0.0 0.0 # C_3
3296 1 5 0.000000000000 0.0 0.0 0.0 # O_3
3297 1 2 0.000000000000 0.0 0.0 0.0 # O_
3298 1 4 0.000000000000 0.0 0.0 0.0 # Si3
3299 1 3 0.000000000000 0.0 0.0 0.0 # C_3
3300 1 3 0.000000000000 0.0 0.0 0.0 # C_3
3301 1 5 0.000000000000 0.0 0.0 0.0 # O_3
3302 1 4 0.000000000000 0.0 0.0 0.0 # Si3
3303 1 3 0.000000000000 0.0 0.0 0.0 # C_3
3304 1 3 0.000000000000 0.0 0.0 0.0 # C_3
3305 1 5 0.000000000000 0.0 0.0 0.0 # O_3
3306 1 4 0.000000000000 0.0 0.0 0.0 # Si3
3307 1 3 0.000000000000 0.0 0.0 0.0 # C_3
3308 1 3 0.000000000000 0.0 0.0 0.0 # C_3
3309 1 5 0.000000000000 0.0 0.0 0.0 # O_3
3310 1 4 0.000000000000 0.0 0.0 0.0 # Si3
3311 1 3 0.000000000000 0.0 0.0 0.0 # C_3
3312 1 3 0.000000000000 0.0 0.0 0.0 # C_3
3313 1 5 0.000000000000 0.0 0.0 0.0 # O_3
3314 1 4 0.000000000000 0.0 0.0 0.0 # Si3
3315 1 3 0.000000000000 0.0 0.0 0.0 # C_3
3316 1 3 0.000000000000 0.0 0.0 0.0 # C_3
3317 1 5 0.000000000000 0.0 0.0 0.0 # O_3
3318 1 2 0.000000000000 0.0 0.0 0.0 # O_
3319 1 4 0.000000000000 0.0 0.0 0.0 # Si3
3320 1 3 0.000000000000 0.0 0.0 0.0 # C_3
3321 1 3 0.000000000000 0.0 0.0 0.0 # C_3
3322 1 5 0.000000000000 0.0 0.0 0.0 # O_3
3323 1 4 0.000000000000 0.0 0.0 0.0 # Si3
3324 1 3 0.000000000000 0.0 0.0 0.0 # C_3
3325 1 3 0.000000000000 0.0 0.0 0.0 # C_3
3326 1 5 0.000000000000 0.0 0.0 0.0 # O_3
3327 1 4 0.000000000000 0.0 0.0 0.0 # Si3
3328 1 3 0.000000000000 0.0 0.0 0.0 # C_3
3329 1 3 0.000000000000 0.0 0.0 0.0 # C_3
3330 1 5 0.000000000000 0.0 0.0 0.0 # O_3
3331 1 4 0.000000000000 0.0 0.0 0.0 # Si3
3332 1 3 0.000000000000 0.0 0.0 0.0 # C_3
3333 1 3 0.000000000000 0.0 0.0 0.0 # C_3
3334 1 5 0.000000000000 0.0 0.0 0.0 # O_3
3335 1 4 0.000000000000 0.0 0.0 0.0 # Si3
3336 1 3 0.000000000000 0.0 0.0 0.0 # C_3
3337 1 3 0.000000000000 0.0 0.0 0.0 # C_3
3338 1 5 0.000000000000 0.0 0.0 0.0 # O_3
3339 1 2 0.000000000000 0.0 0.0 0.0 # O_
3340 1 4 0.000000000000 0.0 0.0 0.0 # Si3
3341 1 3 0.000000000000 0.0 0.0 0.0 # C_3
3342 1 3 0.000000000000 0.0 0.0 0.0 # C_3
3343 1 5 0.000000000000 0.0 0.0 0.0 # O_3
3344 1 4 0.000000000000 0.0 0.0 0.0 # Si3
3345 1 3 0.000000000000 0.0 0.0 0.0 # C_3
3346 1 3 0.000000000000 0.0 0.0 0.0 # C_3
3347 1 5 0.000000000000 0.0 0.0 0.0 # O_3
3348 1 4 0.000000000000 0.0 0.0 0.0 # Si3
3349 1 3 0.000000000000 0.0 0.0 0.0 # C_3
3350 1 3 0.000000000000 0.0 0.0 0.0 # C_3
3351 1 5 0.000000000000 0.0 0.0 0.0 # O_3
3352 1 4 0.000000000000 0.0 0.0 0.0 # Si3
3353 1 3 0.000000000000 0.0 0.0 0.0 # C_3
3354 1 3 0.000000000000 0.0 0.0 0.0 # C_3
3355 1 5 0.000000000000 0.0 0.0 0.0 # O_3
3356 1 4 0.000000000000 0.0 0.0 0.0 # Si3
3357 1 3 0.000000000000 0.0 0.0 0.0 # C_3
3358 1 3 0.000000000000 0.0 0.0 0.0 # C_3
3359 1 5 0.000000000000 0.0 0.0 0.0 # O_3
3360 1 2 0.000000000000 0.0 0.0 0.0 # O_
3361 1 4 0.000000000000 0.0 0.0 0.0 # Si3
3362 1 3 0.000000000000 0.0 0.0 0.0 # C_3
3363 1 3 0.000000000000 0.0 0.0 0.0 # C_3
3364 1 5 0.000000000000 0.0 0.0 0.0 # O_3
3365 1 4 0.000000000000 0.0 0.0 0.0 # Si3
3366 1 3 0.000000000000 0.0 0.0 0.0 # C_3
3367 1 3 0.000000000000 0.0 0.0 0.0 # C_3
3368 1 5 0.000000000000 0.0 0.0 0.0 # O_3
3369 1 4 0.000000000000 0.0 0.0 0.0 # Si3
3370 1 3 0.000000000000 0.0 0.0 0.0 # C_3
3371 1 3 0.000000000000 0.0 0.0 0.0 # C_3
3372 1 5 0.000000000000 0.0 0.0 0.0 # O_3
3373 1 4 0.000000000000 0.0 0.0 0.0 # Si3
3374 1 3 0.000000000000 0.0 0.0 0.0 # C_3
3375 1 3 0.000000000000 0.0 0.0 0.0 # C_3
3376 1 5 0.000000000000 0.0 0.0 0.0 # O_3
3377 1 4 0.000000000000 0.0 0.0 0.0 # Si3
3378 1 3 0.000000000000 0.0 0.0 0.0 # C_3
3379 1 3 0.000000000000 0.0 0.0 0.0 # C_3
3380 1 5 0.000000000000 0.0 0.0 0.0 # O_3
3381 1 2 0.000000000000 0.0 0.0 0.0 # O_
3382 1 4 0.000000000000 0.0 0.0 0.0 # Si3
3383 1 3 0.000000000000 0.0 0.0 0.0 # C_3
3384 1 3 0.000000000000 0.0 0.0 0.0 # C_3
3385 1 5 0.000000000000 0.0 0.0 0.0 # O_3
3386 1 4 0.000000000000 0.0 0.0 0.0 # Si3
3387 1 3 0.000000000000 0.0 0.0 0.0 # C_3
3388 1 3 0.000000000000 0.0 0.0 0.0 # C_3
3389 1 5 0.000000000000 0.0 0.0 0.0 # O_3
3390 1 4 0.000000000000 0.0 0.0 0.0 # Si3
3391 1 3 0.000000000000 0.0 0.0 0.0 # C_3
3392 1 3 0.000000000000 0.0 0.0 0.0 # C_3
3393 1 5 0.000000000000 0.0 0.0 0.0 # O_3
3394 1 4 0.000000000000 0.0 0.0 0.0 # Si3
3395 1 3 0.000000000000 0.0 0.0 0.0 # C_3
3396 1 3 0.000000000000 0.0 0.0 0.0 # C_3
3397 1 5 0.000000000000 0.0 0.0 0.0 # O_3
3398 1 4 0.000000000000 0.0 0.0 0.0 # Si3
3399 1 3 0.000000000000 0.0 0.0 0.0 # C_3
3400 1 3 0.000000000000 0.0 0.0 0.0 # C_3
3401 1 5 0.000000000000 0.0 0.0 0.0 # O_3
3402 1 2 0.000000000000 0.0 0.0 0.0 # O_
3403 1 4 0.000000000000 0.0 0.0 0.0 # Si3
3404 1 3 0.000000000000 0.0 0.0 0.0 # C_3
3405 1 3 0.000000000000 0.0 0.0 0.0 # C_3
3406 1 5 0.000000000000 0.0 0.0 0.0 # O_3
3407 1 4 0.000000000000 0.0 0.0 0.0 # Si3
3408 1 3 0.000000000000 0.0 0.0 0.0 # C_3
3409 1 3 0.000000000000 0.0 0.0 0.0 # C_3
3410 1 5 0.000000000000 0.0 0.0 0.0 # O_3
3411 1 4 0.000000000000 0.0 0.0 0.0 # Si3
3412 1 3 0.000000000000 0.0 0.0 0.0 # C_3
3413 1 3 0.000000000000 0.0 0.0 0.0 # C_3
3414 1 5 0.000000000000 0.0 0.0 0.0 # O_3
3415 1 4 0.000000000000 0.0 0.0 0.0 # Si3
3416 1 3 0.000000000000 0.0 0.0 0.0 # C_3
3417 1 3 0.000000000000 0.0 0.0 0.0 # C_3
3418 1 5 0.000000000000 0.0 0.0 0.0 # O_3
3419 1 4 0.000000000000 0.0 0.0 0.0 # Si3
3420 1 3 0.000000000000 0.0 0.0 0.0 # C_3
3421 1 3 0.000000000000 0.0 0.0 0.0 # C_3
3422 1 5 0.000000000000 0.0 0.0 0.0 # O_3
3423 1 2 0.000000000000 0.0 0.0 0.0 # O_
3424 1 4 0.000000000000 0.0 0.0 0.0 # Si3
3425 1 3 0.000000000000 0.0 0.0 0.0 # C_3
3426 1 3 0.000000000000 0.0 0.0 0.0 # C_3
3427 1 5 0.000000000000 0.0 0.0 0.0 # O_3
3428 1 4 0.000000000000 0.0 0.0 0.0 # Si3
3429 1 3 0.000000000000 0.0 0.0 0.0 # C_3
3430 1 3 0.000000000000 0.0 0.0 0.0 # C_3
3431 1 5 0.000000000000 0.0 0.0 0.0 # O_3
3432 1 4 0.000000000000 0.0 0.0 0.0 # Si3
3433 1 3 0.000000000000 0.0 0.0 0.0 # C_3
3434 1 3 0.000000000000 0.0 0.0 0.0 # C_3
3435 1 5 0.000000000000 0.0 0.0 0.0 # O_3
3436 1 4 0.000000000000 0.0 0.0 0.0 # Si3
3437 1 3 0.000000000000 0.0 0.0 0.0 # C_3
3438 1 3 0.000000000000 0.0 0.0 0.0 # C_3
3439 1 5 0.000000000000 0.0 0.0 0.0 # O_3
3440 1 4 0.000000000000 0.0 0.0 0.0 # Si3
3441 1 3 0.000000000000 0.0 0.0 0.0 # C_3
3442 1 3 0.000000000000 0.0 0.0 0.0 # C_3
3443 1 5 0.000000000000 0.0 0.0 0.0 # O_3
3444 1 4 0.000000000000 0.0 0.0 0.0 # Si3
3445 1 3 0.000000000000 0.0 0.0 0.0 # C_3
3446 1 3 0.000000000000 0.0 0.0 0.0 # C_3
3447 1 5 0.000000000000 0.0 0.0 0.0 # O_3
3448 1 4 0.000000000000 0.0 0.0 0.0 # Si3
3449 1 3 0.000000000000 0.0 0.0 0.0 # C_3
3450 1 3 0.000000000000 0.0 0.0 0.0 # C_3
3451 1 5 0.000000000000 0.0 0.0 0.0 # O_3
3452 1 4 0.000000000000 0.0 0.0 0.0 # Si3
3453 1 3 0.000000000000 0.0 0.0 0.0 # C_3
3454 1 3 0.000000000000 0.0 0.0 0.0 # C_3
3455 1 5 0.000000000000 0.0 0.0 0.0 # O_3
3456 1 4 0.000000000000 0.0 0.0 0.0 # Si3
3457 1 3 0.000000000000 0.0 0.0 0.0 # C_3
3458 1 3 0.000000000000 0.0 0.0 0.0 # C_3
3459 1 5 0.000000000000 0.0 0.0 0.0 # O_3
3460 1 4 0.000000000000 0.0 0.0 0.0 # Si3
3461 1 3 0.000000000000 0.0 0.0 0.0 # C_3
3462 1 3 0.000000000000 0.0 0.0 0.0 # C_3
3463 1 5 0.000000000000 0.0 0.0 0.0 # O_3
3464 1 2 0.000000000000 0.0 0.0 0.0 # O_
3465 1 4 0.000000000000 0.0 0.0 0.0 # Si3
3466 1 3 0.000000000000 0.0 0.0 0.0 # C_3
3467 1 3 0.000000000000 0.0 0.0 0.0 # C_3
3468 1 5 0.000000000000 0.0 0.0 0.0 # O_3
3469 1 4 0.000000000000 0.0 0.0 0.0 # Si3
3470 1 3 0.000000000000 0.0 0.0 0.0 # C_3
3471 1 3 0.000000000000 0.0 0.0 0.0 # C_3
3472 1 5 0.000000000000 0.0 0.0 0.0 # O_3
3473 1 4 0.000000000000 0.0 0.0 0.0 # Si3
3474 1 3 0.000000000000 0.0 0.0 0.0 # C_3
3475 1 3 0.000000000000 0.0 0.0 0.0 # C_3
3476 1 5 0.000000000000 0.0 0.0 0.0 # O_3
3477 1 4 0.000000000000 0.0 0.0 0.0 # Si3
3478 1 3 0.000000000000 0.0 0.0 0.0 # C_3
3479 1 3 0.000000000000 0.0 0.0 0.0 # C_3
3480 1 5 0.000000000000 0.0 0.0 0.0 # O_3
3481 1 4 0.000000000000 0.0 0.0 0.0 # Si3
3482 1 3 0.000000000000 0.0 0.0 0.0 # C_3
3483 1 3 0.000000000000 0.0 0.0 0.0 # C_3
3484 1 5 0.000000000000 0.0 0.0 0.0 # O_3
3485 1 2 0.000000000000 0.0 0.0 0.0 # O_
3486 1 4 0.000000000000 0.0 0.0 0.0 # Si3
3487 1 3 0.000000000000 0.0 0.0 0.0 # C_3
3488 1 3 0.000000000000 0.0 0.0 0.0 # C_3
3489 1 5 0.000000000000 0.0 0.0 0.0 # O_3
3490 1 4 0.000000000000 0.0 0.0 0.0 # Si3
3491 1 3 0.000000000000 0.0 0.0 0.0 # C_3
3492 1 3 0.000000000000 0.0 0.0 0.0 # C_3
3493 1 5 0.000000000000 0.0 0.0 0.0 # O_3
3494 1 4 0.000000000000 0.0 0.0 0.0 # Si3
3495 1 3 0.000000000000 0.0 0.0 0.0 # C_3
3496 1 3 0.000000000000 0.0 0.0 0.0 # C_3
3497 1 5 0.000000000000 0.0 0.0 0.0 # O_3
3498 1 4 0.000000000000 0.0 0.0 0.0 # Si3
3499 1 3 0.000000000000 0.0 0.0 0.0 # C_3
3500 1 3 0.000000000000 0.0 0.0 0.0 # C_3
3501 1 5 0.000000000000 0.0 0.0 0.0 # O_3
3502 1 4 0.000000000000 0.0 0.0 0.0 # Si3
3503 1 3 0.000000000000 0.0 0.0 0.0 # C_3
3504 1 3 0.000000000000 0.0 0.0 0.0 # C_3
3505 1 5 0.000000000000 0.0 0.0 0.0 # O_3
3506 1 2 0.000000000000 0.0 0.0 0.0 # O_
3507 1 4 0.000000000000 0.0 0.0 0.0 # Si3
3508 1 3 0.000000000000 0.0 0.0 0.0 # C_3
3509 1 3 0.000000000000 0.0 0.0 0.0 # C_3
3510 1 5 0.000000000000 0.0 0.0 0.0 # O_3
3511 1 4 0.000000000000 0.0 0.0 0.0 # Si3
3512 1 3 0.000000000000 0.0 0.0 0.0 # C_3
3513 1 3 0.000000000000 0.0 0.0 0.0 # C_3
3514 1 5 0.000000000000 0.0 0.0 0.0 # O_3
3515 1 4 0.000000000000 0.0 0.0 0.0 # Si3
3516 1 3 0.000000000000 0.0 0.0 0.0 # C_3
3517 1 3 0.000000000000 0.0 0.0 0.0 # C_3
3518 1 5 0.000000000000 0.0 0.0 0.0 # O_3
3519 1 4 0.000000000000 0.0 0.0 0.0 # Si3
3520 1 3 0.000000000000 0.0 0.0 0.0 # C_3
3521 1 3 0.000000000000 0.0 0.0 0.0 # C_3
3522 1 5 0.000000000000 0.0 0.0 0.0 # O_3
3523 1 4 0.000000000000 0.0 0.0 0.0 # Si3
3524 1 3 0.000000000000 0.0 0.0 0.0 # C_3
3525 1 3 0.000000000000 0.0 0.0 0.0 # C_3
3526 1 5 0.000000000000 0.0 0.0 0.0 # O_3
3527 1 2 0.000000000000 0.0 0.0 0.0 # O_
3528 1 4 0.000000000000 0.0 0.0 0.0 # Si3
3529 1 3 0.000000000000 0.0 0.0 0.0 # C_3
3530 1 3 0.000000000000 0.0 0.0 0.0 # C_3
3531 1 5 0.000000000000 0.0 0.0 0.0 # O_3
3532 1 4 0.000000000000 0.0 0.0 0.0 # Si3
3533 1 3 0.000000000000 0.0 0.0 0.0 # C_3
3534 1 3 0.000000000000 0.0 0.0 0.0 # C_3
3535 1 5 0.000000000000 0.0 0.0 0.0 # O_3
3536 1 4 0.000000000000 0.0 0.0 0.0 # Si3
3537 1 3 0.000000000000 0.0 0.0 0.0 # C_3
3538 1 3 0.000000000000 0.0 0.0 0.0 # C_3
3539 1 5 0.000000000000 0.0 0.0 0.0 # O_3
3540 1 4 0.000000000000 0.0 0.0 0.0 # Si3
3541 1 3 0.000000000000 0.0 0.0 0.0 # C_3
3542 1 3 0.000000000000 0.0 0.0 0.0 # C_3
3543 1 5 0.000000000000 0.0 0.0 0.0 # O_3
3544 1 4 0.000000000000 0.0 0.0 0.0 # Si3
3545 1 3 0.000000000000 0.0 0.0 0.0 # C_3
3546 1 3 0.000000000000 0.0 0.0 0.0 # C_3
3547 1 5 0.000000000000 0.0 0.0 0.0 # O_3
3548 1 2 0.000000000000 0.0 0.0 0.0 # O_
3549 1 4 0.000000000000 0.0 0.0 0.0 # Si3
3550 1 3 0.000000000000 0.0 0.0 0.0 # C_3
3551 1 3 0.000000000000 0.0 0.0 0.0 # C_3
3552 1 5 0.000000000000 0.0 0.0 0.0 # O_3
3553 1 4 0.000000000000 0.0 0.0 0.0 # Si3
3554 1 3 0.000000000000 0.0 0.0 0.0 # C_3
3555 1 3 0.000000000000 0.0 0.0 0.0 # C_3
3556 1 5 0.000000000000 0.0 0.0 0.0 # O_3
3557 1 4 0.000000000000 0.0 0.0 0.0 # Si3
3558 1 3 0.000000000000 0.0 0.0 0.0 # C_3
3559 1 3 0.000000000000 0.0 0.0 0.0 # C_3
3560 1 5 0.000000000000 0.0 0.0 0.0 # O_3
3561 1 4 0.000000000000 0.0 0.0 0.0 # Si3
3562 1 3 0.000000000000 0.0 0.0 0.0 # C_3
3563 1 3 0.000000000000 0.0 0.0 0.0 # C_3
3564 1 5 0.000000000000 0.0 0.0 0.0 # O_3
3565 1 4 0.000000000000 0.0 0.0 0.0 # Si3
3566 1 3 0.000000000000 0.0 0.0 0.0 # C_3
3567 1 3 0.000000000000 0.0 0.0 0.0 # C_3
3568 1 5 0.000000000000 0.0 0.0 0.0 # O_3
3569 1 2 0.000000000000 0.0 0.0 0.0 # O_
3570 1 4 0.000000000000 0.0 0.0 0.0 # Si3
3571 1 3 0.000000000000 0.0 0.0 0.0 # C_3
3572 1 3 0.000000000000 0.0 0.0 0.0 # C_3
3573 1 5 0.000000000000 0.0 0.0 0.0 # O_3
3574 1 4 0.000000000000 0.0 0.0 0.0 # Si3
3575 1 3 0.000000000000 0.0 0.0 0.0 # C_3
3576 1 3 0.000000000000 0.0 0.0 0.0 # C_3
3577 1 5 0.000000000000 0.0 0.0 0.0 # O_3
3578 1 4 0.000000000000 0.0 0.0 0.0 # Si3
3579 1 3 0.000000000000 0.0 0.0 0.0 # C_3
3580 1 3 0.000000000000 0.0 0.0 0.0 # C_3
3581 1 5 0.000000000000 0.0 0.0 0.0 # O_3
3582 1 4 0.000000000000 0.0 0.0 0.0 # Si3
3583 1 3 0.000000000000 0.0 0.0 0.0 # C_3
3584 1 3 0.000000000000 0.0 0.0 0.0 # C_3
3585 1 5 0.000000000000 0.0 0.0 0.0 # O_3
3586 1 4 0.000000000000 0.0 0.0 0.0 # Si3
3587 1 3 0.000000000000 0.0 0.0 0.0 # C_3
3588 1 3 0.000000000000 0.0 0.0 0.0 # C_3
3589 1 5 0.000000000000 0.0 0.0 0.0 # O_3
3590 1 2 0.000000000000 0.0 0.0 0.0 # O_
3591 1 4 0.000000000000 0.0 0.0 0.0 # Si3
3592 1 3 0.000000000000 0.0 0.0 0.0 # C_3
3593 1 3 0.000000000000 0.0 0.0 0.0 # C_3
3594 1 5 0.000000000000 0.0 0.0 0.0 # O_3
3595 1 4 0.000000000000 0.0 0.0 0.0 # Si3
3596 1 3 0.000000000000 0.0 0.0 0.0 # C_3
3597 1 3 0.000000000000 0.0 0.0 0.0 # C_3
3598 1 5 0.000000000000 0.0 0.0 0.0 # O_3
3599 1 4 0.000000000000 0.0 0.0 0.0 # Si3
3600 1 3 0.000000000000 0.0 0.0 0.0 # C_3
3601 1 3 0.000000000000 0.0 0.0 0.0 # C_3
3602 1 5 0.000000000000 0.0 0.0 0.0 # O_3
3603 1 4 0.000000000000 0.0 0.0 0.0 # Si3
3604 1 3 0.000000000000 0.0 0.0 0.0 # C_3
3605 1 3 0.000000000000 0.0 0.0 0.0 # C_3
3606 1 5 0.000000000000 0.0 0.0 0.0 # O_3
3607 1 4 0.000000000000 0.0 0.0 0.0 # Si3
3608 1 3 0.000000000000 0.0 0.0 0.0 # C_3
3609 1 3 0.000000000000 0.0 0.0 0.0 # C_3
3610 1 5 0.000000000000 0.0 0.0 0.0 # O_3
3611 1 2 0.000000000000 0.0 0.0 0.0 # O_
3612 1 4 0.000000000000 0.0 0.0 0.0 # Si3
3613 1 3 0.000000000000 0.0 0.0 0.0 # C_3
3614 1 3 0.000000000000 0.0 0.0 0.0 # C_3
3615 1 5 0.000000000000 0.0 0.0 0.0 # O_3
3616 1 4 0.000000000000 0.0 0.0 0.0 # Si3
3617 1 3 0.000000000000 0.0 0.0 0.0 # C_3
3618 1 3 0.000000000000 0.0 0.0 0.0 # C_3
3619 1 5 0.000000000000 0.0 0.0 0.0 # O_3
3620 1 4 0.000000000000 0.0 0.0 0.0 # Si3
3621 1 3 0.000000000000 0.0 0.0 0.0 # C_3
3622 1 3 0.000000000000 0.0 0.0 0.0 # C_3
3623 1 5 0.000000000000 0.0 0.0 0.0 # O_3
3624 1 4 0.000000000000 0.0 0.0 0.0 # Si3
3625 1 3 0.000000000000 0.0 0.0 0.0 # C_3
3626 1 3 0.000000000000 0.0 0.0 0.0 # C_3
3627 1 5 0.000000000000 0.0 0.0 0.0 # O_3
3628 1 4 0.000000000000 0.0 0.0 0.0 # Si3
3629 1 3 0.000000000000 0.0 0.0 0.0 # C_3
3630 1 3 0.000000000000 0.0 0.0 0.0 # C_3
3631 1 5 0.000000000000 0.0 0.0 0.0 # O_3
3632 1 2 0.000000000000 0.0 0.0 0.0 # O_
3633 1 4 0.000000000000 0.0 0.0 0.0 # Si3
3634 1 3 0.000000000000 0.0 0.0 0.0 # C_3
3635 1 3 0.000000000000 0.0 0.0 0.0 # C_3
3636 1 5 0.000000000000 0.0 0.0 0.0 # O_3
3637 1 4 0.000000000000 0.0 0.0 0.0 # Si3
3638 1 3 0.000000000000 0.0 0.0 0.0 # C_3
3639 1 3 0.000000000000 0.0 0.0 0.0 # C_3
3640 1 5 0.000000000000 0.0 0.0 0.0 # O_3
3641 1 4 0.000000000000 0.0 0.0 0.0 # Si3
3642 1 3 0.000000000000 0.0 0.0 0.0 # C_3
3643 1 3 0.000000000000 0.0 0.0 0.0 # C_3
3644 1 5 0.000000000000 0.0 0.0 0.0 # O_3
3645 1 4 0.000000000000 0.0 0.0 0.0 # Si3
3646 1 3 0.000000000000 0.0 0.0 0.0 # C_3
3647 1 3 0.000000000000 0.0 0.0 0.0 # C_3
3648 1 5 0.000000000000 0.0 0.0 0.0 # O_3
3649 1 4 0.000000000000 0.0 0.0 0.0 # Si3
3650 1 3 0.000000000000 0.0 0.0 0.0 # C_3
3651 1 3 0.000000000000 0.0 0.0 0.0 # C_3
3652 1 5 0.000000000000 0.0 0.0 0.0 # O_3
3653 1 2 0.000000000000 0.0 0.0 0.0 # O_
3654 1 4 0.000000000000 0.0 0.0 0.0 # Si3
3655 1 3 0.000000000000 0.0 0.0 0.0 # C_3
3656 1 3 0.000000000000 0.0 0.0 0.0 # C_3
3657 1 5 0.000000000000 0.0 0.0 0.0 # O_3
3658 1 4 0.000000000000 0.0 0.0 0.0 # Si3
3659 1 3 0.000000000000 0.0 0.0 0.0 # C_3
3660 1 3 0.000000000000 0.0 0.0 0.0 # C_3
3661 1 5 0.000000000000 0.0 0.0 0.0 # O_3
3662 1 4 0.000000000000 0.0 0.0 0.0 # Si3
3663 1 3 0.000000000000 0.0 0.0 0.0 # C_3
3664 1 3 0.000000000000 0.0 0.0 0.0 # C_3
3665 1 5 0.000000000000 0.0 0.0 0.0 # O_3
3666 1 4 0.000000000000 0.0 0.0 0.0 # Si3
3667 1 3 0.000000000000 0.0 0.0 0.0 # C_3
3668 1 3 0.000000000000 0.0 0.0 0.0 # C_3
3669 1 5 0.000000000000 0.0 0.0 0.0 # O_3
3670 1 4 0.000000000000 0.0 0.0 0.0 # Si3
3671 1 3 0.000000000000 0.0 0.0 0.0 # C_3
3672 1 3 0.000000000000 0.0 0.0 0.0 # C_3
3673 1 5 0.000000000000 0.0 0.0 0.0 # O_3
3674 1 2 0.000000000000 0.0 0.0 0.0 # O_
3675 1 4 0.000000000000 0.0 0.0 0.0 # Si3
3676 1 3 0.000000000000 0.0 0.0 0.0 # C_3
3677 1 3 0.000000000000 0.0 0.0 0.0 # C_3
3678 1 5 0.000000000000 0.0 0.0 0.0 # O_3
3679 1 4 0.000000000000 0.0 0.0 0.0 # Si3
3680 1 3 0.000000000000 0.0 0.0 0.0 # C_3
3681 1 3 0.000000000000 0.0 0.0 0.0 # C_3
3682 1 5 0.000000000000 0.0 0.0 0.0 # O_3
3683 1 4 0.000000000000 0.0 0.0 0.0 # Si3
3684 1 3 0.000000000000 0.0 0.0 0.0 # C_3
3685 1 3 0.000000000000 0.0 0.0 0.0 # C_3
3686 1 5 0.000000000000 0.0 0.0 0.0 # O_3
3687 1 4 0.000000000000 0.0 0.0 0.0 # Si3
3688 1 3 0.000000000000 0.0 0.0 0.0 # C_3
3689 1 3 0.000000000000 0.0 0.0 0.0 # C_3
3690 1 5 0.000000000000 0.0 0.0 0.0 # O_3
3691 1 4 0.000000000000 0.0 0.0 0.0 # Si3
3692 1 3 0.000000000000 0.0 0.0 0.0 # C_3
3693 1 3 0.000000000000 0.0 0.0 0.0 # C_3
3694 1 5 0.000000000000 0.0 0.0 0.0 # O_3
3695 1 2 0.000000000000 0.0 0.0 0.0 # O_
3696 1 4 0.000000000000 0.0 0.0 0.0 # Si3
3697 1 3 0.000000000000 0.0 0.0 0.0 # C_3
3698 1 3 0.000000000000 0.0 0.0 0.0 # C_3
3699 1 5 0.000000000000 0.0 0.0 0.0 # O_3
3700 1 4 0.000000000000 0.0 0.0 0.0 # Si3
3701 1 3 0.000000000000 0.0 0.0 0.0 # C_3
3702 1 3 0.000000000000 0.0 0.0 0.0 # C_3
3703 1 5 0.000000000000 0.0 0.0 0.0 # O_3
3704 1 4 0.000000000000 0.0 0.0 0.0 # Si3
3705 1 3 0.000000000000 0.0 0.0 0.0 # C_3
3706 1 3 0.000000000000 0.0 0.0 0.0 # C_3
3707 1 5 0.000000000000 0.0 0.0 0.0 # O_3
3708 1 4 0.000000000000 0.0 0.0 0.0 # Si3
3709 1 3 0.000000000000 0.0 0.0 0.0 # C_3
3710 1 3 0.000000000000 0.0 0.0 0.0 # C_3
3711 1 5 0.000000000000 0.0 0.0 0.0 # O_3
3712 1 4 0.000000000000 0.0 0.0 0.0 # Si3
3713 1 3 0.000000000000 0.0 0.0 0.0 # C_3
3714 1 3 0.000000000000 0.0 0.0 0.0 # C_3
3715 1 5 0.000000000000 0.0 0.0 0.0 # O_3
3716 1 2 0.000000000000 0.0 0.0 0.0 # O_
3717 1 4 0.000000000000 0.0 0.0 0.0 # Si3
3718 1 3 0.000000000000 0.0 0.0 0.0 # C_3
3719 1 3 0.000000000000 0.0 0.0 0.0 # C_3
3720 1 5 0.000000000000 0.0 0.0 0.0 # O_3
3721 1 4 0.000000000000 0.0 0.0 0.0 # Si3
3722 1 3 0.000000000000 0.0 0.0 0.0 # C_3
3723 1 3 0.000000000000 0.0 0.0 0.0 # C_3
3724 1 5 0.000000000000 0.0 0.0 0.0 # O_3
3725 1 4 0.000000000000 0.0 0.0 0.0 # Si3
3726 1 3 0.000000000000 0.0 0.0 0.0 # C_3
3727 1 3 0.000000000000 0.0 0.0 0.0 # C_3
3728 1 5 0.000000000000 0.0 0.0 0.0 # O_3
3729 1 4 0.000000000000 0.0 0.0 0.0 # Si3
3730 1 3 0.000000000000 0.0 0.0 0.0 # C_3
3731 1 3 0.000000000000 0.0 0.0 0.0 # C_3
3732 1 5 0.000000000000 0.0 0.0 0.0 # O_3
3733 1 4 0.000000000000 0.0 0.0 0.0 # Si3
3734 1 3 0.000000000000 0.0 0.0 0.0 # C_3
3735 1 3 0.000000000000 0.0 0.0 0.0 # C_3
3736 1 5 0.000000000000 0.0 0.0 0.0 # O_3
3737 1 2 0.000000000000 0.0 0.0 0.0 # O_
3738 1 4 0.000000000000 0.0 0.0 0.0 # Si3
3739 1 3 0.000000000000 0.0 0.0 0.0 # C_3
3740 1 3 0.000000000000 0.0 0.0 0.0 # C_3
3741 1 5 0.000000000000 0.0 0.0 0.0 # O_3
3742 1 4 0.000000000000 0.0 0.0 0.0 # Si3
3743 1 3 0.000000000000 0.0 0.0 0.0 # C_3
3744 1 3 0.000000000000 0.0 0.0 0.0 # C_3
3745 1 5 0.000000000000 0.0 0.0 0.0 # O_3
3746 1 4 0.000000000000 0.0 0.0 0.0 # Si3
3747 1 3 0.000000000000 0.0 0.0 0.0 # C_3
3748 1 3 0.000000000000 0.0 0.0 0.0 # C_3
3749 1 5 0.000000000000 0.0 0.0 0.0 # O_3
3750 1 4 0.000000000000 0.0 0.0 0.0 # Si3
3751 1 3 0.000000000000 0.0 0.0 0.0 # C_3
3752 1 3 0.000000000000 0.0 0.0 0.0 # C_3
3753 1 5 0.000000000000 0.0 0.0 0.0 # O_3
3754 1 4 0.000000000000 0.0 0.0 0.0 # Si3
3755 1 3 0.000000000000 0.0 0.0 0.0 # C_3
3756 1 3 0.000000000000 0.0 0.0 0.0 # C_3
3757 1 5 0.000000000000 0.0 0.0 0.0 # O_3
3758 1 2 0.000000000000 0.0 0.0 0.0 # O_
3759 1 4 0.000000000000 0.0 0.0 0.0 # Si3
3760 1 3 0.000000000000 0.0 0.0 0.0 # C_3
3761 1 3 0.000000000000 0.0 0.0 0.0 # C_3
3762 1 5 0.000000000000 0.0 0.0 0.0 # O_3
3763 1 4 0.000000000000 0.0 0.0 0.0 # Si3
3764 1 3 0.000000000000 0.0 0.0 0.0 # C_3
3765 1 3 0.000000000000 0.0 0.0 0.0 # C_3
3766 1 5 0.000000000000 0.0 0.0 0.0 # O_3
3767 1 4 0.000000000000 0.0 0.0 0.0 # Si3
3768 1 3 0.000000000000 0.0 0.0 0.0 # C_3
3769 1 3 0.000000000000 0.0 0.0 0.0 # C_3
3770 1 5 0.000000000000 0.0 0.0 0.0 # O_3
3771 1 4 0.000000000000 0.0 0.0 0.0 # Si3
3772 1 3 0.000000000000 0.0 0.0 0.0 # C_3
3773 1 3 0.000000000000 0.0 0.0 0.0 # C_3
3774 1 5 0.000000000000 0.0 0.0 0.0 # O_3
3775 1 4 0.000000000000 0.0 0.0 0.0 # Si3
3776 1 3 0.000000000000 0.0 0.0 0.0 # C_3
3777 1 3 0.000000000000 0.0 0.0 0.0 # C_3
3778 1 5 0.000000000000 0.0 0.0 0.0 # O_3
3779 1 2 0.000000000000 0.0 0.0 0.0 # O_
3780 1 4 0.000000000000 0.0 0.0 0.0 # Si3
3781 1 3 0.000000000000 0.0 0.0 0.0 # C_3
3782 1 3 0.000000000000 0.0 0.0 0.0 # C_3
3783 1 5 0.000000000000 0.0 0.0 0.0 # O_3
3784 1 4 0.000000000000 0.0 0.0 0.0 # Si3
3785 1 3 0.000000000000 0.0 0.0 0.0 # C_3
3786 1 3 0.000000000000 0.0 0.0 0.0 # C_3
3787 1 5 0.000000000000 0.0 0.0 0.0 # O_3
3788 1 4 0.000000000000 0.0 0.0 0.0 # Si3
3789 1 3 0.000000000000 0.0 0.0 0.0 # C_3
3790 1 3 0.000000000000 0.0 0.0 0.0 # C_3
3791 1 5 0.000000000000 0.0 0.0 0.0 # O_3
3792 1 4 0.000000000000 0.0 0.0 0.0 # Si3
3793 1 3 0.000000000000 0.0 0.0 0.0 # C_3
3794 1 3 0.000000000000 0.0 0.0 0.0 # C_3
3795 1 5 0.000000000000 0.0 0.0 0.0 # O_3
3796 1 4 0.000000000000 0.0 0.0 0.0 # Si3
3797 1 3 0.000000000000 0.0 0.0 0.0 # C_3
3798 1 3 0.000000000000 0.0 0.0 0.0 # C_3
3799 1 5 0.000000000000 0.0 0.0 0.0 # O_3
3800 1 2 0.000000000000 0.0 0.0 0.0 # O_
3801 1 4 0.000000000000 0.0 0.0 0.0 # Si3
3802 1 3 0.000000000000 0.0 0.0 0.0 # C_3
3803 1 3 0.000000000000 0.0 0.0 0.0 # C_3
3804 1 5 0.000000000000 0.0 0.0 0.0 # O_3
3805 1 4 0.000000000000 0.0 0.0 0.0 # Si3
3806 1 3 0.000000000000 0.0 0.0 0.0 # C_3
3807 1 3 0.000000000000 0.0 0.0 0.0 # C_3
3808 1 5 0.000000000000 0.0 0.0 0.0 # O_3
3809 1 4 0.000000000000 0.0 0.0 0.0 # Si3
3810 1 3 0.000000000000 0.0 0.0 0.0 # C_3
3811 1 3 0.000000000000 0.0 0.0 0.0 # C_3
3812 1 5 0.000000000000 0.0 0.0 0.0 # O_3
3813 1 4 0.000000000000 0.0 0.0 0.0 # Si3
3814 1 3 0.000000000000 0.0 0.0 0.0 # C_3
3815 1 3 0.000000000000 0.0 0.0 0.0 # C_3
3816 1 5 0.000000000000 0.0 0.0 0.0 # O_3
3817 1 4 0.000000000000 0.0 0.0 0.0 # Si3
3818 1 3 0.000000000000 0.0 0.0 0.0 # C_3
3819 1 3 0.000000000000 0.0 0.0 0.0 # C_3
3820 1 5 0.000000000000 0.0 0.0 0.0 # O_3
3821 1 2 0.000000000000 0.0 0.0 0.0 # O_
3822 1 4 0.000000000000 0.0 0.0 0.0 # Si3
3823 1 3 0.000000000000 0.0 0.0 0.0 # C_3
3824 1 3 0.000000000000 0.0 0.0 0.0 # C_3
3825 1 5 0.000000000000 0.0 0.0 0.0 # O_3
3826 1 4 0.000000000000 0.0 0.0 0.0 # Si3
3827 1 3 0.000000000000 0.0 0.0 0.0 # C_3
3828 1 3 0.000000000000 0.0 0.0 0.0 # C_3
3829 1 5 0.000000000000 0.0 0.0 0.0 # O_3
3830 1 4 0.000000000000 0.0 0.0 0.0 # Si3
3831 1 3 0.000000000000 0.0 0.0 0.0 # C_3
3832 1 3 0.000000000000 0.0 0.0 0.0 # C_3
3833 1 5 0.000000000000 0.0 0.0 0.0 # O_3
3834 1 4 0.000000000000 0.0 0.0 0.0 # Si3
3835 1 3 0.000000000000 0.0 0.0 0.0 # C_3
3836 1 3 0.000000000000 0.0 0.0 0.0 # C_3
3837 1 5 0.000000000000 0.0 0.0 0.0 # O_3
3838 1 4 0.000000000000 0.0 0.0 0.0 # Si3
3839 1 3 0.000000000000 0.0 0.0 0.0 # C_3
3840 1 3 0.000000000000 0.0 0.0 0.0 # C_3
3841 1 5 0.000000000000 0.0 0.0 0.0 # O_3
3842 1 2 0.000000000000 0.0 0.0 0.0 # O_
3843 1 4 0.000000000000 0.0 0.0 0.0 # Si3
3844 1 3 0.000000000000 0.0 0.0 0.0 # C_3
3845 1 3 0.000000000000 0.0 0.0 0.0 # C_3
3846 1 5 0.000000000000 0.0 0.0 0.0 # O_3
3847 1 4 0.000000000000 0.0 0.0 0.0 # Si3
3848 1 3 0.000000000000 0.0 0.0 0.0 # C_3
3849 1 3 0.000000000000 0.0 0.0 0.0 # C_3
3850 1 5 0.000000000000 0.0 0.0 0.0 # O_3
3851 1 4 0.000000000000 0.0 0.0 0.0 # Si3
3852 1 3 0.000000000000 0.0 0.0 0.0 # C_3
3853 1 3 0.000000000000 0.0 0.0 0.0 # C_3
3854 1 5 0.000000000000 0.0 0.0 0.0 # O_3
3855 1 4 0.000000000000 0.0 0.0 0.0 # Si3
3856 1 3 0.000000000000 0.0 0.0 0.0 # C_3
3857 1 3 0.000000000000 0.0 0.0 0.0 # C_3
3858 1 5 0.000000000000 0.0 0.0 0.0 # O_3
3859 1 4 0.000000000000 0.0 0.0 0.0 # Si3
3860 1 3 0.000000000000 0.0 0.0 0.0 # C_3
3861 1 3 0.000000000000 0.0 0.0 0.0 # C_3
3862 1 5 0.000000000000 0.0 0.0 0.0 # O_3
3863 1 2 0.000000000000 0.0 0.0 0.0 # O_
3864 1 4 0.000000000000 0.0 0.0 0.0 # Si3
3865 1 3 0.000000000000 0.0 0.0 0.0 # C_3
3866 1 3 0.000000000000 0.0 0.0 0.0 # C_3
3867 1 5 0.000000000000 0.0 0.0 0.0 # O_3
3868 1 4 0.000000000000 0.0 0.0 0.0 # Si3
3869 1 3 0.000000000000 0.0 0.0 0.0 # C_3
3870 1 3 0.000000000000 0.0 0.0 0.0 # C_3
3871 1 5 0.000000000000 0.0 0.0 0.0 # O_3
3872 1 4 0.000000000000 0.0 0.0 0.0 # Si3
3873 1 3 0.000000000000 0.0 0.0 0.0 # C_3
3874 1 3 0.000000000000 0.0 0.0 0.0 # C_3
3875 1 5 0.000000000000 0.0 0.0 0.0 # O_3
3876 1 4 0.000000000000 0.0 0.0 0.0 # Si3
3877 1 3 0.000000000000 0.0 0.0 0.0 # C_3
3878 1 3 0.000000000000 0.0 0.0 0.0 # C_3
3879 1 5 0.000000000000 0.0 0.0 0.0 # O_3
3880 1 4 0.000000000000 0.0 0.0 0.0 # Si3
3881 1 3 0.000000000000 0.0 0.0 0.0 # C_3
3882 1 3 0.000000000000 0.0 0.0 0.0 # C_3
3883 1 5 0.000000000000 0.0 0.0 0.0 # O_3
3884 1 2 0.000000000000 0.0 0.0 0.0 # O_
3885 1 4 0.000000000000 0.0 0.0 0.0 # Si3
3886 1 3 0.000000000000 0.0 0.0 0.0 # C_3
3887 1 3 0.000000000000 0.0 0.0 0.0 # C_3
3888 1 5 0.000000000000 0.0 0.0 0.0 # O_3
3889 1 4 0.000000000000 0.0 0.0 0.0 # Si3
3890 1 3 0.000000000000 0.0 0.0 0.0 # C_3
3891 1 3 0.000000000000 0.0 0.0 0.0 # C_3
3892 1 5 0.000000000000 0.0 0.0 0.0 # O_3
3893 1 4 0.000000000000 0.0 0.0 0.0 # Si3
3894 1 3 0.000000000000 0.0 0.0 0.0 # C_3
3895 1 3 0.000000000000 0.0 0.0 0.0 # C_3
3896 1 5 0.000000000000 0.0 0.0 0.0 # O_3
3897 1 4 0.000000000000 0.0 0.0 0.0 # Si3
3898 1 3 0.000000000000 0.0 0.0 0.0 # C_3
3899 1 3 0.000000000000 0.0 0.0 0.0 # C_3
3900 1 5 0.000000000000 0.0 0.0 0.0 # O_3
3901 1 4 0.000000000000 0.0 0.0 0.0 # Si3
3902 1 3 0.000000000000 0.0 0.0 0.0 # C_3
3903 1 3 0.000000000000 0.0 0.0 0.0 # C_3
3904 1 5 0.000000000000 0.0 0.0 0.0 # O_3
3905 1 2 0.000000000000 0.0 0.0 0.0 # O_
3906 1 4 0.000000000000 0.0 0.0 0.0 # Si3
3907 1 3 0.000000000000 0.0 0.0 0.0 # C_3
3908 1 3 0.000000000000 0.0 0.0 0.0 # C_3
3909 1 5 0.000000000000 0.0 0.0 0.0 # O_3
3910 1 4 0.000000000000 0.0 0.0 0.0 # Si3
3911 1 3 0.000000000000 0.0 0.0 0.0 # C_3
3912 1 3 0.000000000000 0.0 0.0 0.0 # C_3
3913 1 5 0.000000000000 0.0 0.0 0.0 # O_3
3914 1 4 0.000000000000 0.0 0.0 0.0 # Si3
3915 1 3 0.000000000000 0.0 0.0 0.0 # C_3
3916 1 3 0.000000000000 0.0 0.0 0.0 # C_3
3917 1 5 0.000000000000 0.0 0.0 0.0 # O_3
3918 1 4 0.000000000000 0.0 0.0 0.0 # Si3
3919 1 3 0.000000000000 0.0 0.0 0.0 # C_3
3920 1 3 0.000000000000 0.0 0.0 0.0 # C_3
3921 1 5 0.000000000000 0.0 0.0 0.0 # O_3
3922 1 4 0.000000000000 0.0 0.0 0.0 # Si3
3923 1 3 0.000000000000 0.0 0.0 0.0 # C_3
3924 1 3 0.000000000000 0.0 0.0 0.0 # C_3
3925 1 5 0.000000000000 0.0 0.0 0.0 # O_3
3926 1 2 0.000000000000 0.0 0.0 0.0 # O_
3927 1 4 0.000000000000 0.0 0.0 0.0 # Si3
3928 1 3 0.000000000000 0.0 0.0 0.0 # C_3
3929 1 3 0.000000000000 0.0 0.0 0.0 # C_3
3930 1 5 0.000000000000 0.0 0.0 0.0 # O_3
3931 1 4 0.000000000000 0.0 0.0 0.0 # Si3
3932 1 3 0.000000000000 0.0 0.0 0.0 # C_3
3933 1 3 0.000000000000 0.0 0.0 0.0 # C_3
3934 1 5 0.000000000000 0.0 0.0 0.0 # O_3
3935 1 4 0.000000000000 0.0 0.0 0.0 # Si3
3936 1 3 0.000000000000 0.0 0.0 0.0 # C_3
3937 1 3 0.000000000000 0.0 0.0 0.0 # C_3
3938 1 5 0.000000000000 0.0 0.0 0.0 # O_3
3939 1 4 0.000000000000 0.0 0.0 0.0 # Si3
3940 1 3 0.000000000000 0.0 0.0 0.0 # C_3
3941 1 3 0.000000000000 0.0 0.0 0.0 # C_3
3942 1 5 0.000000000000 0.0 0.0 0.0 # O_3
3943 1 4 0.000000000000 0.0 0.0 0.0 # Si3
3944 1 3 0.000000000000 0.0 0.0 0.0 # C_3
3945 1 3 0.000000000000 0.0 0.0 0.0 # C_3
3946 1 5 0.000000000000 0.0 0.0 0.0 # O_3
3947 1 2 0.000000000000 0.0 0.0 0.0 # O_
3948 1 4 0.000000000000 0.0 0.0 0.0 # Si3
3949 1 3 0.000000000000 0.0 0.0 0.0 # C_3
3950 1 3 0.000000000000 0.0 0.0 0.0 # C_3
3951 1 5 0.000000000000 0.0 0.0 0.0 # O_3
3952 1 4 0.000000000000 0.0 0.0 0.0 # Si3
3953 1 3 0.000000000000 0.0 0.0 0.0 # C_3
3954 1 3 0.000000000000 0.0 0.0 0.0 # C_3
3955 1 5 0.000000000000 0.0 0.0 0.0 # O_3
3956 1 4 0.000000000000 0.0 0.0 0.0 # Si3
3957 1 3 0.000000000000 0.0 0.0 0.0 # C_3
3958 1 3 0.000000000000 0.0 0.0 0.0 # C_3
3959 1 5 0.000000000000 0.0 0.0 0.0 # O_3
3960 1 4 0.000000000000 0.0 0.0 0.0 # Si3
3961 1 3 0.000000000000 0.0 0.0 0.0 # C_3
3962 1 3 0.000000000000 0.0 0.0 0.0 # C_3
3963 1 5 0.000000000000 0.0 0.0 0.0 # O_3
3964 1 4 0.000000000000 0.0 0.0 0.0 # Si3
3965 1 3 0.000000000000 0.0 0.0 0.0 # C_3
3966 1 3 0.000000000000 0.0 0.0 0.0 # C_3
3967 1 5 0.000000000000 0.0 0.0 0.0 # O_3
3968 1 2 0.000000000000 0.0 0.0 0.0 # O_
3969 1 4 0.000000000000 0.0 0.0 0.0 # Si3
3970 1 3 0.000000000000 0.0 0.0 0.0 # C_3
3971 1 3 0.000000000000 0.0 0.0 0.0 # C_3
3972 1 5 0.000000000000 0.0 0.0 0.0 # O_3
3973 1 4 0.000000000000 0.0 0.0 0.0 # Si3
3974 1 3 0.000000000000 0.0 0.0 0.0 # C_3
3975 1 3 0.000000000000 0.0 0.0 0.0 # C_3
3976 1 5 0.000000000000 0.0 0.0 0.0 # O_3
3977 1 4 0.000000000000 0.0 0.0 0.0 # Si3
3978 1 3 0.000000000000 0.0 0.0 0.0 # C_3
3979 1 3 0.000000000000 0.0 0.0 0.0 # C_3
3980 1 5 0.000000000000 0.0 0.0 0.0 # O_3
3981 1 4 0.000000000000 0.0 0.0 0.0 # Si3
3982 1 3 0.000000000000 0.0 0.0 0.0 # C_3
3983 1 3 0.000000000000 0.0 0.0 0.0 # C_3
3984 1 5 0.000000000000 0.0 0.0 0.0 # O_3
3985 1 4 0.000000000000 0.0 0.0 0.0 # Si3
3986 1 3 0.000000000000 0.0 0.0 0.0 # C_3
3987 1 3 0.000000000000 0.0 0.0 0.0 # C_3
3988 1 5 0.000000000000 0.0 0.0 0.0 # O_3
3989 1 2 0.000000000000 0.0 0.0 0.0 # O_
3990 1 4 0.000000000000 0.0 0.0 0.0 # Si3
3991 1 3 0.000000000000 0.0 0.0 0.0 # C_3
3992 1 3 0.000000000000 0.0 0.0 0.0 # C_3
3993 1 5 0.000000000000 0.0 0.0 0.0 # O_3
3994 1 4 0.000000000000 0.0 0.0 0.0 # Si3
3995 1 3 0.000000000000 0.0 0.0 0.0 # C_3
3996 1 3 0.000000000000 0.0 0.0 0.0 # C_3
3997 1 5 0.000000000000 0.0 0.0 0.0 # O_3
3998 1 4 0.000000000000 0.0 0.0 0.0 # Si3
3999 1 3 0.000000000000 0.0 0.0 0.0 # C_3
4000 1 3 0.000000000000 0.0 0.0 0.0 # C_3
4001 1 5 0.000000000000 0.0 0.0 0.0 # O_3
4002 1 4 0.000000000000 0.0 0.0 0.0 # Si3
4003 1 3 0.000000000000 0.0 0.0 0.0 # C_3
4004 1 3 0.000000000000 0.0 0.0 0.0 # C_3
4005 1 5 0.000000000000 0.0 0.0 0.0 # O_3
4006 1 4 0.000000000000 0.0 0.0 0.0 # Si3
4007 1 3 0.000000000000 0.0 0.0 0.0 # C_3
4008 1 3 0.000000000000 0.0 0.0 0.0 # C_3
4009 1 5 0.000000000000 0.0 0.0 0.0 # O_3
4010 1 2 0.000000000000 0.0 0.0 0.0 # O_
4011 1 4 0.000000000000 0.0 0.0 0.0 # Si3
4012 1 3 0.000000000000 0.0 0.0 0.0 # C_3
4013 1 3 0.000000000000 0.0 0.0 0.0 # C_3
4014 1 5 0.000000000000 0.0 0.0 0.0 # O_3
4015 1 4 0.000000000000 0.0 0.0 0.0 # Si3
4016 1 3 0.000000000000 0.0 0.0 0.0 # C_3
4017 1 3 0.000000000000 0.0 0.0 0.0 # C_3
4018 1 5 0.000000000000 0.0 0.0 0.0 # O_3
4019 1 4 0.000000000000 0.0 0.0 0.0 # Si3
4020 1 3 0.000000000000 0.0 0.0 0.0 # C_3
4021 1 3 0.000000000000 0.0 0.0 0.0 # C_3
4022 1 5 0.000000000000 0.0 0.0 0.0 # O_3
4023 1 4 0.000000000000 0.0 0.0 0.0 # Si3
4024 1 3 0.000000000000 0.0 0.0 0.0 # C_3
4025 1 3 0.000000000000 0.0 0.0 0.0 # C_3
4026 1 5 0.000000000000 0.0 0.0 0.0 # O_3
4027 1 4 0.000000000000 0.0 0.0 0.0 # Si3
4028 1 3 0.000000000000 0.0 0.0 0.0 # C_3
4029 1 3 0.000000000000 0.0 0.0 0.0 # C_3
4030 1 5 0.000000000000 0.0 0.0 0.0 # O_3
4031 1 2 0.000000000000 0.0 0.0 0.0 # O_
4032 1 4 0.000000000000 0.0 0.0 0.0 # Si3
4033 1 3 0.000000000000 0.0 0.0 0.0 # C_3
4034 1 3 0.000000000000 0.0 0.0 0.0 # C_3
4035 1 5 0.000000000000 0.0 0.0 0.0 # O_3
4036 1 4 0.000000000000 0.0 0.0 0.0 # Si3
4037 1 3 0.000000000000 0.0 0.0 0.0 # C_3
4038 1 3 0.000000000000 0.0 0.0 0.0 # C_3
4039 1 5 0.000000000000 0.0 0.0 0.0 # O_3
4040 1 4 0.000000000000 0.0 0.0 0.0 # Si3
4041 1 3 0.000000000000 0.0 0.0 0.0 # C_3
4042 1 3 0.000000000000 0.0 0.0 0.0 # C_3
4043 1 5 0.000000000000 0.0 0.0 0.0 # O_3
4044 1 4 0.000000000000 0.0 0.0 0.0 # Si3
4045 1 3 0.000000000000 0.0 0.0 0.0 # C_3
4046 1 3 0.000000000000 0.0 0.0 0.0 # C_3
4047 1 5 0.000000000000 0.0 0.0 0.0 # O_3
4048 1 4 0.000000000000 0.0 0.0 0.0 # Si3
4049 1 3 0.000000000000 0.0 0.0 0.0 # C_3
4050 1 3 0.000000000000 0.0 0.0 0.0 # C_3
4051 1 5 0.000000000000 0.0 0.0 0.0 # O_3
4052 1 2 0.000000000000 0.0 0.0 0.0 # O_
4053 1 4 0.000000000000 0.0 0.0 0.0 # Si3
4054 1 3 0.000000000000 0.0 0.0 0.0 # C_3
4055 1 3 0.000000000000 0.0 0.0 0.0 # C_3
4056 1 5 0.000000000000 0.0 0.0 0.0 # O_3
4057 1 4 0.000000000000 0.0 0.0 0.0 # Si3
4058 1 3 0.000000000000 0.0 0.0 0.0 # C_3
4059 1 3 0.000000000000 0.0 0.0 0.0 # C_3
4060 1 5 0.000000000000 0.0 0.0 0.0 # O_3
4061 1 4 0.000000000000 0.0 0.0 0.0 # Si3
4062 1 3 0.000000000000 0.0 0.0 0.0 # C_3
4063 1 3 0.000000000000 0.0 0.0 0.0 # C_3
4064 1 5 0.000000000000 0.0 0.0 0.0 # O_3
4065 1 4 0.000000000000 0.0 0.0 0.0 # Si3
4066 1 3 0.000000000000 0.0 0.0 0.0 # C_3
4067 1 3 0.000000000000 0.0 0.0 0.0 # C_3
4068 1 5 0.000000000000 0.0 0.0 0.0 # O_3
4069 1 4 0.000000000000 0.0 0.0 0.0 # Si3
4070 1 3 0.000000000000 0.0 0.0 0.0 # C_3
4071 1 3 0.000000000000 0.0 0.0 0.0 # C_3
4072 1 5 0.000000000000 0.0 0.0 0.0 # O_3
4073 1 2 0.000000000000 0.0 0.0 0.0 # O_
4074 1 4 0.000000000000 0.0 0.0 0.0 # Si3
4075 1 3 0.000000000000 0.0 0.0 0.0 # C_3
4076 1 3 0.000000000000 0.0 0.0 0.0 # C_3
4077 1 5 0.000000000000 0.0 0.0 0.0 # O_3
4078 1 4 0.000000000000 0.0 0.0 0.0 # Si3
4079 1 3 0.000000000000 0.0 0.0 0.0 # C_3
4080 1 3 0.000000000000 0.0 0.0 0.0 # C_3
4081 1 5 0.000000000000 0.0 0.0 0.0 # O_3
4082 1 4 0.000000000000 0.0 0.0 0.0 # Si3
4083 1 3 0.000000000000 0.0 0.0 0.0 # C_3
4084 1 3 0.000000000000 0.0 0.0 0.0 # C_3
4085 1 5 0.000000000000 0.0 0.0 0.0 # O_3
4086 1 4 0.000000000000 0.0 0.0 0.0 # Si3
4087 1 3 0.000000000000 0.0 0.0 0.0 # C_3
4088 1 3 0.000000000000 0.0 0.0 0.0 # C_3
4089 1 5 0.000000000000 0.0 0.0 0.0 # O_3
4090 1 4 0.000000000000 0.0 0.0 0.0 # Si3
4091 1 3 0.000000000000 0.0 0.0 0.0 # C_3
4092 1 3 0.000000000000 0.0 0.0 0.0 # C_3
4093 1 5 0.000000000000 0.0 0.0 0.0 # O_3
4094 1 2 0.000000000000 0.0 0.0 0.0 # O_
4095 1 4 0.000000000000 0.0 0.0 0.0 # Si3
4096 1 3 0.000000000000 0.0 0.0 0.0 # C_3
4097 1 3 0.000000000000 0.0 0.0 0.0 # C_3
4098 1 5 0.000000000000 0.0 0.0 0.0 # O_3
4099 1 4 0.000000000000 0.0 0.0 0.0 # Si3
4100 1 3 0.000000000000 0.0 0.0 0.0 # C_3
4101 1 3 0.000000000000 0.0 0.0 0.0 # C_3
4102 1 5 0.000000000000 0.0 0.0 0.0 # O_3
4103 1 4 0.000000000000 0.0 0.0 0.0 # Si3
4104 1 3 0.000000000000 0.0 0.0 0.0 # C_3
4105 1 3 0.000000000000 0.0 0.0 0.0 # C_3
4106 1 5 0.000000000000 0.0 0.0 0.0 # O_3
4107 1 4 0.000000000000 0.0 0.0 0.0 # Si3
4108 1 3 0.000000000000 0.0 0.0 0.0 # C_3
4109 1 3 0.000000000000 0.0 0.0 0.0 # C_3
4110 1 5 0.000000000000 0.0 0.0 0.0 # O_3
4111 1 4 0.000000000000 0.0 0.0 0.0 # Si3
4112 1 3 0.000000000000 0.0 0.0 0.0 # C_3
4113 1 3 0.000000000000 0.0 0.0 0.0 # C_3
4114 1 5 0.000000000000 0.0 0.0 0.0 # O_3
4115 1 2 0.000000000000 0.0 0.0 0.0 # O_
4116 1 4 0.000000000000 0.0 0.0 0.0 # Si3
4117 1 3 0.000000000000 0.0 0.0 0.0 # C_3
4118 1 3 0.000000000000 0.0 0.0 0.0 # C_3
4119 1 5 0.000000000000 0.0 0.0 0.0 # O_3
4120 1 4 0.000000000000 0.0 0.0 0.0 # Si3
4121 1 3 0.000000000000 0.0 0.0 0.0 # C_3
4122 1 3 0.000000000000 0.0 0.0 0.0 # C_3
4123 1 5 0.000000000000 0.0 0.0 0.0 # O_3
4124 1 4 0.000000000000 0.0 0.0 0.0 # Si3
4125 1 3 0.000000000000 0.0 0.0 0.0 # C_3
4126 1 3 0.000000000000 0.0 0.0 0.0 # C_3
4127 1 5 0.000000000000 0.0 0.0 0.0 # O_3
4128 1 4 0.000000000000 0.0 0.0 0.0 # Si3
4129 1 3 0.000000000000 0.0 0.0 0.0 # C_3
4130 1 3 0.000000000000 0.0 0.0 0.0 # C_3
4131 1 5 0.000000000000 0.0 0.0 0.0 # O_3
4132 1 4 0.000000000000 0.0 0.0 0.0 # Si3
4133 1 3 0.000000000000 0.0 0.0 0.0 # C_3
4134 1 3 0.000000000000 0.0 0.0 0.0 # C_3
4135 1 5 0.000000000000 0.0 0.0 0.0 # O_3
4136 1 2 0.000000000000 0.0 0.0 0.0 # O_
4137 1 4 0.000000000000 0.0 0.0 0.0 # Si3
4138 1 3 0.000000000000 0.0 0.0 0.0 # C_3
4139 1 3 0.000000000000 0.0 0.0 0.0 # C_3
4140 1 5 0.000000000000 0.0 0.0 0.0 # O_3
4141 1 4 0.000000000000 0.0 0.0 0.0 # Si3
4142 1 3 0.000000000000 0.0 0.0 0.0 # C_3
4143 1 3 0.000000000000 0.0 0.0 0.0 # C_3
4144 1 5 0.000000000000 0.0 0.0 0.0 # O_3
4145 1 4 0.000000000000 0.0 0.0 0.0 # Si3
4146 1 3 0.000000000000 0.0 0.0 0.0 # C_3
4147 1 3 0.000000000000 0.0 0.0 0.0 # C_3
4148 1 5 0.000000000000 0.0 0.0 0.0 # O_3
4149 1 4 0.000000000000 0.0 0.0 0.0 # Si3
4150 1 3 0.000000000000 0.0 0.0 0.0 # C_3
4151 1 3 0.000000000000 0.0 0.0 0.0 # C_3
4152 1 5 0.000000000000 0.0 0.0 0.0 # O_3
4153 1 4 0.000000000000 0.0 0.0 0.0 # Si3
4154 1 3 0.000000000000 0.0 0.0 0.0 # C_3
4155 1 3 0.000000000000 0.0 0.0 0.0 # C_3
4156 1 5 0.000000000000 0.0 0.0 0.0 # O_3
4157 1 2 0.000000000000 0.0 0.0 0.0 # O_
4158 1 4 0.000000000000 0.0 0.0 0.0 # Si3
4159 1 3 0.000000000000 0.0 0.0 0.0 # C_3
4160 1 3 0.000000000000 0.0 0.0 0.0 # C_3
4161 1 5 0.000000000000 0.0 0.0 0.0 # O_3
4162 1 4 0.000000000000 0.0 0.0 0.0 # Si3
4163 1 3 0.000000000000 0.0 0.0 0.0 # C_3
4164 1 3 0.000000000000 0.0 0.0 0.0 # C_3
4165 1 5 0.000000000000 0.0 0.0 0.0 # O_3
4166 1 4 0.000000000000 0.0 0.0 0.0 # Si3
4167 1 3 0.000000000000 0.0 0.0 0.0 # C_3
4168 1 3 0.000000000000 0.0 0.0 0.0 # C_3
4169 1 5 0.000000000000 0.0 0.0 0.0 # O_3
4170 1 4 0.000000000000 0.0 0.0 0.0 # Si3
4171 1 3 0.000000000000 0.0 0.0 0.0 # C_3
4172 1 3 0.000000000000 0.0 0.0 0.0 # C_3
4173 1 5 0.000000000000 0.0 0.0 0.0 # O_3
4174 1 4 0.000000000000 0.0 0.0 0.0 # Si3
4175 1 3 0.000000000000 0.0 0.0 0.0 # C_3
4176 1 3 0.000000000000 0.0 0.0 0.0 # C_3
4177 1 5 0.000000000000 0.0 0.0 0.0 # O_3
4178 1 2 0.000000000000 0.0 0.0 0.0 # O_
4179 1 4 0.000000000000 0.0 0.0 0.0 # Si3
4180 1 3 0.000000000000 0.0 0.0 0.0 # C_3
4181 1 3 0.000000000000 0.0 0.0 0.0 # C_3
4182 1 5 0.000000000000 0.0 0.0 0.0 # O_3
4183 1 4 0.000000000000 0.0 0.0 0.0 # Si3
4184 1 3 0.000000000000 0.0 0.0 0.0 # C_3
4185 1 3 0.000000000000 0.0 0.0 0.0 # C_3
4186 1 5 0.000000000000 0.0 0.0 0.0 # O_3
4187 1 4 0.000000000000 0.0 0.0 0.0 # Si3
4188 1 3 0.000000000000 0.0 0.0 0.0 # C_3
4189 1 3 0.000000000000 0.0 0.0 0.0 # C_3
4190 1 5 0.000000000000 0.0 0.0 0.0 # O_3
4191 1 4 0.000000000000 0.0 0.0 0.0 # Si3
4192 1 3 0.000000000000 0.0 0.0 0.0 # C_3
4193 1 3 0.000000000000 0.0 0.0 0.0 # C_3
4194 1 5 0.000000000000 0.0 0.0 0.0 # O_3
4195 1 4 0.000000000000 0.0 0.0 0.0 # Si3
4196 1 3 0.000000000000 0.0 0.0 0.0 # C_3
4197 1 3 0.000000000000 0.0 0.0 0.0 # C_3
4198 1 5 0.000000000000 0.0 0.0 0.0 # O_3
4199 1 2 0.000000000000 0.0 0.0 0.0 # O_
4200 1 4 0.000000000000 0.0 0.0 0.0 # Si3
4201 1 3 0.000000000000 0.0 0.0 0.0 # C_3
4202 1 3 0.000000000000 0.0 0.0 0.0 # C_3
4203 1 5 0.000000000000 0.0 0.0 0.0 # O_3
4204 1 4 0.000000000000 0.0 0.0 0.0 # Si3
4205 1 3 0.000000000000 0.0 0.0 0.0 # C_3
4206 1 3 0.000000000000 0.0 0.0 0.0 # C_3
4207 1 5 0.000000000000 0.0 0.0 0.0 # O_3
4208 1 4 0.000000000000 0.0 0.0 0.0 # Si3
4209 1 3 0.000000000000 0.0 0.0 0.0 # C_3
4210 1 3 0.000000000000 0.0 0.0 0.0 # C_3
4211 1 5 0.000000000000 0.0 0.0 0.0 # O_3
4212 1 4 0.000000000000 0.0 0.0 0.0 # Si3
4213 1 3 0.000000000000 0.0 0.0 0.0 # C_3
4214 1 3 0.000000000000 0.0 0.0 0.0 # C_3
4215 1 5 0.000000000000 0.0 0.0 0.0 # O_3
4216 1 4 0.000000000000 0.0 0.0 0.0 # Si3
4217 1 3 0.000000000000 0.0 0.0 0.0 # C_3
4218 1 3 0.000000000000 0.0 0.0 0.0 # C_3
4219 1 5 0.000000000000 0.0 0.0 0.0 # O_3
4220 1 2 0.000000000000 0.0 0.0 0.0 # O_
4221 1 4 0.000000000000 0.0 0.0 0.0 # Si3
4222 1 3 0.000000000000 0.0 0.0 0.0 # C_3
4223 1 3 0.000000000000 0.0 0.0 0.0 # C_3
4224 1 5 0.000000000000 0.0 0.0 0.0 # O_3
4225 1 4 0.000000000000 0.0 0.0 0.0 # Si3
4226 1 3 0.000000000000 0.0 0.0 0.0 # C_3
4227 1 3 0.000000000000 0.0 0.0 0.0 # C_3
4228 1 5 0.000000000000 0.0 0.0 0.0 # O_3
4229 1 4 0.000000000000 0.0 0.0 0.0 # Si3
4230 1 3 0.000000000000 0.0 0.0 0.0 # C_3
4231 1 3 0.000000000000 0.0 0.0 0.0 # C_3
4232 1 5 0.000000000000 0.0 0.0 0.0 # O_3
4233 1 4 0.000000000000 0.0 0.0 0.0 # Si3
4234 1 3 0.000000000000 0.0 0.0 0.0 # C_3
4235 1 3 0.000000000000 0.0 0.0 0.0 # C_3
4236 1 5 0.000000000000 0.0 0.0 0.0 # O_3
4237 1 4 0.000000000000 0.0 0.0 0.0 # Si3
4238 1 3 0.000000000000 0.0 0.0 0.0 # C_3
4239 1 3 0.000000000000 0.0 0.0 0.0 # C_3
4240 1 5 0.000000000000 0.0 0.0 0.0 # O_3
4241 1 2 0.000000000000 0.0 0.0 0.0 # O_
4242 1 4 0.000000000000 0.0 0.0 0.0 # Si3
4243 1 3 0.000000000000 0.0 0.0 0.0 # C_3
4244 1 3 0.000000000000 0.0 0.0 0.0 # C_3
4245 1 5 0.000000000000 0.0 0.0 0.0 # O_3
4246 1 4 0.000000000000 0.0 0.0 0.0 # Si3
4247 1 3 0.000000000000 0.0 0.0 0.0 # C_3
4248 1 3 0.000000000000 0.0 0.0 0.0 # C_3
4249 1 5 0.000000000000 0.0 0.0 0.0 # O_3
4250 1 4 0.000000000000 0.0 0.0 0.0 # Si3
4251 1 3 0.000000000000 0.0 0.0 0.0 # C_3
4252 1 3 0.000000000000 0.0 0.0 0.0 # C_3
4253 1 5 0.000000000000 0.0 0.0 0.0 # O_3
4254 1 4 0.000000000000 0.0 0.0 0.0 # Si3
4255 1 3 0.000000000000 0.0 0.0 0.0 # C_3
4256 1 3 0.000000000000 0.0 0.0 0.0 # C_3
4257 1 5 0.000000000000 0.0 0.0 0.0 # O_3
4258 1 4 0.000000000000 0.0 0.0 0.0 # Si3
4259 1 3 0.000000000000 0.0 0.0 0.0 # C_3
4260 1 3 0.000000000000 0.0 0.0 0.0 # C_3
4261 1 5 0.000000000000 0.0 0.0 0.0 # O_3
4262 1 2 0.000000000000 0.0 0.0 0.0 # O_
4263 1 4 0.000000000000 0.0 0.0 0.0 # Si3
4264 1 3 0.000000000000 0.0 0.0 0.0 # C_3
4265 1 3 0.000000000000 0.0 0.0 0.0 # C_3
4266 1 5 0.000000000000 0.0 0.0 0.0 # O_3
4267 1 4 0.000000000000 0.0 0.0 0.0 # Si3
4268 1 3 0.000000000000 0.0 0.0 0.0 # C_3
4269 1 3 0.000000000000 0.0 0.0 0.0 # C_3
4270 1 5 0.000000000000 0.0 0.0 0.0 # O_3
4271 1 4 0.000000000000 0.0 0.0 0.0 # Si3
4272 1 3 0.000000000000 0.0 0.0 0.0 # C_3
4273 1 3 0.000000000000 0.0 0.0 0.0 # C_3
4274 1 5 0.000000000000 0.0 0.0 0.0 # O_3
4275 1 4 0.000000000000 0.0 0.0 0.0 # Si3
4276 1 3 0.000000000000 0.0 0.0 0.0 # C_3
4277 1 3 0.000000000000 0.0 0.0 0.0 # C_3
4278 1 5 0.000000000000 0.0 0.0 0.0 # O_3
4279 1 4 0.000000000000 0.0 0.0 0.0 # Si3
4280 1 3 0.000000000000 0.0 0.0 0.0 # C_3
4281 1 3 0.000000000000 0.0 0.0 0.0 # C_3
4282 1 5 0.000000000000 0.0 0.0 0.0 # O_3
4283 1 2 0.000000000000 0.0 0.0 0.0 # O_
4284 1 4 0.000000000000 0.0 0.0 0.0 # Si3
4285 1 3 0.000000000000 0.0 0.0 0.0 # C_3
4286 1 3 0.000000000000 0.0 0.0 0.0 # C_3
4287 1 5 0.000000000000 0.0 0.0 0.0 # O_3
4288 1 4 0.000000000000 0.0 0.0 0.0 # Si3
4289 1 3 0.000000000000 0.0 0.0 0.0 # C_3
4290 1 3 0.000000000000 0.0 0.0 0.0 # C_3
4291 1 5 0.000000000000 0.0 0.0 0.0 # O_3
4292 1 4 0.000000000000 0.0 0.0 0.0 # Si3
4293 1 3 0.000000000000 0.0 0.0 0.0 # C_3
4294 1 3 0.000000000000 0.0 0.0 0.0 # C_3
4295 1 5 0.000000000000 0.0 0.0 0.0 # O_3
4296 1 4 0.000000000000 0.0 0.0 0.0 # Si3
4297 1 3 0.000000000000 0.0 0.0 0.0 # C_3
4298 1 3 0.000000000000 0.0 0.0 0.0 # C_3
4299 1 5 0.000000000000 0.0 0.0 0.0 # O_3
4300 1 4 0.000000000000 0.0 0.0 0.0 # Si3
4301 1 3 0.000000000000 0.0 0.0 0.0 # C_3
4302 1 3 0.000000000000 0.0 0.0 0.0 # C_3
4303 1 5 0.000000000000 0.0 0.0 0.0 # O_3
4304 1 2 0.000000000000 0.0 0.0 0.0 # O_
4305 1 4 0.000000000000 0.0 0.0 0.0 # Si3
4306 1 3 0.000000000000 0.0 0.0 0.0 # C_3
4307 1 3 0.000000000000 0.0 0.0 0.0 # C_3
4308 1 5 0.000000000000 0.0 0.0 0.0 # O_3
4309 1 4 0.000000000000 0.0 0.0 0.0 # Si3
4310 1 3 0.000000000000 0.0 0.0 0.0 # C_3
4311 1 3 0.000000000000 0.0 0.0 0.0 # C_3
4312 1 5 0.000000000000 0.0 0.0 0.0 # O_3
4313 1 4 0.000000000000 0.0 0.0 0.0 # Si3
4314 1 3 0.000000000000 0.0 0.0 0.0 # C_3
4315 1 3 0.000000000000 0.0 0.0 0.0 # C_3
4316 1 5 0.000000000000 0.0 0.0 0.0 # O_3
4317 1 4 0.000000000000 0.0 0.0 0.0 # Si3
4318 1 3 0.000000000000 0.0 0.0 0.0 # C_3
4319 1 3 0.000000000000 0.0 0.0 0.0 # C_3
4320 1 5 0.000000000000 0.0 0.0 0.0 # O_3
4321 1 4 0.000000000000 0.0 0.0 0.0 # Si3
4322 1 3 0.000000000000 0.0 0.0 0.0 # C_3
4323 1 3 0.000000000000 0.0 0.0 0.0 # C_3
4324 1 5 0.000000000000 0.0 0.0 0.0 # O_3
4325 1 2 0.000000000000 0.0 0.0 0.0 # O_
4326 1 4 0.000000000000 0.0 0.0 0.0 # Si3
4327 1 3 0.000000000000 0.0 0.0 0.0 # C_3
4328 1 3 0.000000000000 0.0 0.0 0.0 # C_3
4329 1 5 0.000000000000 0.0 0.0 0.0 # O_3
4330 1 4 0.000000000000 0.0 0.0 0.0 # Si3
4331 1 3 0.000000000000 0.0 0.0 0.0 # C_3
4332 1 3 0.000000000000 0.0 0.0 0.0 # C_3
4333 1 5 0.000000000000 0.0 0.0 0.0 # O_3
4334 1 4 0.000000000000 0.0 0.0 0.0 # Si3
4335 1 3 0.000000000000 0.0 0.0 0.0 # C_3
4336 1 3 0.000000000000 0.0 0.0 0.0 # C_3
4337 1 5 0.000000000000 0.0 0.0 0.0 # O_3
4338 1 4 0.000000000000 0.0 0.0 0.0 # Si3
4339 1 3 0.000000000000 0.0 0.0 0.0 # C_3
4340 1 3 0.000000000000 0.0 0.0 0.0 # C_3
4341 1 5 0.000000000000 0.0 0.0 0.0 # O_3
4342 1 4 0.000000000000 0.0 0.0 0.0 # Si3
4343 1 3 0.000000000000 0.0 0.0 0.0 # C_3
4344 1 3 0.000000000000 0.0 0.0 0.0 # C_3
4345 1 5 0.000000000000 0.0 0.0 0.0 # O_3
4346 1 2 0.000000000000 0.0 0.0 0.0 # O_
4347 1 4 0.000000000000 0.0 0.0 0.0 # Si3
4348 1 3 0.000000000000 0.0 0.0 0.0 # C_3
4349 1 3 0.000000000000 0.0 0.0 0.0 # C_3
4350 1 5 0.000000000000 0.0 0.0 0.0 # O_3
4351 1 4 0.000000000000 0.0 0.0 0.0 # Si3
4352 1 3 0.000000000000 0.0 0.0 0.0 # C_3
4353 1 3 0.000000000000 0.0 0.0 0.0 # C_3
4354 1 5 0.000000000000 0.0 0.0 0.0 # O_3
4355 1 4 0.000000000000 0.0 0.0 0.0 # Si3
4356 1 3 0.000000000000 0.0 0.0 0.0 # C_3
4357 1 3 0.000000000000 0.0 0.0 0.0 # C_3
4358 1 5 0.000000000000 0.0 0.0 0.0 # O_3
4359 1 4 0.000000000000 0.0 0.0 0.0 # Si3
4360 1 3 0.000000000000 0.0 0.0 0.0 # C_3
4361 1 3 0.000000000000 0.0 0.0 0.0 # C_3
4362 1 5 0.000000000000 0.0 0.0 0.0 # O_3
4363 1 4 0.000000000000 0.0 0.0 0.0 # Si3
4364 1 3 0.000000000000 0.0 0.0 0.0 # C_3
4365 1 3 0.000000000000 0.0 0.0 0.0 # C_3
4366 1 5 0.000000000000 0.0 0.0 0.0 # O_3
4367 1 2 0.000000000000 0.0 0.0 0.0 # O_
4368 1 4 0.000000000000 0.0 0.0 0.0 # Si3
4369 1 3 0.000000000000 0.0 0.0 0.0 # C_3
4370 1 3 0.000000000000 0.0 0.0 0.0 # C_3
4371 1 5 0.000000000000 0.0 0.0 0.0 # O_3
4372 1 4 0.000000000000 0.0 0.0 0.0 # Si3
4373 1 3 0.000000000000 0.0 0.0 0.0 # C_3
4374 1 3 0.000000000000 0.0 0.0 0.0 # C_3
4375 1 5 0.000000000000 0.0 0.0 0.0 # O_3
4376 1 4 0.000000000000 0.0 0.0 0.0 # Si3
4377 1 3 0.000000000000 0.0 0.0 0.0 # C_3
4378 1 3 0.000000000000 0.0 0.0 0.0 # C_3
4379 1 5 0.000000000000 0.0 0.0 0.0 # O_3
4380 1 4 0.000000000000 0.0 0.0 0.0 # Si3
4381 1 3 0.000000000000 0.0 0.0 0.0 # C_3
4382 1 3 0.000000000000 0.0 0.0 0.0 # C_3
4383 1 5 0.000000000000 0.0 0.0 0.0 # O_3
4384 1 4 0.000000000000 0.0 0.0 0.0 # Si3
4385 1 3 0.000000000000 0.0 0.0 0.0 # C_3
4386 1 3 0.000000000000 0.0 0.0 0.0 # C_3
4387 1 5 0.000000000000 0.0 0.0 0.0 # O_3
4388 1 2 0.000000000000 0.0 0.0 0.0 # O_
4389 1 4 0.000000000000 0.0 0.0 0.0 # Si3
4390 1 3 0.000000000000 0.0 0.0 0.0 # C_3
4391 1 3 0.000000000000 0.0 0.0 0.0 # C_3
4392 1 5 0.000000000000 0.0 0.0 0.0 # O_3
4393 1 4 0.000000000000 0.0 0.0 0.0 # Si3
4394 1 3 0.000000000000 0.0 0.0 0.0 # C_3
4395 1 3 0.000000000000 0.0 0.0 0.0 # C_3
4396 1 5 0.000000000000 0.0 0.0 0.0 # O_3
4397 1 4 0.000000000000 0.0 0.0 0.0 # Si3
4398 1 3 0.000000000000 0.0 0.0 0.0 # C_3
4399 1 3 0.000000000000 0.0 0.0 0.0 # C_3
4400 1 5 0.000000000000 0.0 0.0 0.0 # O_3
4401 1 4 0.000000000000 0.0 0.0 0.0 # Si3
4402 1 3 0.000000000000 0.0 0.0 0.0 # C_3
4403 1 3 0.000000000000 0.0 0.0 0.0 # C_3
4404 1 5 0.000000000000 0.0 0.0 0.0 # O_3
4405 1 4 0.000000000000 0.0 0.0 0.0 # Si3
4406 1 3 0.000000000000 0.0 0.0 0.0 # C_3
4407 1 3 0.000000000000 0.0 0.0 0.0 # C_3
4408 1 5 0.000000000000 0.0 0.0 0.0 # O_3
4409 1 2 0.000000000000 0.0 0.0 0.0 # O_
4410 1 4 0.000000000000 0.0 0.0 0.0 # Si3
4411 1 3 0.000000000000 0.0 0.0 0.0 # C_3
4412 1 3 0.000000000000 0.0 0.0 0.0 # C_3
4413 1 5 0.000000000000 0.0 0.0 0.0 # O_3
4414 1 4 0.000000000000 0.0 0.0 0.0 # Si3
4415 1 3 0.000000000000 0.0 0.0 0.0 # C_3
4416 1 3 0.000000000000 0.0 0.0 0.0 # C_3
4417 1 5 0.000000000000 0.0 0.0 0.0 # O_3
4418 1 4 0.000000000000 0.0 0.0 0.0 # Si3
4419 1 3 0.000000000000 0.0 0.0 0.0 # C_3
4420 1 3 0.000000000000 0.0 0.0 0.0 # C_3
4421 1 5 0.000000000000 0.0 0.0 0.0 # O_3
4422 1 4 0.000000000000 0.0 0.0 0.0 # Si3
4423 1 3 0.000000000000 0.0 0.0 0.0 # C_3
4424 1 3 0.000000000000 0.0 0.0 0.0 # C_3
4425 1 5 0.000000000000 0.0 0.0 0.0 # O_3
4426 1 4 0.000000000000 0.0 0.0 0.0 # Si3
4427 1 3 0.000000000000 0.0 0.0 0.0 # C_3
4428 1 3 0.000000000000 0.0 0.0 0.0 # C_3
4429 1 5 0.000000000000 0.0 0.0 0.0 # O_3
4430 1 2 0.000000000000 0.0 0.0 0.0 # O_
4431 1 4 0.000000000000 0.0 0.0 0.0 # Si3
4432 1 3 0.000000000000 0.0 0.0 0.0 # C_3
4433 1 3 0.000000000000 0.0 0.0 0.0 # C_3
4434 1 5 0.000000000000 0.0 0.0 0.0 # O_3
4435 1 4 0.000000000000 0.0 0.0 0.0 # Si3
4436 1 3 0.000000000000 0.0 0.0 0.0 # C_3
4437 1 3 0.000000000000 0.0 0.0 0.0 # C_3
4438 1 5 0.000000000000 0.0 0.0 0.0 # O_3
4439 1 4 0.000000000000 0.0 0.0 0.0 # Si3
4440 1 3 0.000000000000 0.0 0.0 0.0 # C_3
4441 1 3 0.000000000000 0.0 0.0 0.0 # C_3
4442 1 5 0.000000000000 0.0 0.0 0.0 # O_3
4443 1 4 0.000000000000 0.0 0.0 0.0 # Si3
4444 1 3 0.000000000000 0.0 0.0 0.0 # C_3
4445 1 3 0.000000000000 0.0 0.0 0.0 # C_3
4446 1 5 0.000000000000 0.0 0.0 0.0 # O_3
4447 1 4 0.000000000000 0.0 0.0 0.0 # Si3
4448 1 3 0.000000000000 0.0 0.0 0.0 # C_3
4449 1 3 0.000000000000 0.0 0.0 0.0 # C_3
4450 1 5 0.000000000000 0.0 0.0 0.0 # O_3
4451 1 2 0.000000000000 0.0 0.0 0.0 # O_
4452 1 4 0.000000000000 0.0 0.0 0.0 # Si3
4453 1 3 0.000000000000 0.0 0.0 0.0 # C_3
4454 1 3 0.000000000000 0.0 0.0 0.0 # C_3
4455 1 5 0.000000000000 0.0 0.0 0.0 # O_3
4456 1 4 0.000000000000 0.0 0.0 0.0 # Si3
4457 1 3 0.000000000000 0.0 0.0 0.0 # C_3
4458 1 3 0.000000000000 0.0 0.0 0.0 # C_3
4459 1 5 0.000000000000 0.0 0.0 0.0 # O_3
4460 1 4 0.000000000000 0.0 0.0 0.0 # Si3
4461 1 3 0.000000000000 0.0 0.0 0.0 # C_3
4462 1 3 0.000000000000 0.0 0.0 0.0 # C_3
4463 1 5 0.000000000000 0.0 0.0 0.0 # O_3
4464 1 4 0.000000000000 0.0 0.0 0.0 # Si3
4465 1 3 0.000000000000 0.0 0.0 0.0 # C_3
4466 1 3 0.000000000000 0.0 0.0 0.0 # C_3
4467 1 5 0.000000000000 0.0 0.0 0.0 # O_3
4468 1 4 0.000000000000 0.0 0.0 0.0 # Si3
4469 1 3 0.000000000000 0.0 0.0 0.0 # C_3
4470 1 3 0.000000000000 0.0 0.0 0.0 # C_3
4471 1 5 0.000000000000 0.0 0.0 0.0 # O_3
4472 1 2 0.000000000000 0.0 0.0 0.0 # O_
4473 1 4 0.000000000000 0.0 0.0 0.0 # Si3
4474 1 3 0.000000000000 0.0 0.0 0.0 # C_3
4475 1 3 0.000000000000 0.0 0.0 0.0 # C_3
4476 1 5 0.000000000000 0.0 0.0 0.0 # O_3
4477 1 4 0.000000000000 0.0 0.0 0.0 # Si3
4478 1 3 0.000000000000 0.0 0.0 0.0 # C_3
4479 1 3 0.000000000000 0.0 0.0 0.0 # C_3
4480 1 5 0.000000000000 0.0 0.0 0.0 # O_3
4481 1 4 0.000000000000 0.0 0.0 0.0 # Si3
4482 1 3 0.000000000000 0.0 0.0 0.0 # C_3
4483 1 3 0.000000000000 0.0 0.0 0.0 # C_3
4484 1 5 0.000000000000 0.0 0.0 0.0 # O_3
4485 1 4 0.000000000000 0.0 0.0 0.0 # Si3
4486 1 3 0.000000000000 0.0 0.0 0.0 # C_3
4487 1 3 0.000000000000 0.0 0.0 0.0 # C_3
4488 1 5 0.000000000000 0.0 0.0 0.0 # O_3
4489 1 4 0.000000000000 0.0 0.0 0.0 # Si3
4490 1 3 0.000000000000 0.0 0.0 0.0 # C_3
4491 1 3 0.000000000000 0.0 0.0 0.0 # C_3
4492 1 5 0.000000000000 0.0 0.0 0.0 # O_3
4493 1 2 0.000000000000 0.0 0.0 0.0 # O_
4494 1 4 0.000000000000 0.0 0.0 0.0 # Si3
4495 1 3 0.000000000000 0.0 0.0 0.0 # C_3
4496 1 3 0.000000000000 0.0 0.0 0.0 # C_3
4497 1 5 0.000000000000 0.0 0.0 0.0 # O_3
4498 1 4 0.000000000000 0.0 0.0 0.0 # Si3
4499 1 3 0.000000000000 0.0 0.0 0.0 # C_3
4500 1 3 0.000000000000 0.0 0.0 0.0 # C_3
4501 1 5 0.000000000000 0.0 0.0 0.0 # O_3
4502 1 4 0.000000000000 0.0 0.0 0.0 # Si3
4503 1 3 0.000000000000 0.0 0.0 0.0 # C_3
4504 1 3 0.000000000000 0.0 0.0 0.0 # C_3
4505 1 5 0.000000000000 0.0 0.0 0.0 # O_3
4506 1 4 0.000000000000 0.0 0.0 0.0 # Si3
4507 1 3 0.000000000000 0.0 0.0 0.0 # C_3
4508 1 3 0.000000000000 0.0 0.0 0.0 # C_3
4509 1 5 0.000000000000 0.0 0.0 0.0 # O_3
4510 1 4 0.000000000000 0.0 0.0 0.0 # Si3
4511 1 3 0.000000000000 0.0 0.0 0.0 # C_3
4512 1 3 0.000000000000 0.0 0.0 0.0 # C_3
4513 1 5 0.000000000000 0.0 0.0 0.0 # O_3
4514 1 2 0.000000000000 0.0 0.0 0.0 # O_
4515 1 4 0.000000000000 0.0 0.0 0.0 # Si3
4516 1 3 0.000000000000 0.0 0.0 0.0 # C_3
4517 1 3 0.000000000000 0.0 0.0 0.0 # C_3
4518 1 5 0.000000000000 0.0 0.0 0.0 # O_3
4519 1 4 0.000000000000 0.0 0.0 0.0 # Si3
4520 1 3 0.000000000000 0.0 0.0 0.0 # C_3
4521 1 3 0.000000000000 0.0 0.0 0.0 # C_3
4522 1 5 0.000000000000 0.0 0.0 0.0 # O_3
4523 1 4 0.000000000000 0.0 0.0 0.0 # Si3
4524 1 3 0.000000000000 0.0 0.0 0.0 # C_3
4525 1 3 0.000000000000 0.0 0.0 0.0 # C_3
4526 1 5 0.000000000000 0.0 0.0 0.0 # O_3
4527 1 4 0.000000000000 0.0 0.0 0.0 # Si3
4528 1 3 0.000000000000 0.0 0.0 0.0 # C_3
4529 1 3 0.000000000000 0.0 0.0 0.0 # C_3
4530 1 5 0.000000000000 0.0 0.0 0.0 # O_3
4531 1 4 0.000000000000 0.0 0.0 0.0 # Si3
4532 1 3 0.000000000000 0.0 0.0 0.0 # C_3
4533 1 3 0.000000000000 0.0 0.0 0.0 # C_3
4534 1 5 0.000000000000 0.0 0.0 0.0 # O_3
4535 1 2 0.000000000000 0.0 0.0 0.0 # O_
4536 1 4 0.000000000000 0.0 0.0 0.0 # Si3
4537 1 3 0.000000000000 0.0 0.0 0.0 # C_3
4538 1 3 0.000000000000 0.0 0.0 0.0 # C_3
4539 1 5 0.000000000000 0.0 0.0 0.0 # O_3
4540 1 4 0.000000000000 0.0 0.0 0.0 # Si3
4541 1 3 0.000000000000 0.0 0.0 0.0 # C_3
4542 1 3 0.000000000000 0.0 0.0 0.0 # C_3
4543 1 5 0.000000000000 0.0 0.0 0.0 # O_3
4544 1 4 0.000000000000 0.0 0.0 0.0 # Si3
4545 1 3 0.000000000000 0.0 0.0 0.0 # C_3
4546 1 3 0.000000000000 0.0 0.0 0.0 # C_3
4547 1 5 0.000000000000 0.0 0.0 0.0 # O_3
4548 1 4 0.000000000000 0.0 0.0 0.0 # Si3
4549 1 3 0.000000000000 0.0 0.0 0.0 # C_3
4550 1 3 0.000000000000 0.0 0.0 0.0 # C_3
4551 1 5 0.000000000000 0.0 0.0 0.0 # O_3
4552 1 4 0.000000000000 0.0 0.0 0.0 # Si3
4553 1 3 0.000000000000 0.0 0.0 0.0 # C_3
4554 1 3 0.000000000000 0.0 0.0 0.0 # C_3
4555 1 5 0.000000000000 0.0 0.0 0.0 # O_3
4556 1 2 0.000000000000 0.0 0.0 0.0 # O_
4557 1 4 0.000000000000 0.0 0.0 0.0 # Si3
4558 1 3 0.000000000000 0.0 0.0 0.0 # C_3
4559 1 3 0.000000000000 0.0 0.0 0.0 # C_3
4560 1 5 0.000000000000 0.0 0.0 0.0 # O_3
4561 1 4 0.000000000000 0.0 0.0 0.0 # Si3
4562 1 3 0.000000000000 0.0 0.0 0.0 # C_3
4563 1 3 0.000000000000 0.0 0.0 0.0 # C_3
4564 1 5 0.000000000000 0.0 0.0 0.0 # O_3
4565 1 4 0.000000000000 0.0 0.0 0.0 # Si3
4566 1 3 0.000000000000 0.0 0.0 0.0 # C_3
4567 1 3 0.000000000000 0.0 0.0 0.0 # C_3
4568 1 5 0.000000000000 0.0 0.0 0.0 # O_3
4569 1 4 0.000000000000 0.0 0.0 0.0 # Si3
4570 1 3 0.000000000000 0.0 0.0 0.0 # C_3
4571 1 3 0.000000000000 0.0 0.0 0.0 # C_3
4572 1 5 0.000000000000 0.0 0.0 0.0 # O_3
4573 1 4 0.000000000000 0.0 0.0 0.0 # Si3
4574 1 3 0.000000000000 0.0 0.0 0.0 # C_3
4575 1 3 0.000000000000 0.0 0.0 0.0 # C_3
4576 1 5 0.000000000000 0.0 0.0 0.0 # O_3
4577 1 2 0.000000000000 0.0 0.0 0.0 # O_
4578 1 4 0.000000000000 0.0 0.0 0.0 # Si3
4579 1 3 0.000000000000 0.0 0.0 0.0 # C_3
4580 1 3 0.000000000000 0.0 0.0 0.0 # C_3
4581 1 5 0.000000000000 0.0 0.0 0.0 # O_3
4582 1 4 0.000000000000 0.0 0.0 0.0 # Si3
4583 1 3 0.000000000000 0.0 0.0 0.0 # C_3
4584 1 3 0.000000000000 0.0 0.0 0.0 # C_3
4585 1 5 0.000000000000 0.0 0.0 0.0 # O_3
4586 1 4 0.000000000000 0.0 0.0 0.0 # Si3
4587 1 3 0.000000000000 0.0 0.0 0.0 # C_3
4588 1 3 0.000000000000 0.0 0.0 0.0 # C_3
4589 1 5 0.000000000000 0.0 0.0 0.0 # O_3
4590 1 4 0.000000000000 0.0 0.0 0.0 # Si3
4591 1 3 0.000000000000 0.0 0.0 0.0 # C_3
4592 1 3 0.000000000000 0.0 0.0 0.0 # C_3
4593 1 5 0.000000000000 0.0 0.0 0.0 # O_3
4594 1 4 0.000000000000 0.0 0.0 0.0 # Si3
4595 1 3 0.000000000000 0.0 0.0 0.0 # C_3
4596 1 3 0.000000000000 0.0 0.0 0.0 # C_3
4597 1 5 0.000000000000 0.0 0.0 0.0 # O_3
4598 1 2 0.000000000000 0.0 0.0 0.0 # O_
4599 1 4 0.000000000000 0.0 0.0 0.0 # Si3
4600 1 3 0.000000000000 0.0 0.0 0.0 # C_3
4601 1 3 0.000000000000 0.0 0.0 0.0 # C_3
4602 1 5 0.000000000000 0.0 0.0 0.0 # O_3
4603 1 4 0.000000000000 0.0 0.0 0.0 # Si3
4604 1 3 0.000000000000 0.0 0.0 0.0 # C_3
4605 1 3 0.000000000000 0.0 0.0 0.0 # C_3
4606 1 5 0.000000000000 0.0 0.0 0.0 # O_3
4607 1 4 0.000000000000 0.0 0.0 0.0 # Si3
4608 1 3 0.000000000000 0.0 0.0 0.0 # C_3
4609 1 3 0.000000000000 0.0 0.0 0.0 # C_3
4610 1 5 0.000000000000 0.0 0.0 0.0 # O_3
4611 1 4 0.000000000000 0.0 0.0 0.0 # Si3
4612 1 3 0.000000000000 0.0 0.0 0.0 # C_3
4613 1 3 0.000000000000 0.0 0.0 0.0 # C_3
4614 1 5 0.000000000000 0.0 0.0 0.0 # O_3
4615 1 4 0.000000000000 0.0 0.0 0.0 # Si3
4616 1 3 0.000000000000 0.0 0.0 0.0 # C_3
4617 1 3 0.000000000000 0.0 0.0 0.0 # C_3
4618 1 5 0.000000000000 0.0 0.0 0.0 # O_3
4619 1 2 0.000000000000 0.0 0.0 0.0 # O_
4620 1 4 0.000000000000 0.0 0.0 0.0 # Si3
4621 1 3 0.000000000000 0.0 0.0 0.0 # C_3
4622 1 3 0.000000000000 0.0 0.0 0.0 # C_3
4623 1 5 0.000000000000 0.0 0.0 0.0 # O_3
4624 1 4 0.000000000000 0.0 0.0 0.0 # Si3
4625 1 3 0.000000000000 0.0 0.0 0.0 # C_3
4626 1 3 0.000000000000 0.0 0.0 0.0 # C_3
4627 1 5 0.000000000000 0.0 0.0 0.0 # O_3
4628 1 4 0.000000000000 0.0 0.0 0.0 # Si3
4629 1 3 0.000000000000 0.0 0.0 0.0 # C_3
4630 1 3 0.000000000000 0.0 0.0 0.0 # C_3
4631 1 5 0.000000000000 0.0 0.0 0.0 # O_3
4632 1 4 0.000000000000 0.0 0.0 0.0 # Si3
4633 1 3 0.000000000000 0.0 0.0 0.0 # C_3
4634 1 3 0.000000000000 0.0 0.0 0.0 # C_3
4635 1 5 0.000000000000 0.0 0.0 0.0 # O_3
4636 1 4 0.000000000000 0.0 0.0 0.0 # Si3
4637 1 3 0.000000000000 0.0 0.0 0.0 # C_3
4638 1 3 0.000000000000 0.0 0.0 0.0 # C_3
4639 1 5 0.000000000000 0.0 0.0 0.0 # O_3
4640 1 2 0.000000000000 0.0 0.0 0.0 # O_
4641 1 4 0.000000000000 0.0 0.0 0.0 # Si3
4642 1 3 0.000000000000 0.0 0.0 0.0 # C_3
4643 1 3 0.000000000000 0.0 0.0 0.0 # C_3
4644 1 5 0.000000000000 0.0 0.0 0.0 # O_3
4645 1 4 0.000000000000 0.0 0.0 0.0 # Si3
4646 1 3 0.000000000000 0.0 0.0 0.0 # C_3
4647 1 3 0.000000000000 0.0 0.0 0.0 # C_3
4648 1 5 0.000000000000 0.0 0.0 0.0 # O_3
4649 1 4 0.000000000000 0.0 0.0 0.0 # Si3
4650 1 3 0.000000000000 0.0 0.0 0.0 # C_3
4651 1 3 0.000000000000 0.0 0.0 0.0 # C_3
4652 1 5 0.000000000000 0.0 0.0 0.0 # O_3
4653 1 4 0.000000000000 0.0 0.0 0.0 # Si3
4654 1 3 0.000000000000 0.0 0.0 0.0 # C_3
4655 1 3 0.000000000000 0.0 0.0 0.0 # C_3
4656 1 5 0.000000000000 0.0 0.0 0.0 # O_3
4657 1 4 0.000000000000 0.0 0.0 0.0 # Si3
4658 1 3 0.000000000000 0.0 0.0 0.0 # C_3
4659 1 3 0.000000000000 0.0 0.0 0.0 # C_3
4660 1 5 0.000000000000 0.0 0.0 0.0 # O_3
4661 1 2 0.000000000000 0.0 0.0 0.0 # O_
4662 1 4 0.000000000000 0.0 0.0 0.0 # Si3
4663 1 3 0.000000000000 0.0 0.0 0.0 # C_3
4664 1 3 0.000000000000 0.0 0.0 0.0 # C_3
4665 1 5 0.000000000000 0.0 0.0 0.0 # O_3
4666 1 4 0.000000000000 0.0 0.0 0.0 # Si3
4667 1 3 0.000000000000 0.0 0.0 0.0 # C_3
4668 1 3 0.000000000000 0.0 0.0 0.0 # C_3
4669 1 5 0.000000000000 0.0 0.0 0.0 # O_3
4670 1 4 0.000000000000 0.0 0.0 0.0 # Si3
4671 1 3 0.000000000000 0.0 0.0 0.0 # C_3
4672 1 3 0.000000000000 0.0 0.0 0.0 # C_3
4673 1 5 0.000000000000 0.0 0.0 0.0 # O_3
4674 1 4 0.000000000000 0.0 0.0 0.0 # Si3
4675 1 3 0.000000000000 0.0 0.0 0.0 # C_3
4676 1 3 0.000000000000 0.0 0.0 0.0 # C_3
4677 1 5 0.000000000000 0.0 0.0 0.0 # O_3
4678 1 4 0.000000000000 0.0 0.0 0.0 # Si3
4679 1 3 0.000000000000 0.0 0.0 0.0 # C_3
4680 1 3 0.000000000000 0.0 0.0 0.0 # C_3
4681 1 5 0.000000000000 0.0 0.0 0.0 # O_3
4682 1 2 0.000000000000 0.0 0.0 0.0 # O_
4683 1 4 0.000000000000 0.0 0.0 0.0 # Si3
4684 1 3 0.000000000000 0.0 0.0 0.0 # C_3
4685 1 3 0.000000000000 0.0 0.0 0.0 # C_3
4686 1 5 0.000000000000 0.0 0.0 0.0 # O_3
4687 1 4 0.000000000000 0.0 0.0 0.0 # Si3
4688 1 3 0.000000000000 0.0 0.0 0.0 # C_3
4689 1 3 0.000000000000 0.0 0.0 0.0 # C_3
4690 1 5 0.000000000000 0.0 0.0 0.0 # O_3
4691 1 4 0.000000000000 0.0 0.0 0.0 # Si3
4692 1 3 0.000000000000 0.0 0.0 0.0 # C_3
4693 1 3 0.000000000000 0.0 0.0 0.0 # C_3
4694 1 5 0.000000000000 0.0 0.0 0.0 # O_3
4695 1 4 0.000000000000 0.0 0.0 0.0 # Si3
4696 1 3 0.000000000000 0.0 0.0 0.0 # C_3
4697 1 3 0.000000000000 0.0 0.0 0.0 # C_3
4698 1 5 0.000000000000 0.0 0.0 0.0 # O_3
4699 1 4 0.000000000000 0.0 0.0 0.0 # Si3
4700 1 3 0.000000000000 0.0 0.0 0.0 # C_3
4701 1 3 0.000000000000 0.0 0.0 0.0 # C_3
4702 1 5 0.000000000000 0.0 0.0 0.0 # O_3
4703 1 2 0.000000000000 0.0 0.0 0.0 # O_
4704 1 4 0.000000000000 0.0 0.0 0.0 # Si3
4705 1 3 0.000000000000 0.0 0.0 0.0 # C_3
4706 1 3 0.000000000000 0.0 0.0 0.0 # C_3
4707 1 5 0.000000000000 0.0 0.0 0.0 # O_3
4708 1 4 0.000000000000 0.0 0.0 0.0 # Si3
4709 1 3 0.000000000000 0.0 0.0 0.0 # C_3
4710 1 3 0.000000000000 0.0 0.0 0.0 # C_3
4711 1 5 0.000000000000 0.0 0.0 0.0 # O_3
4712 1 4 0.000000000000 0.0 0.0 0.0 # Si3
4713 1 3 0.000000000000 0.0 0.0 0.0 # C_3
4714 1 3 0.000000000000 0.0 0.0 0.0 # C_3
4715 1 5 0.000000000000 0.0 0.0 0.0 # O_3
4716 1 4 0.000000000000 0.0 0.0 0.0 # Si3
4717 1 3 0.000000000000 0.0 0.0 0.0 # C_3
4718 1 3 0.000000000000 0.0 0.0 0.0 # C_3
4719 1 5 0.000000000000 0.0 0.0 0.0 # O_3
4720 1 4 0.000000000000 0.0 0.0 0.0 # Si3
4721 1 3 0.000000000000 0.0 0.0 0.0 # C_3
4722 1 3 0.000000000000 0.0 0.0 0.0 # C_3
4723 1 5 0.000000000000 0.0 0.0 0.0 # O_3
4724 1 2 0.000000000000 0.0 0.0 0.0 # O_
4725 1 4 0.000000000000 0.0 0.0 0.0 # Si3
4726 1 3 0.000000000000 0.0 0.0 0.0 # C_3
4727 1 3 0.000000000000 0.0 0.0 0.0 # C_3
4728 1 5 0.000000000000 0.0 0.0 0.0 # O_3
4729 1 4 0.000000000000 0.0 0.0 0.0 # Si3
4730 1 3 0.000000000000 0.0 0.0 0.0 # C_3
4731 1 3 0.000000000000 0.0 0.0 0.0 # C_3
4732 1 5 0.000000000000 0.0 0.0 0.0 # O_3
4733 1 4 0.000000000000 0.0 0.0 0.0 # Si3
4734 1 3 0.000000000000 0.0 0.0 0.0 # C_3
4735 1 3 0.000000000000 0.0 0.0 0.0 # C_3
4736 1 5 0.000000000000 0.0 0.0 0.0 # O_3
4737 1 4 0.000000000000 0.0 0.0 0.0 # Si3
4738 1 3 0.000000000000 0.0 0.0 0.0 # C_3
4739 1 3 0.000000000000 0.0 0.0 0.0 # C_3
4740 1 5 0.000000000000 0.0 0.0 0.0 # O_3
4741 1 4 0.000000000000 0.0 0.0 0.0 # Si3
4742 1 3 0.000000000000 0.0 0.0 0.0 # C_3
4743 1 3 0.000000000000 0.0 0.0 0.0 # C_3
4744 1 5 0.000000000000 0.0 0.0 0.0 # O_3
4745 1 2 0.000000000000 0.0 0.0 0.0 # O_
4746 1 4 0.000000000000 0.0 0.0 0.0 # Si3
4747 1 3 0.000000000000 0.0 0.0 0.0 # C_3
4748 1 3 0.000000000000 0.0 0.0 0.0 # C_3
4749 1 5 0.000000000000 0.0 0.0 0.0 # O_3
4750 1 4 0.000000000000 0.0 0.0 0.0 # Si3
4751 1 3 0.000000000000 0.0 0.0 0.0 # C_3
4752 1 3 0.000000000000 0.0 0.0 0.0 # C_3
4753 1 5 0.000000000000 0.0 0.0 0.0 # O_3
4754 1 4 0.000000000000 0.0 0.0 0.0 # Si3
4755 1 3 0.000000000000 0.0 0.0 0.0 # C_3
4756 1 3 0.000000000000 0.0 0.0 0.0 # C_3
4757 1 5 0.000000000000 0.0 0.0 0.0 # O_3
4758 1 4 0.000000000000 0.0 0.0 0.0 # Si3
4759 1 3 0.000000000000 0.0 0.0 0.0 # C_3
4760 1 3 0.000000000000 0.0 0.0 0.0 # C_3
4761 1 5 0.000000000000 0.0 0.0 0.0 # O_3
4762 1 4 0.000000000000 0.0 0.0 0.0 # Si3
4763 1 3 0.000000000000 0.0 0.0 0.0 # C_3
4764 1 3 0.000000000000 0.0 0.0 0.0 # C_3
4765 1 5 0.000000000000 0.0 0.0 0.0 # O_3
4766 1 2 0.000000000000 0.0 0.0 0.0 # O_
4767 1 4 0.000000000000 0.0 0.0 0.0 # Si3
4768 1 3 0.000000000000 0.0 0.0 0.0 # C_3
4769 1 3 0.000000000000 0.0 0.0 0.0 # C_3
4770 1 5 0.000000000000 0.0 0.0 0.0 # O_3
4771 1 4 0.000000000000 0.0 0.0 0.0 # Si3
4772 1 3 0.000000000000 0.0 0.0 0.0 # C_3
4773 1 3 0.000000000000 0.0 0.0 0.0 # C_3
4774 1 5 0.000000000000 0.0 0.0 0.0 # O_3
4775 1 4 0.000000000000 0.0 0.0 0.0 # Si3
4776 1 3 0.000000000000 0.0 0.0 0.0 # C_3
4777 1 3 0.000000000000 0.0 0.0 0.0 # C_3
4778 1 5 0.000000000000 0.0 0.0 0.0 # O_3
4779 1 4 0.000000000000 0.0 0.0 0.0 # Si3
4780 1 3 0.000000000000 0.0 0.0 0.0 # C_3
4781 1 3 0.000000000000 0.0 0.0 0.0 # C_3
4782 1 5 0.000000000000 0.0 0.0 0.0 # O_3
4783 1 4 0.000000000000 0.0 0.0 0.0 # Si3
4784 1 3 0.000000000000 0.0 0.0 0.0 # C_3
4785 1 3 0.000000000000 0.0 0.0 0.0 # C_3
4786 1 5 0.000000000000 0.0 0.0 0.0 # O_3
4787 1 2 0.000000000000 0.0 0.0 0.0 # O_
4788 1 4 0.000000000000 0.0 0.0 0.0 # Si3
4789 1 3 0.000000000000 0.0 0.0 0.0 # C_3
4790 1 3 0.000000000000 0.0 0.0 0.0 # C_3
4791 1 5 0.000000000000 0.0 0.0 0.0 # O_3
4792 1 4 0.000000000000 0.0 0.0 0.0 # Si3
4793 1 3 0.000000000000 0.0 0.0 0.0 # C_3
4794 1 3 0.000000000000 0.0 0.0 0.0 # C_3
4795 1 5 0.000000000000 0.0 0.0 0.0 # O_3
4796 1 4 0.000000000000 0.0 0.0 0.0 # Si3
4797 1 3 0.000000000000 0.0 0.0 0.0 # C_3
4798 1 3 0.000000000000 0.0 0.0 0.0 # C_3
4799 1 5 0.000000000000 0.0 0.0 0.0 # O_3
4800 1 4 0.000000000000 0.0 0.0 0.0 # Si3
4801 1 3 0.000000000000 0.0 0.0 0.0 # C_3
4802 1 3 0.000000000000 0.0 0.0 0.0 # C_3
4803 1 5 0.000000000000 0.0 0.0 0.0 # O_3
4804 1 4 0.000000000000 0.0 0.0 0.0 # Si3
4805 1 3 0.000000000000 0.0 0.0 0.0 # C_3
4806 1 3 0.000000000000 0.0 0.0 0.0 # C_3
4807 1 5 0.000000000000 0.0 0.0 0.0 # O_3
4808 1 2 0.000000000000 0.0 0.0 0.0 # O_
4809 1 4 0.000000000000 0.0 0.0 0.0 # Si3
4810 1 3 0.000000000000 0.0 0.0 0.0 # C_3
4811 1 3 0.000000000000 0.0 0.0 0.0 # C_3
4812 1 5 0.000000000000 0.0 0.0 0.0 # O_3
4813 1 4 0.000000000000 0.0 0.0 0.0 # Si3
4814 1 3 0.000000000000 0.0 0.0 0.0 # C_3
4815 1 3 0.000000000000 0.0 0.0 0.0 # C_3
4816 1 5 0.000000000000 0.0 0.0 0.0 # O_3
4817 1 4 0.000000000000 0.0 0.0 0.0 # Si3
4818 1 3 0.000000000000 0.0 0.0 0.0 # C_3
4819 1 3 0.000000000000 0.0 0.0 0.0 # C_3
4820 1 5 0.000000000000 0.0 0.0 0.0 # O_3
4821 1 4 0.000000000000 0.0 0.0 0.0 # Si3
4822 1 3 0.000000000000 0.0 0.0 0.0 # C_3
4823 1 3 0.000000000000 0.0 0.0 0.0 # C_3
4824 1 5 0.000000000000 0.0 0.0 0.0 # O_3
4825 1 4 0.000000000000 0.0 0.0 0.0 # Si3
4826 1 3 0.000000000000 0.0 0.0 0.0 # C_3
4827 1 3 0.000000000000 0.0 0.0 0.0 # C_3
4828 1 5 0.000000000000 0.0 0.0 0.0 # O_3
4829 1 2 0.000000000000 0.0 0.0 0.0 # O_
4830 1 4 0.000000000000 0.0 0.0 0.0 # Si3
4831 1 3 0.000000000000 0.0 0.0 0.0 # C_3
4832 1 3 0.000000000000 0.0 0.0 0.0 # C_3
4833 1 5 0.000000000000 0.0 0.0 0.0 # O_3
4834 1 4 0.000000000000 0.0 0.0 0.0 # Si3
4835 1 3 0.000000000000 0.0 0.0 0.0 # C_3
4836 1 3 0.000000000000 0.0 0.0 0.0 # C_3
4837 1 5 0.000000000000 0.0 0.0 0.0 # O_3
4838 1 4 0.000000000000 0.0 0.0 0.0 # Si3
4839 1 3 0.000000000000 0.0 0.0 0.0 # C_3
4840 1 3 0.000000000000 0.0 0.0 0.0 # C_3
4841 1 5 0.000000000000 0.0 0.0 0.0 # O_3
4842 1 4 0.000000000000 0.0 0.0 0.0 # Si3
4843 1 3 0.000000000000 0.0 0.0 0.0 # C_3
4844 1 3 0.000000000000 0.0 0.0 0.0 # C_3
4845 1 5 0.000000000000 0.0 0.0 0.0 # O_3
4846 1 4 0.000000000000 0.0 0.0 0.0 # Si3
4847 1 3 0.000000000000 0.0 0.0 0.0 # C_3
4848 1 3 0.000000000000 0.0 0.0 0.0 # C_3
4849 1 5 0.000000000000 0.0 0.0 0.0 # O_3
4850 1 2 0.000000000000 0.0 0.0 0.0 # O_
4851 1 4 0.000000000000 0.0 0.0 0.0 # Si3
4852 1 3 0.000000000000 0.0 0.0 0.0 # C_3
4853 1 3 0.000000000000 0.0 0.0 0.0 # C_3
4854 1 5 0.000000000000 0.0 0.0 0.0 # O_3
4855 1 4 0.000000000000 0.0 0.0 0.0 # Si3
4856 1 3 0.000000000000 0.0 0.0 0.0 # C_3
4857 1 3 0.000000000000 0.0 0.0 0.0 # C_3
4858 1 5 0.000000000000 0.0 0.0 0.0 # O_3
4859 1 4 0.000000000000 0.0 0.0 0.0 # Si3
4860 1 3 0.000000000000 0.0 0.0 0.0 # C_3
4861 1 3 0.000000000000 0.0 0.0 0.0 # C_3
4862 1 5 0.000000000000 0.0 0.0 0.0 # O_3
4863 1 4 0.000000000000 0.0 0.0 0.0 # Si3
4864 1 3 0.000000000000 0.0 0.0 0.0 # C_3
4865 1 3 0.000000000000 0.0 0.0 0.0 # C_3
4866 1 5 0.000000000000 0.0 0.0 0.0 # O_3
4867 1 4 0.000000000000 0.0 0.0 0.0 # Si3
4868 1 3 0.000000000000 0.0 0.0 0.0 # C_3
4869 1 3 0.000000000000 0.0 0.0 0.0 # C_3
4870 1 5 0.000000000000 0.0 0.0 0.0 # O_3
4871 1 2 0.000000000000 0.0 0.0 0.0 # O_
4872 1 4 0.000000000000 0.0 0.0 0.0 # Si3
4873 1 3 0.000000000000 0.0 0.0 0.0 # C_3
4874 1 3 0.000000000000 0.0 0.0 0.0 # C_3
4875 1 5 0.000000000000 0.0 0.0 0.0 # O_3
4876 1 4 0.000000000000 0.0 0.0 0.0 # Si3
4877 1 3 0.000000000000 0.0 0.0 0.0 # C_3
4878 1 3 0.000000000000 0.0 0.0 0.0 # C_3
4879 1 5 0.000000000000 0.0 0.0 0.0 # O_3
4880 1 4 0.000000000000 0.0 0.0 0.0 # Si3
4881 1 3 0.000000000000 0.0 0.0 0.0 # C_3
4882 1 3 0.000000000000 0.0 0.0 0.0 # C_3
4883 1 5 0.000000000000 0.0 0.0 0.0 # O_3
4884 1 4 0.000000000000 0.0 0.0 0.0 # Si3
4885 1 3 0.000000000000 0.0 0.0 0.0 # C_3
4886 1 3 0.000000000000 0.0 0.0 0.0 # C_3
4887 1 5 0.000000000000 0.0 0.0 0.0 # O_3
4888 1 4 0.000000000000 0.0 0.0 0.0 # Si3
4889 1 3 0.000000000000 0.0 0.0 0.0 # C_3
4890 1 3 0.000000000000 0.0 0.0 0.0 # C_3
4891 1 5 0.000000000000 0.0 0.0 0.0 # O_3
4892 1 2 0.000000000000 0.0 0.0 0.0 # O_
4893 1 4 0.000000000000 0.0 0.0 0.0 # Si3
4894 1 3 0.000000000000 0.0 0.0 0.0 # C_3
4895 1 3 0.000000000000 0.0 0.0 0.0 # C_3
4896 1 5 0.000000000000 0.0 0.0 0.0 # O_3
4897 1 4 0.000000000000 0.0 0.0 0.0 # Si3
4898 1 3 0.000000000000 0.0 0.0 0.0 # C_3
4899 1 3 0.000000000000 0.0 0.0 0.0 # C_3
4900 1 5 0.000000000000 0.0 0.0 0.0 # O_3
4901 1 4 0.000000000000 0.0 0.0 0.0 # Si3
4902 1 3 0.000000000000 0.0 0.0 0.0 # C_3
4903 1 3 0.000000000000 0.0 0.0 0.0 # C_3
4904 1 5 0.000000000000 0.0 0.0 0.0 # O_3
4905 1 4 0.000000000000 0.0 0.0 0.0 # Si3
4906 1 3 0.000000000000 0.0 0.0 0.0 # C_3
4907 1 3 0.000000000000 0.0 0.0 0.0 # C_3
4908 1 5 0.000000000000 0.0 0.0 0.0 # O_3
4909 1 4 0.000000000000 0.0 0.0 0.0 # Si3
4910 1 3 0.000000000000 0.0 0.0 0.0 # C_3
4911 1 3 0.000000000000 0.0 0.0 0.0 # C_3
4912 1 5 0.000000000000 0.0 0.0 0.0 # O_3
4913 1 2 0.000000000000 0.0 0.0 0.0 # O_
4914 1 4 0.000000000000 0.0 0.0 0.0 # Si3
4915 1 3 0.000000000000 0.0 0.0 0.0 # C_3
4916 1 3 0.000000000000 0.0 0.0 0.0 # C_3
4917 1 5 0.000000000000 0.0 0.0 0.0 # O_3
4918 1 4 0.000000000000 0.0 0.0 0.0 # Si3
4919 1 3 0.000000000000 0.0 0.0 0.0 # C_3
4920 1 3 0.000000000000 0.0 0.0 0.0 # C_3
4921 1 5 0.000000000000 0.0 0.0 0.0 # O_3
4922 1 4 0.000000000000 0.0 0.0 0.0 # Si3
4923 1 3 0.000000000000 0.0 0.0 0.0 # C_3
4924 1 3 0.000000000000 0.0 0.0 0.0 # C_3
4925 1 5 0.000000000000 0.0 0.0 0.0 # O_3
4926 1 4 0.000000000000 0.0 0.0 0.0 # Si3
4927 1 3 0.000000000000 0.0 0.0 0.0 # C_3
4928 1 3 0.000000000000 0.0 0.0 0.0 # C_3
4929 1 5 0.000000000000 0.0 0.0 0.0 # O_3
4930 1 4 0.000000000000 0.0 0.0 0.0 # Si3
4931 1 3 0.000000000000 0.0 0.0 0.0 # C_3
4932 1 3 0.000000000000 0.0 0.0 0.0 # C_3
4933 1 5 0.000000000000 0.0 0.0 0.0 # O_3
4934 1 2 0.000000000000 0.0 0.0 0.0 # O_
4935 1 4 0.000000000000 0.0 0.0 0.0 # Si3
4936 1 3 0.000000000000 0.0 0.0 0.0 # C_3
4937 1 3 0.000000000000 0.0 0.0 0.0 # C_3
4938 1 5 0.000000000000 0.0 0.0 0.0 # O_3
4939 1 4 0.000000000000 0.0 0.0 0.0 # Si3
4940 1 3 0.000000000000 0.0 0.0 0.0 # C_3
4941 1 3 0.000000000000 0.0 0.0 0.0 # C_3
4942 1 5 0.000000000000 0.0 0.0 0.0 # O_3
4943 1 4 0.000000000000 0.0 0.0 0.0 # Si3
4944 1 3 0.000000000000 0.0 0.0 0.0 # C_3
4945 1 3 0.000000000000 0.0 0.0 0.0 # C_3
4946 1 5 0.000000000000 0.0 0.0 0.0 # O_3
4947 1 4 0.000000000000 0.0 0.0 0.0 # Si3
4948 1 3 0.000000000000 0.0 0.0 0.0 # C_3
4949 1 3 0.000000000000 0.0 0.0 0.0 # C_3
4950 1 5 0.000000000000 0.0 0.0 0.0 # O_3
4951 1 4 0.000000000000 0.0 0.0 0.0 # Si3
4952 1 3 0.000000000000 0.0 0.0 0.0 # C_3
4953 1 3 0.000000000000 0.0 0.0 0.0 # C_3
4954 1 5 0.000000000000 0.0 0.0 0.0 # O_3
4955 1 2 0.000000000000 0.0 0.0 0.0 # O_
4956 1 4 0.000000000000 0.0 0.0 0.0 # Si3
4957 1 3 0.000000000000 0.0 0.0 0.0 # C_3
4958 1 3 0.000000000000 0.0 0.0 0.0 # C_3
4959 1 5 0.000000000000 0.0 0.0 0.0 # O_3
4960 1 4 0.000000000000 0.0 0.0 0.0 # Si3
4961 1 3 0.000000000000 0.0 0.0 0.0 # C_3
4962 1 3 0.000000000000 0.0 0.0 0.0 # C_3
4963 1 5 0.000000000000 0.0 0.0 0.0 # O_3
4964 1 4 0.000000000000 0.0 0.0 0.0 # Si3
4965 1 3 0.000000000000 0.0 0.0 0.0 # C_3
4966 1 3 0.000000000000 0.0 0.0 0.0 # C_3
4967 1 5 0.000000000000 0.0 0.0 0.0 # O_3
4968 1 4 0.000000000000 0.0 0.0 0.0 # Si3
4969 1 3 0.000000000000 0.0 0.0 0.0 # C_3
4970 1 3 0.000000000000 0.0 0.0 0.0 # C_3
4971 1 5 0.000000000000 0.0 0.0 0.0 # O_3
4972 1 4 0.000000000000 0.0 0.0 0.0 # Si3
4973 1 3 0.000000000000 0.0 0.0 0.0 # C_3
4974 1 3 0.000000000000 0.0 0.0 0.0 # C_3
4975 1 5 0.000000000000 0.0 0.0 0.0 # O_3
4976 1 2 0.000000000000 0.0 0.0 0.0 # O_
4977 1 4 0.000000000000 0.0 0.0 0.0 # Si3
4978 1 3 0.000000000000 0.0 0.0 0.0 # C_3
4979 1 3 0.000000000000 0.0 0.0 0.0 # C_3
4980 1 5 0.000000000000 0.0 0.0 0.0 # O_3
4981 1 4 0.000000000000 0.0 0.0 0.0 # Si3
4982 1 3 0.000000000000 0.0 0.0 0.0 # C_3
4983 1 3 0.000000000000 0.0 0.0 0.0 # C_3
4984 1 5 0.000000000000 0.0 0.0 0.0 # O_3
4985 1 4 0.000000000000 0.0 0.0 0.0 # Si3
4986 1 3 0.000000000000 0.0 0.0 0.0 # C_3
4987 1 3 0.000000000000 0.0 0.0 0.0 # C_3
4988 1 5 0.000000000000 0.0 0.0 0.0 # O_3
4989 1 4 0.000000000000 0.0 0.0 0.0 # Si3
4990 1 3 0.000000000000 0.0 0.0 0.0 # C_3
4991 1 3 0.000000000000 0.0 0.0 0.0 # C_3
4992 1 5 0.000000000000 0.0 0.0 0.0 # O_3
4993 1 4 0.000000000000 0.0 0.0 0.0 # Si3
4994 1 3 0.000000000000 0.0 0.0 0.0 # C_3
4995 1 3 0.000000000000 0.0 0.0 0.0 # C_3
4996 1 5 0.000000000000 0.0 0.0 0.0 # O_3
4997 1 2 0.000000000000 0.0 0.0 0.0 # O_

Bonds

1 1 17 25
2 1 25 18
3 1 17 26
4 1 26 19
5 1 17 27
6 1 27 21
7 1 18 28
8 1 28 20
9 1 18 29
10 1 29 22
11 1 19 30
12 1 30 20
13 1 19 31
14 1 31 23
15 1 20 32
16 1 32 24
17 1 21 33
18 1 33 22
19 1 21 34
20 1 34 23
21 1 22 35
22 1 35 24
23 1 23 36
24 1 36 24
25 2 37 38
26 2 38 39
27 3 17 37
28 2 40 41
29 2 41 42
30 2 41 43
31 2 43 44
32 2 44 45
33 2 44 46
34 2 44 47
35 3 18 40
36 2 48 49
37 2 49 50
38 2 49 51
39 2 51 52
40 2 52 53
41 2 52 54
42 2 52 55
43 3 19 48
44 2 56 57
45 2 57 58
46 2 57 59
47 2 59 60
48 2 60 61
49 2 60 62
50 2 60 63
51 3 20 56
52 2 64 65
53 2 65 66
54 2 65 67
55 2 67 68
56 2 68 69
57 2 68 70
58 2 68 71
59 3 21 64
60 2 72 73
61 2 73 74
62 2 73 75
63 2 75 76
64 2 76 77
65 2 76 78
66 2 76 79
67 3 22 72
68 2 80 81
69 2 81 82
70 2 81 83
71 2 83 84
72 2 84 85
73 2 84 86
74 2 84 87
75 3 23 80
76 2 88 89
77 2 89 90
78 2 89 91
79 2 91 92
80 2 92 93
81 2 92 94
82 2 92 95
83 3 24 88
84 1 124 132
85 1 132 125
86 1 124 133
87 1 133 126
88 1 124 134
89 1 134 128
90 1 125 135
91 1 135 127
92 1 125 136
93 1 136 129
94 1 126 137
95 1 137 127
96 1 126 138
97 1 138 130
98 1 127 139
99 1 139 131
100 1 128 140
101 1 140 129
102 1 128 141
103 1 141 130
104 1 129 142
105 1 142 131
106 1 130 143
107 1 143 131
108 2 144 145
109 2 145 146
110 3 124 144
111 2 147 148
112 2 148 149
113 2 148 150
114 2 150 151
115 2 151 152
116 2 151 153
117 2 151 154
118 3 125 147
119 2 155 156
120 2 156 157
121 2 156 158
122 2 158 159
123 2 159 160
124 2 159 161
125 2 159 162
126 3 126 155
127 2 163 164
128 2 164 165
129 2 164 166
130 2 166 167
131 2 167 168
132 2 167 169
133 2 167 170
134 3 127 163
135 2 171 172
136 2 172 173
137 2 172 174
138 2 174 175
139 2 175 176
140 2 175 177
141 2 175 178
142 3 128 171
143 2 179 180
144 2 180 181
145 2 180 182
146 2 182 183
147 2 183 184
148 2 183 185
149 2 183 186
150 3 129 179
151 2 187 188
152 2 188 189
153 2 188 190
154 2 190 191
155 2 191 192
156 2 191 193
157 2 191 194
158 3 130 187
159 2 195 196
160 2 196 197
161 2 196 198
162 2 198 199
163 2 199 200
164 2 199 201
165 2 199 202
166 3 131 195
167 1 205 213
168 1 213 206
169 1 205 214
170 1 214 207
171 1 205 215
172 1 215 209
173 1 206 216
174 1 216 208
175 1 206 217
176 1 217 210
177 1 207 218
178 1 218 208
179 1 207 219
180 1 219 211
181 1 208 220
182 1 220 212
183 1 209 221
184 1 221 210
185 1 209 222
186 1 222 211
187 1 210 223
188 1 223 212
189 1 211 224
190 1 224 212
191 2 225 226
192 2 226 227
193 3 205 225
194 2 228 229
195 2 229 230
196 2 229 231
197 2 231 232
198 2 232 233
199 2 232 234
200 2 232 235
201 3 206 228
202 2 236 237
203 2 237 238
204 2 237 239
205 2 239 240
206 2 240 241
207 2 240 242
208 2 240 243
209 3 207 236
210 2 244 245
211 2 245 246
212 2 245 247
213 2 247 248
214 2 248 249
215 2 248 250
216 2 248 251
217 3 208 244
218 2 252 253
219 2 253 254
220 2 253 255
221 2 255 256
222 2 256 257
223 2 256 258
224 2 256 259
225 3 209 252
226 2 260 261
227 2 261 262
228 2 261 263
229 2 263 264
230 2 264 265
231 2 264 266
232 2 264 267
233 3 210 260
234 2 268 269
235 2 269 270
236 2 269 271
237 2 271 272
238 2 272 273
239 2 272 274
240 2 272 275
241 3 211 268
242 2 276 277
243 2 277 278
244 2 277 279
245 2 279 280
246 2 280 281
247 2 280 282
248 2 280 283
249 3 212 276
250 1 303 311
251 1 311 304
252 1 303 312
253 1 312 305
254 1 303 313
255 1 313 307
256 1 304 314
257 1 314 306
258 1 304 315
259 1 315 308
260 1 305 316
261 1 316 306
262 1 305 317
263 1 317 309
264 1 306 318
265 1 318 310
266 1 307 319
267 1 319 308
268 1 307 320
269 1 320 309
270 1 308 321
271 1 321 310
272 1 309 322
273 1 322 310
274 2 323 324
275 2 324 325
276 3 303 323
277 2 326 327
278 2 327 328
279 2 327 329
280 2 329 330
281 2 330 331
282 2 330 332
283 2 330 333
284 3 304 326
285 2 334 335
286 2 335 336
287 2 335 337
288 2 337 338
289 2 338 339
290 2 338 340
291 2 338 341
292 3 305 334
293 2 342 343
294 2 343 344
295 2 343 345
296 2 345 346
297 2 346 347
298 2 346 348
299 2 346 349
300 3 306 342
301 2 350 351
302 2 351 352
303 2 351 353
304 2 353 354
305 2 354 355
306 2 354 356
307 2 354 357
308 3 307 350
309 2 358 359
310 2 359 360
311 2 359 361
312 2 361 362
313 2 362 363
314 2 362 364
315 2 362 365
316 3 308 358
317 2 366 367
318 2 367 368
319 2 367 369
320 2 369 370
321 2 370 371
322 2 370 372
323 2 370 373
324 3 309 366
325 2 374 375
326 2 375 376
327 2 375 377
328 2 377 378
329 2 378 379
330 2 378 380
331 2 378 381
332 3 310 374
333 1 384 392
334 1 392 385
335 1 384 393
336 1 393 386
337 1 384 394
338 1 394 388
339 1 385 395
340 1 395 387
341 1 385 396
342 1 396 389
343 1 386 397
344 1 397 387
345 1 386 398
346 1 398 390
347 1 387 399
348 1 399 391
349 1 388 400
350 1 400 389
351 1 388 401
352 1 401 390
353 1 389 402
354 1 402 391
355 1 390 403
356 1 403 391
357 2 404 405
358 2 405 406
359 3 384 404
360 2 407 408
361 2 408 409
362 2 408 410
363 2 410 411
364 2 411 412
365 2 411 413
366 2 411 414
367 3 385 407
368 2 415 416
369 2 416 417
370 2 416 418
371 2 418 419
372 2 419 420
373 2 419 421
374 2 419 422
375 3 386 415
376 2 423 424
377 2 424 425
378 2 424 426
379 2 426 427
380 2 427 428
381 2 427 429
382 2 427 430
383 3 387 423
384 2 431 432
385 2 432 433
386 2 432 434
387 2 434 435
388 2 435 436
389 2 435 437
390 2 435 438
391 3 388 431
392 2 439 440
393 2 440 441
394 2 440 442
395 2 442 443
396 2 443 444
397 2 443 445
398 2 443 446
399 3 389 439
400 2 447 448
401 2 448 449
402 2 448 450
403 2 450 451
404 2 451 452
405 2 451 453
406 2 451 454
407 3 390 447
408 2 455 456
409 2 456 457
410 2 456 458
411 2 458 459
412 2 459 460
413 2 459 461
414 2 459 462
415 3 391 455
416 1 502 510
417 1 510 503
418 1 502 511
419 1 511 504
420 1 502 512
421 1 512 506
422 1 503 513
423 1 513 505
424 1 503 514
425 1 514 507
426 1 504 515
427 1 515 505
428 1 504 516
429 1 516 508
430 1 505 517
431 1 517 509
432 1 506 518
433 1 518 507
434 1 506 519
435 1 519 508
436 1 507 520
437 1 520 509
438 1 508 521
439 1 521 509
440 2 522 523
441 2 523 524
442 3 502 522
443 2 525 526
444 2 526 527
445 2 526 528
446 2 528 529
447 2 529 530
448 2 529 531
449 2 529 532
450 3 503 525
451 2 533 534
452 2 534 535
453 2 534 536
454 2 536 537
455 2 537 538
456 2 537 539
457 2 537 540
458 3 504 533
459 2 541 542
460 2 542 543
461 2 542 544
462 2 544 545
463 2 545 546
464 2 545 547
465 2 545 548
466 3 505 541
467 2 549 550
468 2 550 551
469 2 550 552
470 2 552 553
471 2 553 554
472 2 553 555
473 2 553 556
474 3 506 549
475 2 557 558
476 2 558 559
477 2 558 560
478 2 560 561
479 2 561 562
480 2 561 563
481 2 561 564
482 3 507 557
483 2 565 566
484 2 566 567
485 2 566 568
486 2 568 569
487 2 569 570
488 2 569 571
489 2 569 572
490 3 508 565
491 2 573 574
492 2 574 575
493 2 574 576
494 2 576 577
495 2 577 578
496 2 577 579
497 2 577 580
498 3 509 573
499 4 590 591
500 4 590 592
501 5 590 593
502 5 593 594
503 4 594 595
504 4 594 596
505 5 594 597
506 5 597 598
507 4 598 599
508 4 598 600
509 5 598 601
510 5 601 602
511 4 602 603
512 4 602 604
513 5 602 605
514 5 605 606
515 4 606 607
516 4 606 608
517 5 606 609
518 1 1 610
519 6 610 590
520 7 609 6
521 4 611 612
522 4 611 613
523 5 611 614
524 5 614 615
525 4 615 616
526 4 615 617
527 5 615 618
528 5 618 619
529 4 619 620
530 4 619 621
531 5 619 622
532 5 622 623
533 4 623 624
534 4 623 625
535 5 623 626
536 5 626 627
537 4 627 628
538 4 627 629
539 5 627 630
540 1 1 631
541 6 631 611
542 7 630 5
543 4 632 633
544 4 632 634
545 5 632 635
546 5 635 636
547 4 636 637
548 4 636 638
549 5 636 639
550 5 639 640
551 4 640 641
552 4 640 642
553 5 640 643
554 5 643 644
555 4 644 645
556 4 644 646
557 5 644 647
558 5 647 648
559 4 648 649
560 4 648 650
561 5 648 651
562 1 1 652
563 6 652 632
564 7 651 98
565 4 653 654
566 4 653 655
567 5 653 656
568 5 656 657
569 4 657 658
570 4 657 659
571 5 657 660
572 5 660 661
573 4 661 662
574 4 661 663
575 5 661 664
576 5 664 665
577 4 665 666
578 4 665 667
579 5 665 668
580 5 668 669
581 4 669 670
582 4 669 671
583 5 669 672
584 1 2 673
585 6 673 653
586 7 672 3
587 4 674 675
588 4 674 676
589 5 674 677
590 5 677 678
591 4 678 679
592 4 678 680
593 5 678 681
594 5 681 682
595 4 682 683
596 4 682 684
597 5 682 685
598 5 685 686
599 4 686 687
600 4 686 688
601 5 686 689
602 5 689 690
603 4 690 691
604 4 690 692
605 5 690 693
606 1 2 694
607 6 694 674
608 7 693 104
609 4 695 696
610 4 695 697
611 5 695 698
612 5 698 699
613 4 699 700
614 4 699 701
615 5 699 702
616 5 702 703
617 4 703 704
618 4 703 705
619 5 703 706
620 5 706 707
621 4 707 708
622 4 707 709
623 5 707 710
624 5 710 711
625 4 711 712
626 4 711 713
627 5 711 714
628 1 2 715
629 6 715 695
630 7 714 99
631 4 716 717
632 4 716 718
633 5 716 719
634 5 719 720
635 4 720 721
636 4 720 722
637 5 720 723
638 5 723 724
639 4 724 725
640 4 724 726
641 5 724 727
642 5 727 728
643 4 728 729
644 4 728 730
645 5 728 731
646 5 731 732
647 4 732 733
648 4 732 734
649 5 732 735
650 1 3 736
651 6 736 716
652 7 735 4
653 4 737 738
654 4 737 739
655 5 737 740
656 5 740 741
657 4 741 742
658 4 741 743
659 5 741 744
660 5 744 745
661 4 745 746
662 4 745 747
663 5 745 748
664 5 748 749
665 4 749 750
666 4 749 751
667 5 749 752
668 5 752 753
669 4 753 754
670 4 753 755
671 5 753 756
672 1 3 757
673 6 757 737
674 7 756 105
675 4 758 759
676 4 758 760
677 5 758 761
678 5 761 762
679 4 762 763
680 4 762 764
681 5 762 765
682 5 765 766
683 4 766 767
684 4 766 768
685 5 766 769
686 5 769 770
687 4 770 771
688 4 770 772
689 5 770 773
690 5 773 774
691 4 774 775
692 4 774 776
693 5 774 777
694 1 3 778
695 6 778 758
696 7 777 100
697 4 779 780
698 4 779 781
699 5 779 782
700 5 782 783
701 4 783 784
702 4 783 785
703 5 783 786
704 5 786 787
705 4 787 788
706 4 787 789
707 5 787 790
708 5 790 791
709 4 791 792
710 4 791 793
711 5 791 794
712 5 794 795
713 4 795 796
714 4 795 797
715 5 795 798
716 1 4 799
717 6 799 779
718 7 798 5
719 4 800 801
720 4 800 802
721 5 800 803
722 5 803 804
723 4 804 805
724 4 804 806
725 5 804 807
726 5 807 808
727 4 808 809
728 4 808 810
729 5 808 811
730 5 811 812
731 4 812 813
732 4 812 814
733 5 812 815
734 5 815 816
735 4 816 817
736 4 816 818
737 5 816 819
738 1 4 820
739 6 820 800
740 7 819 8
741 4 821 822
742 4 821 823
743 5 821 824
744 5 824 825
745 4 825 826
746 4 825 827
747 5 825 828
748 5 828 829
749 4 829 830
750 4 829 831
751 5 829 832
752 5 832 833
753 4 833 834
754 4 833 835
755 5 833 836
756 5 836 837
757 4 837 838
758 4 837 839
759 5 837 840
760 1 4 841
761 6 841 821
762 7 840 106
763 4 842 843
764 4 842 844
765 5 842 845
766 5 845 846
767 4 846 847
768 4 846 848
769 5 846 849
770 5 849 850
771 4 850 851
772 4 850 852
773 5 850 853
774 5 853 854
775 4 854 855
776 4 854 856
777 5 854 857
778 5 857 858
779 4 858 859
780 4 858 860
781 5 858 861
782 1 5 862
783 6 862 842
784 7 861 9
785 4 863 864
786 4 863 865
787 5 863 866
788 5 866 867
789 4 867 868
790 4 867 869
791 5 867 870
792 5 870 871
793 4 871 872
794 4 871 873
795 5 871 874
796 5 874 875
797 4 875 876
798 4 875 877
799 5 875 878
800 5 878 879
801 4 879 880
802 4 879 881
803 5 879 882
804 1 5 883
805 6 883 863
806 7 882 107
807 4 884 885
808 4 884 886
809 5 884 887
810 5 887 888
811 4 888 889
812 4 888 890
813 5 888 891
814 5 891 892
815 4 892 893
816 4 892 894
817 5 892 895
818 5 895 896
819 4 896 897
820 4 896 898
821 5 896 899
822 5 899 900
823 4 900 901
824 4 900 902
825 5 900 903
826 1 6 904
827 6 904 884
828 7 903 108
829 4 905 906
830 4 905 907
831 5 905 908
832 5 908 909
833 4 909 910
834 4 909 911
835 5 909 912
836 5 912 913
837 4 913 914
838 4 913 915
839 5 913 916
840 5 916 917
841 4 917 918
842 4 917 919
843 5 917 920
844 5 920 921
845 4 921 922
846 4 921 923
847 5 921 924
848 1 6 925
849 6 925 905
850 7 924 9
851 4 926 927
852 4 926 928
853 5 926 929
854 5 929 930
855 4 930 931
856 4 930 932
857 5 930 933
858 5 933 934
859 4 934 935
860 4 934 936
861 5 934 937
862 5 937 938
863 4 938 939
864 4 938 940
865 5 938 941
866 5 941 942
867 4 942 943
868 4 942 944
869 5 942 945
870 1 6 946
871 6 946 926
872 7 945 492
873 4 947 948
874 4 947 949
875 5 947 950
876 5 950 951
877 4 951 952
878 4 951 953
879 5 951 954
880 5 954 955
881 4 955 956
882 4 955 957
883 5 955 958
884 5 958 959
885 4 959 960
886 4 959 961
887 5 959 962
888 5 962 963
889 4 963 964
890 4 963 965
891 5 963 966
892 1 7 967
893 6 967 947
894 7 966 8
895 4 968 969
896 4 968 970
897 5 968 971
898 5 971 972
899 4 972 973
900 4 972 974
901 5 972 975
902 5 975 976
903 4 976 977
904 4 976 978
905 5 976 979
906 5 979 980
907 4 980 981
908 4 980 982
909 5 980 983
910 5 983 984
911 4 984 985
912 4 984 986
913 5 984 987
914 1 7 988
915 6 988 968
916 7 987 12
917 4 989 990
918 4 989 991
919 5 989 992
920 5 992 993
921 4 993 994
922 4 993 995
923 5 993 996
924 5 996 997
925 4 997 998
926 4 997 999
927 5 997 1000
928 5 1000 1001
929 4 1001 1002
930 4 1001 1003
931 5 1001 1004
932 5 1004 1005
933 4 1005 1006
934 4 1005 1007
935 5 1005 1008
936 1 7 1009
937 6 1009 989
938 7 1008 110
939 4 1010 1011
940 4 1010 1012
941 5 1010 1013
942 5 1013 1014
943 4 1014 1015
944 4 1014 1016
945 5 1014 1017
946 5 1017 1018
947 4 1018 1019
948 4 1018 1020
949 5 1018 1021
950 5 1021 1022
951 4 1022 1023
952 4 1022 1024
953 5 1022 1025
954 5 1025 1026
955 4 1026 1027
956 4 1026 1028
957 5 1026 1029
958 1 7 1030
959 6 1030 1010
960 7 1029 494
961 4 1031 1032
962 4 1031 1033
963 5 1031 1034
964 5 1034 1035
965 4 1035 1036
966 4 1035 1037
967 5 1035 1038
968 5 1038 1039
969 4 1039 1040
970 4 1039 1041
971 5 1039 1042
972 5 1042 1043
973 4 1043 1044
974 4 1043 1045
975 5 1043 1046
976 5 1046 1047
977 4 1047 1048
978 4 1047 1049
979 5 1047 1050
980 1 8 1051
981 6 1051 1031
982 7 1050 9
983 4 1052 1053
984 4 1052 1054
985 5 1052 1055
986 5 1055 1056
987 4 1056 1057
988 4 1056 1058
989 5 1056 1059
990 5 1059 1060
991 4 1060 1061
992 4 1060 1062
993 5 1060 1063
994 5 1063 1064
995 4 1064 1065
996 4 1064 1066
997 5 1064 1067
998 5 1067 1068
999 4 1068 1069
1000 4 1068 1070
1001 5 1068 1071
1002 1 8 1072
1003 6 1072 1052
1004 7 1071 495
1005 4 1073 1074
1006 4 1073 1075
1007 5 1073 1076
1008 5 1076 1077
1009 4 1077 1078
1010 4 1077 1079
1011 5 1077 1080
1012 5 1080 1081
1013 4 1081 1082
1014 4 1081 1083
1015 5 1081 1084
1016 5 1084 1085
1017 4 1085 1086
1018 4 1085 1087
1019 5 1085 1088
1020 5 1088 1089
1021 4 1089 1090
1022 4 1089 1091
1023 5 1089 1092
1024 1 9 1093
1025 6 1093 1073
1026 7 1092 112
1027 4 1094 1095
1028 4 1094 1096
1029 5 1094 1097
1030 5 1097 1098
1031 4 1098 1099
1032 4 1098 1100
1033 5 1098 1101
1034 5 1101 1102
1035 4 1102 1103
1036 4 1102 1104
1037 5 1102 1105
1038 5 1105 1106
1039 4 1106 1107
1040 4 1106 1108
1041 5 1106 1109
1042 5 1109 1110
1043 4 1110 1111
1044 4 1110 1112
1045 5 1110 1113
1046 1 10 1114
1047 6 1114 1094
1048 7 1113 15
1049 4 1115 1116
1050 4 1115 1117
1051 5 1115 1118
1052 5 1118 1119
1053 4 1119 1120
1054 4 1119 1121
1055 5 1119 1122
1056 5 1122 1123
1057 4 1123 1124
1058 4 1123 1125
1059 5 1123 1126
1060 5 1126 1127
1061 4 1127 1128
1062 4 1127 1129
1063 5 1127 1130
1064 5 1130 1131
1065 4 1131 1132
1066 4 1131 1133
1067 5 1131 1134
1068 1 10 1135
1069 6 1135 1115
1070 7 1134 113
1071 4 1136 1137
1072 4 1136 1138
1073 5 1136 1139
1074 5 1139 1140
1075 4 1140 1141
1076 4 1140 1142
1077 5 1140 1143
1078 5 1143 1144
1079 4 1144 1145
1080 4 1144 1146
1081 5 1144 1147
1082 5 1147 1148
1083 4 1148 1149
1084 4 1148 1150
1085 5 1148 1151
1086 5 1151 1152
1087 4 1152 1153
1088 4 1152 1154
1089 5 1152 1155
1090 1 10 1156
1091 6 1156 1136
1092 7 1155 14
1093 4 1157 1158
1094 4 1157 1159
1095 5 1157 1160
1096 5 1160 1161
1097 4 1161 1162
1098 4 1161 1163
1099 5 1161 1164
1100 5 1164 1165
1101 4 1165 1166
1102 4 1165 1167
1103 5 1165 1168
1104 5 1168 1169
1105 4 1169 1170
1106 4 1169 1171
1107 5 1169 1172
1108 5 1172 1173
1109 4 1173 1174
1110 4 1173 1175
1111 5 1173 1176
1112 1 11 1177
1113 6 1177 1157
1114 7 1176 12
1115 4 1178 1179
1116 4 1178 1180
1117 5 1178 1181
1118 5 1181 1182
1119 4 1182 1183
1120 4 1182 1184
1121 5 1182 1185
1122 5 1185 1186
1123 4 1186 1187
1124 4 1186 1188
1125 5 1186 1189
1126 5 1189 1190
1127 4 1190 1191
1128 4 1190 1192
1129 5 1190 1193
1130 5 1193 1194
1131 4 1194 1195
1132 4 1194 1196
1133 5 1194 1197
1134 1 11 1198
1135 6 1198 1178
1136 7 1197 16
1137 4 1199 1200
1138 4 1199 1201
1139 5 1199 1202
1140 5 1202 1203
1141 4 1203 1204
1142 4 1203 1205
1143 5 1203 1206
1144 5 1206 1207
1145 4 1207 1208
1146 4 1207 1209
1147 5 1207 1210
1148 5 1210 1211
1149 4 1211 1212
1150 4 1211 1213
1151 5 1211 1214
1152 5 1214 1215
1153 4 1215 1216
1154 4 1215 1217
1155 5 1215 1218
1156 1 11 1219
1157 6 1219 1199
1158 7 1218 114
1159 4 1220 1221
1160 4 1220 1222
1161 5 1220 1223
1162 5 1223 1224
1163 4 1224 1225
1164 4 1224 1226
1165 5 1224 1227
1166 5 1227 1228
1167 4 1228 1229
1168 4 1228 1230
1169 5 1228 1231
1170 5 1231 1232
1171 4 1232 1233
1172 4 1232 1234
1173 5 1232 1235
1174 5 1235 1236
1175 4 1236 1237
1176 4 1236 1238
1177 5 1236 1239
1178 1 12 1240
1179 6 1240 1220
1180 7 1239 115
1181 4 1241 1242
1182 4 1241 1243
1183 5 1241 1244
1184 5 1244 1245
1185 4 1245 1246
1186 4 1245 1247
1187 5 1245 1248
1188 5 1248 1249
1189 4 1249 1250
1190 4 1249 1251
1191 5 1249 1252
1192 5 1252 1253
1193 4 1253 1254
1194 4 1253 1255
1195 5 1253 1256
1196 5 1256 1257
1197 4 1257 1258
1198 4 1257 1259
1199 5 1257 1260
1200 1 12 1261
1201 6 1261 1241
1202 7 1260 499
1203 4 1262 1263
1204 4 1262 1264
1205 5 1262 1265
1206 5 1265 1266
1207 4 1266 1267
1208 4 1266 1268
1209 5 1266 1269
1210 5 1269 1270
1211 4 1270 1271
1212 4 1270 1272
1213 5 1270 1273
1214 5 1273 1274
1215 4 1274 1275
1216 4 1274 1276
1217 5 1274 1277
1218 5 1277 1278
1219 4 1278 1279
1220 4 1278 1280
1221 5 1278 1281
1222 1 13 1282
1223 6 1282 1262
1224 7 1281 14
1225 4 1283 1284
1226 4 1283 1285
1227 5 1283 1286
1228 5 1286 1287
1229 4 1287 1288
1230 4 1287 1289
1231 5 1287 1290
1232 5 1290 1291
1233 4 1291 1292
1234 4 1291 1293
1235 5 1291 1294
1236 5 1294 1295
1237 4 1295 1296
1238 4 1295 1297
1239 5 1295 1298
1240 5 1298 1299
1241 4 1299 1300
1242 4 1299 1301
1243 5 1299 1302
1244 1 13 1303
1245 6 1303 1283
1246 7 1302 96
1247 4 1304 1305
1248 4 1304 1306
1249 5 1304 1307
1250 5 1307 1308
1251 4 1308 1309
1252 4 1308 1310
1253 5 1308 1311
1254 5 1311 1312
1255 4 1312 1313
1256 4 1312 1314
1257 5 1312 1315
1258 5 1315 1316
1259 4 1316 1317
1260 4 1316 1318
1261 5 1316 1319
1262 5 1319 1320
1263 4 1320 1321
1264 4 1320 1322
1265 5 1320 1323
1266 1 13 1324
1267 6 1324 1304
1268 7 1323 500
1269 4 1325 1326
1270 4 1325 1327
1271 5 1325 1328
1272 5 1328 1329
1273 4 1329 1330
1274 4 1329 1331
1275 5 1329 1332
1276 5 1332 1333
1277 4 1333 1334
1278 4 1333 1335
1279 5 1333 1336
1280 5 1336 1337
1281 4 1337 1338
1282 4 1337 1339
1283 5 1337 1340
1284 5 1340 1341
1285 4 1341 1342
1286 4 1341 1343
1287 5 1341 1344
1288 1 14 1345
1289 6 1345 1325
1290 7 1344 97
1291 4 1346 1347
1292 4 1346 1348
1293 5 1346 1349
1294 5 1349 1350
1295 4 1350 1351
1296 4 1350 1352
1297 5 1350 1353
1298 5 1353 1354
1299 4 1354 1355
1300 4 1354 1356
1301 5 1354 1357
1302 5 1357 1358
1303 4 1358 1359
1304 4 1358 1360
1305 5 1358 1361
1306 5 1361 1362
1307 4 1362 1363
1308 4 1362 1364
1309 5 1362 1365
1310 1 15 1366
1311 6 1366 1346
1312 7 1365 98
1313 4 1367 1368
1314 4 1367 1369
1315 5 1367 1370
1316 5 1370 1371
1317 4 1371 1372
1318 4 1371 1373
1319 5 1371 1374
1320 5 1374 1375
1321 4 1375 1376
1322 4 1375 1377
1323 5 1375 1378
1324 5 1378 1379
1325 4 1379 1380
1326 4 1379 1381
1327 5 1379 1382
1328 5 1382 1383
1329 4 1383 1384
1330 4 1383 1385
1331 5 1383 1386
1332 1 15 1387
1333 6 1387 1367
1334 7 1386 118
1335 4 1388 1389
1336 4 1388 1390
1337 5 1388 1391
1338 5 1391 1392
1339 4 1392 1393
1340 4 1392 1394
1341 5 1392 1395
1342 5 1395 1396
1343 4 1396 1397
1344 4 1396 1398
1345 5 1396 1399
1346 5 1399 1400
1347 4 1400 1401
1348 4 1400 1402
1349 5 1400 1403
1350 5 1403 1404
1351 4 1404 1405
1352 4 1404 1406
1353 5 1404 1407
1354 1 15 1408
1355 6 1408 1388
1356 7 1407 97
1357 4 1409 1410
1358 4 1409 1411
1359 5 1409 1412
1360 5 1412 1413
1361 4 1413 1414
1362 4 1413 1415
1363 5 1413 1416
1364 5 1416 1417
1365 4 1417 1418
1366 4 1417 1419
1367 5 1417 1420
1368 5 1420 1421
1369 4 1421 1422
1370 4 1421 1423
1371 5 1421 1424
1372 5 1424 1425
1373 4 1425 1426
1374 4 1425 1427
1375 5 1425 1428
1376 1 16 1429
1377 6 1429 1409
1378 7 1428 99
1379 4 1430 1431
1380 4 1430 1432
1381 5 1430 1433
1382 5 1433 1434
1383 4 1434 1435
1384 4 1434 1436
1385 5 1434 1437
1386 5 1437 1438
1387 4 1438 1439
1388 4 1438 1440
1389 5 1438 1441
1390 5 1441 1442
1391 4 1442 1443
1392 4 1442 1444
1393 5 1442 1445
1394 5 1445 1446
1395 4 1446 1447
1396 4 1446 1448
1397 5 1446 1449
1398 1 16 1450
1399 6 1450 1430
1400 7 1449 581
1401 4 1451 1452
1402 4 1451 1453
1403 5 1451 1454
1404 5 1454 1455
1405 4 1455 1456
1406 4 1455 1457
1407 5 1455 1458
1408 5 1458 1459
1409 4 1459 1460
1410 4 1459 1461
1411 5 1459 1462
1412 5 1462 1463
1413 4 1463 1464
1414 4 1463 1465
1415 5 1463 1466
1416 5 1466 1467
1417 4 1467 1468
1418 4 1467 1469
1419 5 1467 1470
1420 4 39 1451
1421 7 1470 119
1422 4 1471 1472
1423 4 1471 1473
1424 5 1471 1474
1425 5 1474 1475
1426 4 1475 1476
1427 4 1475 1477
1428 5 1475 1478
1429 5 1478 1479
1430 4 1479 1480
1431 4 1479 1481
1432 5 1479 1482
1433 5 1482 1483
1434 4 1483 1484
1435 4 1483 1485
1436 5 1483 1486
1437 5 1486 1487
1438 4 1487 1488
1439 4 1487 1489
1440 5 1487 1490
1441 1 96 1491
1442 6 1491 1471
1443 7 1490 101
1444 4 1492 1493
1445 4 1492 1494
1446 5 1492 1495
1447 5 1495 1496
1448 4 1496 1497
1449 4 1496 1498
1450 5 1496 1499
1451 5 1499 1500
1452 4 1500 1501
1453 4 1500 1502
1454 5 1500 1503
1455 5 1503 1504
1456 4 1504 1505
1457 4 1504 1506
1458 5 1504 1507
1459 5 1507 1508
1460 4 1508 1509
1461 4 1508 1510
1462 5 1508 1511
1463 1 96 1512
1464 6 1512 1492
1465 7 1511 583
1466 4 1513 1514
1467 4 1513 1515
1468 5 1513 1516
1469 5 1516 1517
1470 4 1517 1518
1471 4 1517 1519
1472 5 1517 1520
1473 5 1520 1521
1474 4 1521 1522
1475 4 1521 1523
1476 5 1521 1524
1477 5 1524 1525
1478 4 1525 1526
1479 4 1525 1527
1480 5 1525 1528
1481 5 1528 1529
1482 4 1529 1530
1483 4 1529 1531
1484 5 1529 1532
1485 1 97 1533
1486 6 1533 1513
1487 7 1532 102
1488 4 1534 1535
1489 4 1534 1536
1490 5 1534 1537
1491 5 1537 1538
1492 4 1538 1539
1493 4 1538 1540
1494 5 1538 1541
1495 5 1541 1542
1496 4 1542 1543
1497 4 1542 1544
1498 5 1542 1545
1499 5 1545 1546
1500 4 1546 1547
1501 4 1546 1548
1502 5 1546 1549
1503 5 1549 1550
1504 4 1550 1551
1505 4 1550 1552
1506 5 1550 1553
1507 1 97 1554
1508 6 1554 1534
1509 7 1553 584
1510 4 1555 1556
1511 4 1555 1557
1512 5 1555 1558
1513 5 1558 1559
1514 4 1559 1560
1515 4 1559 1561
1516 5 1559 1562
1517 5 1562 1563
1518 4 1563 1564
1519 4 1563 1565
1520 5 1563 1566
1521 5 1566 1567
1522 4 1567 1568
1523 4 1567 1569
1524 5 1567 1570
1525 5 1570 1571
1526 4 1571 1572
1527 4 1571 1573
1528 5 1571 1574
1529 1 98 1575
1530 6 1575 1555
1531 7 1574 99
1532 4 1576 1577
1533 4 1576 1578
1534 5 1576 1579
1535 5 1579 1580
1536 4 1580 1581
1537 4 1580 1582
1538 5 1580 1583
1539 5 1583 1584
1540 4 1584 1585
1541 4 1584 1586
1542 5 1584 1587
1543 5 1587 1588
1544 4 1588 1589
1545 4 1588 1590
1546 5 1588 1591
1547 5 1591 1592
1548 4 1592 1593
1549 4 1592 1594
1550 5 1592 1595
1551 1 98 1596
1552 6 1596 1576
1553 7 1595 102
1554 4 1597 1598
1555 4 1597 1599
1556 5 1597 1600
1557 5 1600 1601
1558 4 1601 1602
1559 4 1601 1603
1560 5 1601 1604
1561 5 1604 1605
1562 4 1605 1606
1563 4 1605 1607
1564 5 1605 1608
1565 5 1608 1609
1566 4 1609 1610
1567 4 1609 1611
1568 5 1609 1612
1569 5 1612 1613
1570 4 1613 1614
1571 4 1613 1615
1572 5 1613 1616
1573 1 99 1617
1574 6 1617 1597
1575 7 1616 123
1576 4 1618 1619
1577 4 1618 1620
1578 5 1618 1621
1579 5 1621 1622
1580 4 1622 1623
1581 4 1622 1624
1582 5 1622 1625
1583 5 1625 1626
1584 4 1626 1627
1585 4 1626 1628
1586 5 1626 1629
1587 5 1629 1630
1588 4 1630 1631
1589 4 1630 1632
1590 5 1630 1633
1591 5 1633 1634
1592 4 1634 1635
1593 4 1634 1636
1594 5 1634 1637
1595 1 100 1638
1596 6 1638 1618
1597 7 1637 101
1598 4 1639 1640
1599 4 1639 1641
1600 5 1639 1642
1601 5 1642 1643
1602 4 1643 1644
1603 4 1643 1645
1604 5 1643 1646
1605 5 1646 1647
1606 4 1647 1648
1607 4 1647 1649
1608 5 1647 1650
1609 5 1650 1651
1610 4 1651 1652
1611 4 1651 1653
1612 5 1651 1654
1613 5 1654 1655
1614 4 1655 1656
1615 4 1655 1657
1616 5 1655 1658
1617 1 100 1659
1618 6 1659 1639
1619 8 1658 146
1620 4 1660 1661
1621 4 1660 1662
1622 5 1660 1663
1623 5 1663 1664
1624 4 1664 1665
1625 4 1664 1666
1626 5 1664 1667
1627 5 1667 1668
1628 4 1668 1669
1629 4 1668 1670
1630 5 1668 1671
1631 5 1671 1672
1632 4 1672 1673
1633 4 1672 1674
1634 5 1672 1675
1635 5 1675 1676
1636 4 1676 1677
1637 4 1676 1678
1638 5 1676 1679
1639 1 101 1680
1640 6 1680 1660
1641 7 1679 102
1642 4 1681 1682
1643 4 1681 1683
1644 5 1681 1684
1645 5 1684 1685
1646 4 1685 1686
1647 4 1685 1687
1648 5 1685 1688
1649 5 1688 1689
1650 4 1689 1690
1651 4 1689 1691
1652 5 1689 1692
1653 5 1692 1693
1654 4 1693 1694
1655 4 1693 1695
1656 5 1693 1696
1657 5 1696 1697
1658 4 1697 1698
1659 4 1697 1699
1660 5 1697 1700
1661 1 101 1701
1662 6 1701 1681
1663 7 1700 203
1664 4 1702 1703
1665 4 1702 1704
1666 5 1702 1705
1667 5 1705 1706
1668 4 1706 1707
1669 4 1706 1708
1670 5 1706 1709
1671 5 1709 1710
1672 4 1710 1711
1673 4 1710 1712
1674 5 1710 1713
1675 5 1713 1714
1676 4 1714 1715
1677 4 1714 1716
1678 5 1714 1717
1679 5 1717 1718
1680 4 1718 1719
1681 4 1718 1720
1682 5 1718 1721
1683 1 102 1722
1684 6 1722 1702
1685 7 1721 589
1686 4 1723 1724
1687 4 1723 1725
1688 5 1723 1726
1689 5 1726 1727
1690 4 1727 1728
1691 4 1727 1729
1692 5 1727 1730
1693 5 1730 1731
1694 4 1731 1732
1695 4 1731 1733
1696 5 1731 1734
1697 5 1734 1735
1698 4 1735 1736
1699 4 1735 1737
1700 5 1735 1738
1701 5 1738 1739
1702 4 1739 1740
1703 4 1739 1741
1704 5 1739 1742
1705 1 103 1743
1706 6 1743 1723
1707 8 1742 227
1708 4 1744 1745
1709 4 1744 1746
1710 5 1744 1747
1711 5 1747 1748
1712 4 1748 1749
1713 4 1748 1750
1714 5 1748 1751
1715 5 1751 1752
1716 4 1752 1753
1717 4 1752 1754
1718 5 1752 1755
1719 5 1755 1756
1720 4 1756 1757
1721 4 1756 1758
1722 5 1756 1759
1723 5 1759 1760
1724 4 1760 1761
1725 4 1760 1762
1726 5 1760 1763
1727 1 103 1764
1728 6 1764 1744
1729 7 1763 107
1730 4 1765 1766
1731 4 1765 1767
1732 5 1765 1768
1733 5 1768 1769
1734 4 1769 1770
1735 4 1769 1771
1736 5 1769 1772
1737 5 1772 1773
1738 4 1773 1774
1739 4 1773 1775
1740 5 1773 1776
1741 5 1776 1777
1742 4 1777 1778
1743 4 1777 1779
1744 5 1777 1780
1745 5 1780 1781
1746 4 1781 1782
1747 4 1781 1783
1748 5 1781 1784
1749 1 103 1785
1750 6 1785 1765
1751 7 1784 122
1752 4 1786 1787
1753 4 1786 1788
1754 5 1786 1789
1755 5 1789 1790
1756 4 1790 1791
1757 4 1790 1792
1758 5 1790 1793
1759 5 1793 1794
1760 4 1794 1795
1761 4 1794 1796
1762 5 1794 1797
1763 5 1797 1798
1764 4 1798 1799
1765 4 1798 1800
1766 5 1798 1801
1767 5 1801 1802
1768 4 1802 1803
1769 4 1802 1804
1770 5 1802 1805
1771 1 104 1806
1772 6 1806 1786
1773 7 1805 105
1774 4 1807 1808
1775 4 1807 1809
1776 5 1807 1810
1777 5 1810 1811
1778 4 1811 1812
1779 4 1811 1813
1780 5 1811 1814
1781 5 1814 1815
1782 4 1815 1816
1783 4 1815 1817
1784 5 1815 1818
1785 5 1818 1819
1786 4 1819 1820
1787 4 1819 1821
1788 5 1819 1822
1789 5 1822 1823
1790 4 1823 1824
1791 4 1823 1825
1792 5 1823 1826
1793 1 104 1827
1794 6 1827 1807
1795 7 1826 109
1796 4 1828 1829
1797 4 1828 1830
1798 5 1828 1831
1799 5 1831 1832
1800 4 1832 1833
1801 4 1832 1834
1802 5 1832 1835
1803 5 1835 1836
1804 4 1836 1837
1805 4 1836 1838
1806 5 1836 1839
1807 5 1839 1840
1808 4 1840 1841
1809 4 1840 1842
1810 5 1840 1843
1811 5 1843 1844
1812 4 1844 1845
1813 4 1844 1846
1814 5 1844 1847
1815 1 104 1848
1816 6 1848 1828
1817 7 1847 123
1818 4 1849 1850
1819 4 1849 1851
1820 5 1849 1852
1821 5 1852 1853
1822 4 1853 1854
1823 4 1853 1855
1824 5 1853 1856
1825 5 1856 1857
1826 4 1857 1858
1827 4 1857 1859
1828 5 1857 1860
1829 5 1860 1861
1830 4 1861 1862
1831 4 1861 1863
1832 5 1861 1864
1833 5 1864 1865
1834 4 1865 1866
1835 4 1865 1867
1836 5 1865 1868
1837 1 105 1869
1838 6 1869 1849
1839 7 1868 110
1840 4 1870 1871
1841 4 1870 1872
1842 5 1870 1873
1843 5 1873 1874
1844 4 1874 1875
1845 4 1874 1876
1846 5 1874 1877
1847 5 1877 1878
1848 4 1878 1879
1849 4 1878 1880
1850 5 1878 1881
1851 5 1881 1882
1852 4 1882 1883
1853 4 1882 1884
1854 5 1882 1885
1855 5 1885 1886
1856 4 1886 1887
1857 4 1886 1888
1858 5 1886 1889
1859 1 105 1890
1860 6 1890 1870
1861 7 1889 284
1862 4 1891 1892
1863 4 1891 1893
1864 5 1891 1894
1865 5 1894 1895
1866 4 1895 1896
1867 4 1895 1897
1868 5 1895 1898
1869 5 1898 1899
1870 4 1899 1900
1871 4 1899 1901
1872 5 1899 1902
1873 5 1902 1903
1874 4 1903 1904
1875 4 1903 1905
1876 5 1903 1906
1877 5 1906 1907
1878 4 1907 1908
1879 4 1907 1909
1880 5 1907 1910
1881 1 106 1911
1882 6 1911 1891
1883 7 1910 107
1884 4 1912 1913
1885 4 1912 1914
1886 5 1912 1915
1887 5 1915 1916
1888 4 1916 1917
1889 4 1916 1918
1890 5 1916 1919
1891 5 1919 1920
1892 4 1920 1921
1893 4 1920 1922
1894 5 1920 1923
1895 5 1923 1924
1896 4 1924 1925
1897 4 1924 1926
1898 5 1924 1927
1899 5 1927 1928
1900 4 1928 1929
1901 4 1928 1930
1902 5 1928 1931
1903 1 106 1932
1904 6 1932 1912
1905 7 1931 111
1906 4 1933 1934
1907 4 1933 1935
1908 5 1933 1936
1909 5 1936 1937
1910 4 1937 1938
1911 4 1937 1939
1912 5 1937 1940
1913 5 1940 1941
1914 4 1941 1942
1915 4 1941 1943
1916 5 1941 1944
1917 5 1944 1945
1918 4 1945 1946
1919 4 1945 1947
1920 5 1945 1948
1921 5 1948 1949
1922 4 1949 1950
1923 4 1949 1951
1924 5 1949 1952
1925 1 106 1953
1926 6 1953 1933
1927 7 1952 203
1928 4 1954 1955
1929 4 1954 1956
1930 5 1954 1957
1931 5 1957 1958
1932 4 1958 1959
1933 4 1958 1960
1934 5 1958 1961
1935 5 1961 1962
1936 4 1962 1963
1937 4 1962 1964
1938 5 1962 1965
1939 5 1965 1966
1940 4 1966 1967
1941 4 1966 1968
1942 5 1966 1969
1943 5 1969 1970
1944 4 1970 1971
1945 4 1970 1972
1946 5 1970 1973
1947 1 107 1974
1948 6 1974 1954
1949 7 1973 286
1950 4 1975 1976
1951 4 1975 1977
1952 5 1975 1978
1953 5 1978 1979
1954 4 1979 1980
1955 4 1979 1981
1956 5 1979 1982
1957 5 1982 1983
1958 4 1983 1984
1959 4 1983 1985
1960 5 1983 1986
1961 5 1986 1987
1962 4 1987 1988
1963 4 1987 1989
1964 5 1987 1990
1965 5 1990 1991
1966 4 1991 1992
1967 4 1991 1993
1968 5 1991 1994
1969 1 108 1995
1970 6 1995 1975
1971 7 1994 109
1972 4 1996 1997
1973 4 1996 1998
1974 5 1996 1999
1975 5 1999 2000
1976 4 2000 2001
1977 4 2000 2002
1978 5 2000 2003
1979 5 2003 2004
1980 4 2004 2005
1981 4 2004 2006
1982 5 2004 2007
1983 5 2007 2008
1984 4 2008 2009
1985 4 2008 2010
1986 5 2008 2011
1987 5 2011 2012
1988 4 2012 2013
1989 4 2012 2014
1990 5 2012 2015
1991 1 108 2016
1992 6 2016 1996
1993 7 2015 113
1994 4 2017 2018
1995 4 2017 2019
1996 5 2017 2020
1997 5 2020 2021
1998 4 2021 2022
1999 4 2021 2023
2000 5 2021 2024
2001 5 2024 2025
2002 4 2025 2026
2003 4 2025 2027
2004 5 2025 2028
2005 5 2028 2029
2006 4 2029 2030
2007 4 2029 2031
2008 5 2029 2032
2009 5 2032 2033
2010 4 2033 2034
2011 4 2033 2035
2012 5 2033 2036
2013 1 109 2037
2014 6 2037 2017
2015 7 2036 114
2016 4 2038 2039
2017 4 2038 2040
2018 5 2038 2041
2019 5 2041 2042
2020 4 2042 2043
2021 4 2042 2044
2022 5 2042 2045
2023 5 2045 2046
2024 4 2046 2047
2025 4 2046 2048
2026 5 2046 2049
2027 5 2049 2050
2028 4 2050 2051
2029 4 2050 2052
2030 5 2050 2053
2031 5 2053 2054
2032 4 2054 2055
2033 4 2054 2056
2034 5 2054 2057
2035 1 109 2058
2036 6 2058 2038
2037 7 2057 288
2038 4 2059 2060
2039 4 2059 2061
2040 5 2059 2062
2041 5 2062 2063
2042 4 2063 2064
2043 4 2063 2065
2044 5 2063 2066
2045 5 2066 2067
2046 4 2067 2068
2047 4 2067 2069
2048 5 2067 2070
2049 5 2070 2071
2050 4 2071 2072
2051 4 2071 2073
2052 5 2071 2074
2053 5 2074 2075
2054 4 2075 2076
2055 4 2075 2077
2056 5 2075 2078
2057 1 110 2079
2058 6 2079 2059
2059 7 2078 115
2060 4 2080 2081
2061 4 2080 2082
2062 5 2080 2083
2063 5 2083 2084
2064 4 2084 2085
2065 4 2084 2086
2066 5 2084 2087
2067 5 2087 2088
2068 4 2088 2089
2069 4 2088 2090
2070 5 2088 2091
2071 5 2091 2092
2072 4 2092 2093
2073 4 2092 2094
2074 5 2092 2095
2075 5 2095 2096
2076 4 2096 2097
2077 4 2096 2098
2078 5 2096 2099
2079 1 110 2100
2080 6 2100 2080
2081 7 2099 289
2082 4 2101 2102
2083 4 2101 2103
2084 5 2101 2104
2085 5 2104 2105
2086 4 2105 2106
2087 4 2105 2107
2088 5 2105 2108
2089 5 2108 2109
2090 4 2109 2110
2091 4 2109 2111
2092 5 2109 2112
2093 5 2112 2113
2094 4 2113 2114
2095 4 2113 2115
2096 5 2113 2116
2097 5 2116 2117
2098 4 2117 2118
2099 4 2117 2119
2100 5 2117 2120
2101 1 111 2121
2102 6 2121 2101
2103 7 2120 112
2104 4 2122 2123
2105 4 2122 2124
2106 5 2122 2125
2107 5 2125 2126
2108 4 2126 2127
2109 4 2126 2128
2110 5 2126 2129
2111 5 2129 2130
2112 4 2130 2131
2113 4 2130 2132
2114 5 2130 2133
2115 5 2133 2134
2116 4 2134 2135
2117 4 2134 2136
2118 5 2134 2137
2119 5 2137 2138
2120 4 2138 2139
2121 4 2138 2140
2122 5 2138 2141
2123 1 111 2142
2124 6 2142 2122
2125 7 2141 290
2126 4 2143 2144
2127 4 2143 2145
2128 5 2143 2146
2129 5 2146 2147
2130 4 2147 2148
2131 4 2147 2149
2132 5 2147 2150
2133 5 2150 2151
2134 4 2151 2152
2135 4 2151 2153
2136 5 2151 2154
2137 5 2154 2155
2138 4 2155 2156
2139 4 2155 2157
2140 5 2155 2158
2141 5 2158 2159
2142 4 2159 2160
2143 4 2159 2161
2144 5 2159 2162
2145 1 112 2163
2146 6 2163 2143
2147 7 2162 117
2148 4 2164 2165
2149 4 2164 2166
2150 5 2164 2167
2151 5 2167 2168
2152 4 2168 2169
2153 4 2168 2170
2154 5 2168 2171
2155 5 2171 2172
2156 4 2172 2173
2157 4 2172 2174
2158 5 2172 2175
2159 5 2175 2176
2160 4 2176 2177
2161 4 2176 2178
2162 5 2176 2179
2163 5 2179 2180
2164 4 2180 2181
2165 4 2180 2182
2166 5 2180 2183
2167 1 113 2184
2168 6 2184 2164
2169 7 2183 118
2170 4 2185 2186
2171 4 2185 2187
2172 5 2185 2188
2173 5 2188 2189
2174 4 2189 2190
2175 4 2189 2191
2176 5 2189 2192
2177 5 2192 2193
2178 4 2193 2194
2179 4 2193 2195
2180 5 2193 2196
2181 5 2196 2197
2182 4 2197 2198
2183 4 2197 2199
2184 5 2197 2200
2185 5 2200 2201
2186 4 2201 2202
2187 4 2201 2203
2188 5 2201 2204
2189 1 114 2205
2190 6 2205 2185
2191 7 2204 293
2192 4 2206 2207
2193 4 2206 2208
2194 5 2206 2209
2195 5 2209 2210
2196 4 2210 2211
2197 4 2210 2212
2198 5 2210 2213
2199 5 2213 2214
2200 4 2214 2215
2201 4 2214 2216
2202 5 2214 2217
2203 5 2217 2218
2204 4 2218 2219
2205 4 2218 2220
2206 5 2218 2221
2207 5 2221 2222
2208 4 2222 2223
2209 4 2222 2224
2210 5 2222 2225
2211 1 115 2226
2212 6 2226 2206
2213 7 2225 116
2214 4 2227 2228
2215 4 2227 2229
2216 5 2227 2230
2217 5 2230 2231
2218 4 2231 2232
2219 4 2231 2233
2220 5 2231 2234
2221 5 2234 2235
2222 4 2235 2236
2223 4 2235 2237
2224 5 2235 2238
2225 5 2238 2239
2226 4 2239 2240
2227 4 2239 2241
2228 5 2239 2242
2229 5 2242 2243
2230 4 2243 2244
2231 4 2243 2245
2232 5 2243 2246
2233 1 115 2247
2234 6 2247 2227
2235 7 2246 294
2236 4 2248 2249
2237 4 2248 2250
2238 5 2248 2251
2239 5 2251 2252
2240 4 2252 2253
2241 4 2252 2254
2242 5 2252 2255
2243 5 2255 2256
2244 4 2256 2257
2245 4 2256 2258
2246 5 2256 2259
2247 5 2259 2260
2248 4 2260 2261
2249 4 2260 2262
2250 5 2260 2263
2251 5 2263 2264
2252 4 2264 2265
2253 4 2264 2266
2254 5 2264 2267
2255 1 116 2268
2256 6 2268 2248
2257 7 2267 117
2258 4 2269 2270
2259 4 2269 2271
2260 5 2269 2272
2261 5 2272 2273
2262 4 2273 2274
2263 4 2273 2275
2264 5 2273 2276
2265 5 2276 2277
2266 4 2277 2278
2267 4 2277 2279
2268 5 2277 2280
2269 5 2280 2281
2270 4 2281 2282
2271 4 2281 2283
2272 5 2281 2284
2273 5 2284 2285
2274 4 2285 2286
2275 4 2285 2287
2276 5 2285 2288
2277 1 116 2289
2278 6 2289 2269
2279 7 2288 120
2280 4 2290 2291
2281 4 2290 2292
2282 5 2290 2293
2283 5 2293 2294
2284 4 2294 2295
2285 4 2294 2296
2286 5 2294 2297
2287 5 2297 2298
2288 4 2298 2299
2289 4 2298 2300
2290 5 2298 2301
2291 5 2301 2302
2292 4 2302 2303
2293 4 2302 2304
2294 5 2302 2305
2295 5 2305 2306
2296 4 2306 2307
2297 4 2306 2308
2298 5 2306 2309
2299 1 116 2310
2300 6 2310 2290
2301 7 2309 295
2302 4 2311 2312
2303 4 2311 2313
2304 5 2311 2314
2305 5 2314 2315
2306 4 2315 2316
2307 4 2315 2317
2308 5 2315 2318
2309 5 2318 2319
2310 4 2319 2320
2311 4 2319 2321
2312 5 2319 2322
2313 5 2322 2323
2314 4 2323 2324
2315 4 2323 2325
2316 5 2323 2326
2317 5 2326 2327
2318 4 2327 2328
2319 4 2327 2329
2320 5 2327 2330
2321 1 117 2331
2322 6 2331 2311
2323 7 2330 121
2324 4 2332 2333
2325 4 2332 2334
2326 5 2332 2335
2327 5 2335 2336
2328 4 2336 2337
2329 4 2336 2338
2330 5 2336 2339
2331 5 2339 2340
2332 4 2340 2341
2333 4 2340 2342
2334 5 2340 2343
2335 5 2343 2344
2336 4 2344 2345
2337 4 2344 2346
2338 5 2344 2347
2339 5 2347 2348
2340 4 2348 2349
2341 4 2348 2350
2342 5 2348 2351
2343 1 117 2352
2344 6 2352 2332
2345 7 2351 296
2346 4 2353 2354
2347 4 2353 2355
2348 5 2353 2356
2349 5 2356 2357
2350 4 2357 2358
2351 4 2357 2359
2352 5 2357 2360
2353 5 2360 2361
2354 4 2361 2362
2355 4 2361 2363
2356 5 2361 2364
2357 5 2364 2365
2358 4 2365 2366
2359 4 2365 2367
2360 5 2365 2368
2361 5 2368 2369
2362 4 2369 2370
2363 4 2369 2371
2364 5 2369 2372
2365 1 118 2373
2366 6 2373 2353
2367 7 2372 122
2368 4 2374 2375
2369 4 2374 2376
2370 5 2374 2377
2371 5 2377 2378
2372 4 2378 2379
2373 4 2378 2380
2374 5 2378 2381
2375 5 2381 2382
2376 4 2382 2383
2377 4 2382 2384
2378 5 2382 2385
2379 5 2385 2386
2380 4 2386 2387
2381 4 2386 2388
2382 5 2386 2389
2383 5 2389 2390
2384 4 2390 2391
2385 4 2390 2392
2386 5 2390 2393
2387 1 118 2394
2388 6 2394 2374
2389 7 2393 121
2390 4 2395 2396
2391 4 2395 2397
2392 5 2395 2398
2393 5 2398 2399
2394 4 2399 2400
2395 4 2399 2401
2396 5 2399 2402
2397 5 2402 2403
2398 4 2403 2404
2399 4 2403 2405
2400 5 2403 2406
2401 5 2406 2407
2402 4 2407 2408
2403 4 2407 2409
2404 5 2407 2410
2405 5 2410 2411
2406 4 2411 2412
2407 4 2411 2413
2408 5 2411 2414
2409 1 119 2415
2410 6 2415 2395
2411 7 2414 120
2412 4 2416 2417
2413 4 2416 2418
2414 5 2416 2419
2415 5 2419 2420
2416 4 2420 2421
2417 4 2420 2422
2418 5 2420 2423
2419 5 2423 2424
2420 4 2424 2425
2421 4 2424 2426
2422 5 2424 2427
2423 5 2427 2428
2424 4 2428 2429
2425 4 2428 2430
2426 5 2428 2431
2427 5 2431 2432
2428 4 2432 2433
2429 4 2432 2434
2430 5 2432 2435
2431 1 119 2436
2432 6 2436 2416
2433 7 2435 298
2434 4 2437 2438
2435 4 2437 2439
2436 5 2437 2440
2437 5 2440 2441
2438 4 2441 2442
2439 4 2441 2443
2440 5 2441 2444
2441 5 2444 2445
2442 4 2445 2446
2443 4 2445 2447
2444 5 2445 2448
2445 5 2448 2449
2446 4 2449 2450
2447 4 2449 2451
2448 5 2449 2452
2449 5 2452 2453
2450 4 2453 2454
2451 4 2453 2455
2452 5 2453 2456
2453 1 120 2457
2454 6 2457 2437
2455 7 2456 203
2456 4 2458 2459
2457 4 2458 2460
2458 5 2458 2461
2459 5 2461 2462
2460 4 2462 2463
2461 4 2462 2464
2462 5 2462 2465
2463 5 2465 2466
2464 4 2466 2467
2465 4 2466 2468
2466 5 2466 2469
2467 5 2469 2470
2468 4 2470 2471
2469 4 2470 2472
2470 5 2470 2473
2471 5 2473 2474
2472 4 2474 2475
2473 4 2474 2476
2474 5 2474 2477
2475 1 121 2478
2476 6 2478 2458
2477 7 2477 204
2478 4 2479 2480
2479 4 2479 2481
2480 5 2479 2482
2481 5 2482 2483
2482 4 2483 2484
2483 4 2483 2485
2484 5 2483 2486
2485 5 2486 2487
2486 4 2487 2488
2487 4 2487 2489
2488 5 2487 2490
2489 5 2490 2491
2490 4 2491 2492
2491 4 2491 2493
2492 5 2491 2494
2493 5 2494 2495
2494 4 2495 2496
2495 4 2495 2497
2496 5 2495 2498
2497 1 122 2499
2498 6 2499 2479
2499 7 2498 301
2500 4 2500 2501
2501 4 2500 2502
2502 5 2500 2503
2503 5 2503 2504
2504 4 2504 2505
2505 4 2504 2506
2506 5 2504 2507
2507 5 2507 2508
2508 4 2508 2509
2509 4 2508 2510
2510 5 2508 2511
2511 5 2511 2512
2512 4 2512 2513
2513 4 2512 2514
2514 5 2512 2515
2515 5 2515 2516
2516 4 2516 2517
2517 4 2516 2518
2518 5 2516 2519
2519 1 123 2520
2520 6 2520 2500
2521 7 2519 302
2522 4 2521 2522
2523 4 2521 2523
2524 5 2521 2524
2525 5 2524 2525
2526 4 2525 2526
2527 4 2525 2527
2528 5 2525 2528
2529 5 2528 2529
2530 4 2529 2530
2531 4 2529 2531
2532 5 2529 2532
2533 5 2532 2533
2534 4 2533 2534
2535 4 2533 2535
2536 5 2533 2536
2537 5 2536 2537
2538 4 2537 2538
2539 4 2537 2539
2540 5 2537 2540
2541 1 203 2541
2542 6 2541 2521
2543 7 2540 204
2544 4 2542 2543
2545 4 2542 2544
2546 5 2542 2545
2547 5 2545 2546
2548 4 2546 2547
2549 4 2546 2548
2550 5 2546 2549
2551 5 2549 2550
2552 4 2550 2551
2553 4 2550 2552
2554 5 2550 2553
2555 5 2553 2554
2556 4 2554 2555
2557 4 2554 2556
2558 5 2554 2557
2559 5 2557 2558
2560 4 2558 2559
2561 4 2558 2560
2562 5 2558 2561
2563 1 204 2562
2564 6 2562 2542
2565 7 2561 383
2566 4 2563 2564
2567 4 2563 2565
2568 5 2563 2566
2569 5 2566 2567
2570 4 2567 2568
2571 4 2567 2569
2572 5 2567 2570
2573 5 2570 2571
2574 4 2571 2572
2575 4 2571 2573
2576 5 2571 2574
2577 5 2574 2575
2578 4 2575 2576
2579 4 2575 2577
2580 5 2575 2578
2581 5 2578 2579
2582 4 2579 2580
2583 4 2579 2581
2584 5 2579 2582
2585 1 284 2583
2586 6 2583 2563
2587 7 2582 285
2588 4 2584 2585
2589 4 2584 2586
2590 5 2584 2587
2591 5 2587 2588
2592 4 2588 2589
2593 4 2588 2590
2594 5 2588 2591
2595 5 2591 2592
2596 4 2592 2593
2597 4 2592 2594
2598 5 2592 2595
2599 5 2595 2596
2600 4 2596 2597
2601 4 2596 2598
2602 5 2596 2599
2603 5 2599 2600
2604 4 2600 2601
2605 4 2600 2602
2606 5 2600 2603
2607 1 284 2604
2608 6 2604 2584
2609 7 2603 289
2610 4 2605 2606
2611 4 2605 2607
2612 5 2605 2608
2613 5 2608 2609
2614 4 2609 2610
2615 4 2609 2611
2616 5 2609 2612
2617 5 2612 2613
2618 4 2613 2614
2619 4 2613 2615
2620 5 2613 2616
2621 5 2616 2617
2622 4 2617 2618
2623 4 2617 2619
2624 5 2617 2620
2625 5 2620 2621
2626 4 2621 2622
2627 4 2621 2623
2628 5 2621 2624
2629 1 284 2625
2630 6 2625 2605
2631 7 2624 464
2632 4 2626 2627
2633 4 2626 2628
2634 5 2626 2629
2635 5 2629 2630
2636 4 2630 2631
2637 4 2630 2632
2638 5 2630 2633
2639 5 2633 2634
2640 4 2634 2635
2641 4 2634 2636
2642 5 2634 2637
2643 5 2637 2638
2644 4 2638 2639
2645 4 2638 2640
2646 5 2638 2641
2647 5 2641 2642
2648 4 2642 2643
2649 4 2642 2644
2650 5 2642 2645
2651 1 285 2646
2652 6 2646 2626
2653 7 2645 290
2654 4 2647 2648
2655 4 2647 2649
2656 5 2647 2650
2657 5 2650 2651
2658 4 2651 2652
2659 4 2651 2653
2660 5 2651 2654
2661 5 2654 2655
2662 4 2655 2656
2663 4 2655 2657
2664 5 2655 2658
2665 5 2658 2659
2666 4 2659 2660
2667 4 2659 2661
2668 5 2659 2662
2669 5 2662 2663
2670 4 2663 2664
2671 4 2663 2665
2672 5 2663 2666
2673 1 285 2667
2674 6 2667 2647
2675 7 2666 465
2676 4 2668 2669
2677 4 2668 2670
2678 5 2668 2671
2679 5 2671 2672
2680 4 2672 2673
2681 4 2672 2674
2682 5 2672 2675
2683 5 2675 2676
2684 4 2676 2677
2685 4 2676 2678
2686 5 2676 2679
2687 5 2679 2680
2688 4 2680 2681
2689 4 2680 2682
2690 5 2680 2683
2691 5 2683 2684
2692 4 2684 2685
2693 4 2684 2686
2694 5 2684 2687
2695 1 285 2688
2696 6 2688 2668
2697 7 2687 382
2698 4 2689 2690
2699 4 2689 2691
2700 5 2689 2692
2701 5 2692 2693
2702 4 2693 2694
2703 4 2693 2695
2704 5 2693 2696
2705 5 2696 2697
2706 4 2697 2698
2707 4 2697 2699
2708 5 2697 2700
2709 5 2700 2701
2710 4 2701 2702
2711 4 2701 2703
2712 5 2701 2704
2713 5 2704 2705
2714 4 2705 2706
2715 4 2705 2707
2716 5 2705 2708
2717 1 286 2709
2718 6 2709 2689
2719 7 2708 291
2720 4 2710 2711
2721 4 2710 2712
2722 5 2710 2713
2723 5 2713 2714
2724 4 2714 2715
2725 4 2714 2716
2726 5 2714 2717
2727 5 2717 2718
2728 4 2718 2719
2729 4 2718 2720
2730 5 2718 2721
2731 5 2721 2722
2732 4 2722 2723
2733 4 2722 2724
2734 5 2722 2725
2735 5 2725 2726
2736 4 2726 2727
2737 4 2726 2728
2738 5 2726 2729
2739 1 286 2730
2740 6 2730 2710
2741 7 2729 466
2742 4 2731 2732
2743 4 2731 2733
2744 5 2731 2734
2745 5 2734 2735
2746 4 2735 2736
2747 4 2735 2737
2748 5 2735 2738
2749 5 2738 2739
2750 4 2739 2740
2751 4 2739 2741
2752 5 2739 2742
2753 5 2742 2743
2754 4 2743 2744
2755 4 2743 2745
2756 5 2743 2746
2757 5 2746 2747
2758 4 2747 2748
2759 4 2747 2749
2760 5 2747 2750
2761 1 286 2751
2762 6 2751 2731
2763 7 2750 383
2764 4 2752 2753
2765 4 2752 2754
2766 5 2752 2755
2767 5 2755 2756
2768 4 2756 2757
2769 4 2756 2758
2770 5 2756 2759
2771 5 2759 2760
2772 4 2760 2761
2773 4 2760 2762
2774 5 2760 2763
2775 5 2763 2764
2776 4 2764 2765
2777 4 2764 2766
2778 5 2764 2767
2779 5 2767 2768
2780 4 2768 2769
2781 4 2768 2770
2782 5 2768 2771
2783 1 287 2772
2784 6 2772 2752
2785 7 2771 288
2786 4 2773 2774
2787 4 2773 2775
2788 5 2773 2776
2789 5 2776 2777
2790 4 2777 2778
2791 4 2777 2779
2792 5 2777 2780
2793 5 2780 2781
2794 4 2781 2782
2795 4 2781 2783
2796 5 2781 2784
2797 5 2784 2785
2798 4 2785 2786
2799 4 2785 2787
2800 5 2785 2788
2801 5 2788 2789
2802 4 2789 2790
2803 4 2789 2791
2804 5 2789 2792
2805 1 287 2793
2806 6 2793 2773
2807 7 2792 292
2808 4 2794 2795
2809 4 2794 2796
2810 5 2794 2797
2811 5 2797 2798
2812 4 2798 2799
2813 4 2798 2800
2814 5 2798 2801
2815 5 2801 2802
2816 4 2802 2803
2817 4 2802 2804
2818 5 2802 2805
2819 5 2805 2806
2820 4 2806 2807
2821 4 2806 2808
2822 5 2806 2809
2823 5 2809 2810
2824 4 2810 2811
2825 4 2810 2812
2826 5 2810 2813
2827 1 287 2814
2828 6 2814 2794
2829 7 2813 467
2830 4 2815 2816
2831 4 2815 2817
2832 5 2815 2818
2833 5 2818 2819
2834 4 2819 2820
2835 4 2819 2821
2836 5 2819 2822
2837 5 2822 2823
2838 4 2823 2824
2839 4 2823 2825
2840 5 2823 2826
2841 5 2826 2827
2842 4 2827 2828
2843 4 2827 2829
2844 5 2827 2830
2845 5 2830 2831
2846 4 2831 2832
2847 4 2831 2833
2848 5 2831 2834
2849 1 287 2835
2850 6 2835 2815
2851 7 2834 291
2852 4 2836 2837
2853 4 2836 2838
2854 5 2836 2839
2855 5 2839 2840
2856 4 2840 2841
2857 4 2840 2842
2858 5 2840 2843
2859 5 2843 2844
2860 4 2844 2845
2861 4 2844 2846
2862 5 2844 2847
2863 5 2847 2848
2864 4 2848 2849
2865 4 2848 2850
2866 5 2848 2851
2867 5 2851 2852
2868 4 2852 2853
2869 4 2852 2854
2870 5 2852 2855
2871 1 288 2856
2872 6 2856 2836
2873 7 2855 293
2874 4 2857 2858
2875 4 2857 2859
2876 5 2857 2860
2877 5 2860 2861
2878 4 2861 2862
2879 4 2861 2863
2880 5 2861 2864
2881 5 2864 2865
2882 4 2865 2866
2883 4 2865 2867
2884 5 2865 2868
2885 5 2868 2869
2886 4 2869 2870
2887 4 2869 2871
2888 5 2869 2872
2889 5 2872 2873
2890 4 2873 2874
2891 4 2873 2875
2892 5 2873 2876
2893 1 288 2877
2894 6 2877 2857
2895 7 2876 468
2896 4 2878 2879
2897 4 2878 2880
2898 5 2878 2881
2899 5 2881 2882
2900 4 2882 2883
2901 4 2882 2884
2902 5 2882 2885
2903 5 2885 2886
2904 4 2886 2887
2905 4 2886 2888
2906 5 2886 2889
2907 5 2889 2890
2908 4 2890 2891
2909 4 2890 2892
2910 5 2890 2893
2911 5 2893 2894
2912 4 2894 2895
2913 4 2894 2896
2914 5 2894 2897
2915 1 289 2898
2916 6 2898 2878
2917 7 2897 290
2918 4 2899 2900
2919 4 2899 2901
2920 5 2899 2902
2921 5 2902 2903
2922 4 2903 2904
2923 4 2903 2905
2924 5 2903 2906
2925 5 2906 2907
2926 4 2907 2908
2927 4 2907 2909
2928 5 2907 2910
2929 5 2910 2911
2930 4 2911 2912
2931 4 2911 2913
2932 5 2911 2914
2933 5 2914 2915
2934 4 2915 2916
2935 4 2915 2917
2936 5 2915 2918
2937 1 291 2919
2938 6 2919 2899
2939 7 2918 296
2940 4 2920 2921
2941 4 2920 2922
2942 5 2920 2923
2943 5 2923 2924
2944 4 2924 2925
2945 4 2924 2926
2946 5 2924 2927
2947 5 2927 2928
2948 4 2928 2929
2949 4 2928 2930
2950 5 2928 2931
2951 5 2931 2932
2952 4 2932 2933
2953 4 2932 2934
2954 5 2932 2935
2955 5 2935 2936
2956 4 2936 2937
2957 4 2936 2938
2958 5 2936 2939
2959 1 291 2940
2960 6 2940 2920
2961 7 2939 471
2962 4 2941 2942
2963 4 2941 2943
2964 5 2941 2944
2965 5 2944 2945
2966 4 2945 2946
2967 4 2945 2947
2968 5 2945 2948
2969 5 2948 2949
2970 4 2949 2950
2971 4 2949 2951
2972 5 2949 2952
2973 5 2952 2953
2974 4 2953 2954
2975 4 2953 2955
2976 5 2953 2956
2977 5 2956 2957
2978 4 2957 2958
2979 4 2957 2959
2980 5 2957 2960
2981 1 292 2961
2982 6 2961 2941
2983 7 2960 472
2984 4 2962 2963
2985 4 2962 2964
2986 5 2962 2965
2987 5 2965 2966
2988 4 2966 2967
2989 4 2966 2968
2990 5 2966 2969
2991 5 2969 2970
2992 4 2970 2971
2993 4 2970 2972
2994 5 2970 2973
2995 5 2973 2974
2996 4 2974 2975
2997 4 2974 2976
2998 5 2974 2977
2999 5 2977 2978
3000 4 2978 2979
3001 4 2978 2980
3002 5 2978 2981
3003 1 292 2982
3004 6 2982 2962
3005 7 2981 296
3006 4 2983 2984
3007 4 2983 2985
3008 5 2983 2986
3009 5 2986 2987
3010 4 2987 2988
3011 4 2987 2989
3012 5 2987 2990
3013 5 2990 2991
3014 4 2991 2992
3015 4 2991 2993
3016 5 2991 2994
3017 5 2994 2995
3018 4 2995 2996
3019 4 2995 2997
3020 5 2995 2998
3021 5 2998 2999
3022 4 2999 3000
3023 4 2999 3001
3024 5 2999 3002
3025 1 293 3003
3026 6 3003 2983
3027 7 3002 297
3028 4 3004 3005
3029 4 3004 3006
3030 5 3004 3007
3031 5 3007 3008
3032 4 3008 3009
3033 4 3008 3010
3034 5 3008 3011
3035 5 3011 3012
3036 4 3012 3013
3037 4 3012 3014
3038 5 3012 3015
3039 5 3015 3016
3040 4 3016 3017
3041 4 3016 3018
3042 5 3016 3019
3043 5 3019 3020
3044 4 3020 3021
3045 4 3020 3022
3046 5 3020 3023
3047 1 293 3024
3048 6 3024 3004
3049 7 3023 473
3050 4 3025 3026
3051 4 3025 3027
3052 5 3025 3028
3053 5 3028 3029
3054 4 3029 3030
3055 4 3029 3031
3056 5 3029 3032
3057 5 3032 3033
3058 4 3033 3034
3059 4 3033 3035
3060 5 3033 3036
3061 5 3036 3037
3062 4 3037 3038
3063 4 3037 3039
3064 5 3037 3040
3065 5 3040 3041
3066 4 3041 3042
3067 4 3041 3043
3068 5 3041 3044
3069 1 294 3045
3070 6 3045 3025
3071 7 3044 295
3072 4 3046 3047
3073 4 3046 3048
3074 5 3046 3049
3075 5 3049 3050
3076 4 3050 3051
3077 4 3050 3052
3078 5 3050 3053
3079 5 3053 3054
3080 4 3054 3055
3081 4 3054 3056
3082 5 3054 3057
3083 5 3057 3058
3084 4 3058 3059
3085 4 3058 3060
3086 5 3058 3061
3087 5 3061 3062
3088 4 3062 3063
3089 4 3062 3064
3090 5 3062 3065
3091 1 294 3066
3092 6 3066 3046
3093 7 3065 298
3094 4 3067 3068
3095 4 3067 3069
3096 5 3067 3070
3097 5 3070 3071
3098 4 3071 3072
3099 4 3071 3073
3100 5 3071 3074
3101 5 3074 3075
3102 4 3075 3076
3103 4 3075 3077
3104 5 3075 3078
3105 5 3078 3079
3106 4 3079 3080
3107 4 3079 3081
3108 5 3079 3082
3109 5 3082 3083
3110 4 3083 3084
3111 4 3083 3085
3112 5 3083 3086
3113 1 294 3087
3114 6 3087 3067
3115 7 3086 474
3116 4 3088 3089
3117 4 3088 3090
3118 5 3088 3091
3119 5 3091 3092
3120 4 3092 3093
3121 4 3092 3094
3122 5 3092 3095
3123 5 3095 3096
3124 4 3096 3097
3125 4 3096 3098
3126 5 3096 3099
3127 5 3099 3100
3128 4 3100 3101
3129 4 3100 3102
3130 5 3100 3103
3131 5 3103 3104
3132 4 3104 3105
3133 4 3104 3106
3134 5 3104 3107
3135 1 295 3108
3136 6 3108 3088
3137 7 3107 299
3138 4 3109 3110
3139 4 3109 3111
3140 5 3109 3112
3141 5 3112 3113
3142 4 3113 3114
3143 4 3113 3115
3144 5 3113 3116
3145 5 3116 3117
3146 4 3117 3118
3147 4 3117 3119
3148 5 3117 3120
3149 5 3120 3121
3150 4 3121 3122
3151 4 3121 3123
3152 5 3121 3124
3153 5 3124 3125
3154 4 3125 3126
3155 4 3125 3127
3156 5 3125 3128
3157 1 295 3129
3158 6 3129 3109
3159 7 3128 475
3160 4 3130 3131
3161 4 3130 3132
3162 5 3130 3133
3163 5 3133 3134
3164 4 3134 3135
3165 4 3134 3136
3166 5 3134 3137
3167 5 3137 3138
3168 4 3138 3139
3169 4 3138 3140
3170 5 3138 3141
3171 5 3141 3142
3172 4 3142 3143
3173 4 3142 3144
3174 5 3142 3145
3175 5 3145 3146
3176 4 3146 3147
3177 4 3146 3148
3178 5 3146 3149
3179 1 296 3150
3180 6 3150 3130
3181 7 3149 300
3182 4 3151 3152
3183 4 3151 3153
3184 5 3151 3154
3185 5 3154 3155
3186 4 3155 3156
3187 4 3155 3157
3188 5 3155 3158
3189 5 3158 3159
3190 4 3159 3160
3191 4 3159 3161
3192 5 3159 3162
3193 5 3162 3163
3194 4 3163 3164
3195 4 3163 3165
3196 5 3163 3166
3197 5 3166 3167
3198 4 3167 3168
3199 4 3167 3169
3200 5 3167 3170
3201 1 297 3171
3202 6 3171 3151
3203 7 3170 302
3204 4 3172 3173
3205 4 3172 3174
3206 5 3172 3175
3207 5 3175 3176
3208 4 3176 3177
3209 4 3176 3178
3210 5 3176 3179
3211 5 3179 3180
3212 4 3180 3181
3213 4 3180 3182
3214 5 3180 3183
3215 5 3183 3184
3216 4 3184 3185
3217 4 3184 3186
3218 5 3184 3187
3219 5 3187 3188
3220 4 3188 3189
3221 4 3188 3190
3222 5 3188 3191
3223 1 297 3192
3224 6 3192 3172
3225 7 3191 478
3226 4 3193 3194
3227 4 3193 3195
3228 5 3193 3196
3229 5 3196 3197
3230 4 3197 3198
3231 4 3197 3199
3232 5 3197 3200
3233 5 3200 3201
3234 4 3201 3202
3235 4 3201 3203
3236 5 3201 3204
3237 5 3204 3205
3238 4 3205 3206
3239 4 3205 3207
3240 5 3205 3208
3241 5 3208 3209
3242 4 3209 3210
3243 4 3209 3211
3244 5 3209 3212
3245 1 298 3213
3246 6 3213 3193
3247 7 3212 299
3248 4 3214 3215
3249 4 3214 3216
3250 5 3214 3217
3251 5 3217 3218
3252 4 3218 3219
3253 4 3218 3220
3254 5 3218 3221
3255 5 3221 3222
3256 4 3222 3223
3257 4 3222 3224
3258 5 3222 3225
3259 5 3225 3226
3260 4 3226 3227
3261 4 3226 3228
3262 5 3226 3229
3263 5 3229 3230
3264 4 3230 3231
3265 4 3230 3232
3266 5 3230 3233
3267 1 298 3234
3268 6 3234 3214
3269 7 3233 479
3270 4 3235 3236
3271 4 3235 3237
3272 5 3235 3238
3273 5 3238 3239
3274 4 3239 3240
3275 4 3239 3241
3276 5 3239 3242
3277 5 3242 3243
3278 4 3243 3244
3279 4 3243 3245
3280 5 3243 3246
3281 5 3246 3247
3282 4 3247 3248
3283 4 3247 3249
3284 5 3247 3250
3285 5 3250 3251
3286 4 3251 3252
3287 4 3251 3253
3288 5 3251 3254
3289 1 299 3255
3290 6 3255 3235
3291 7 3254 300
3292 4 3256 3257
3293 4 3256 3258
3294 5 3256 3259
3295 5 3259 3260
3296 4 3260 3261
3297 4 3260 3262
3298 5 3260 3263
3299 5 3263 3264
3300 4 3264 3265
3301 4 3264 3266
3302 5 3264 3267
3303 5 3267 3268
3304 4 3268 3269
3305 4 3268 3270
3306 5 3268 3271
3307 5 3271 3272
3308 4 3272 3273
3309 4 3272 3274
3310 5 3272 3275
3311 1 299 3276
3312 6 3276 3256
3313 7 3275 382
3314 4 3277 3278
3315 4 3277 3279
3316 5 3277 3280
3317 5 3280 3281
3318 4 3281 3282
3319 4 3281 3283
3320 5 3281 3284
3321 5 3284 3285
3322 4 3285 3286
3323 4 3285 3287
3324 5 3285 3288
3325 5 3288 3289
3326 4 3289 3290
3327 4 3289 3291
3328 5 3289 3292
3329 5 3292 3293
3330 4 3293 3294
3331 4 3293 3295
3332 5 3293 3296
3333 1 300 3297
3334 6 3297 3277
3335 7 3296 481
3336 4 3298 3299
3337 4 3298 3300
3338 5 3298 3301
3339 5 3301 3302
3340 4 3302 3303
3341 4 3302 3304
3342 5 3302 3305
3343 5 3305 3306
3344 4 3306 3307
3345 4 3306 3308
3346 5 3306 3309
3347 5 3309 3310
3348 4 3310 3311
3349 4 3310 3312
3350 5 3310 3313
3351 5 3313 3314
3352 4 3314 3315
3353 4 3314 3316
3354 5 3314 3317
3355 1 301 3318
3356 6 3318 3298
3357 7 3317 302
3358 4 3319 3320
3359 4 3319 3321
3360 5 3319 3322
3361 5 3322 3323
3362 4 3323 3324
3363 4 3323 3325
3364 5 3323 3326
3365 5 3326 3327
3366 4 3327 3328
3367 4 3327 3329
3368 5 3327 3330
3369 5 3330 3331
3370 4 3331 3332
3371 4 3331 3333
3372 5 3331 3334
3373 5 3334 3335
3374 4 3335 3336
3375 4 3335 3337
3376 5 3335 3338
3377 1 301 3339
3378 6 3339 3319
3379 7 3338 482
3380 4 3340 3341
3381 4 3340 3342
3382 5 3340 3343
3383 5 3343 3344
3384 4 3344 3345
3385 4 3344 3346
3386 5 3344 3347
3387 5 3347 3348
3388 4 3348 3349
3389 4 3348 3350
3390 5 3348 3351
3391 5 3351 3352
3392 4 3352 3353
3393 4 3352 3354
3394 5 3352 3355
3395 5 3355 3356
3396 4 3356 3357
3397 4 3356 3358
3398 5 3356 3359
3399 1 302 3360
3400 6 3360 3340
3401 8 3359 325
3402 4 3361 3362
3403 4 3361 3363
3404 5 3361 3364
3405 5 3364 3365
3406 4 3365 3366
3407 4 3365 3367
3408 5 3365 3368
3409 5 3368 3369
3410 4 3369 3370
3411 4 3369 3371
3412 5 3369 3372
3413 5 3372 3373
3414 4 3373 3374
3415 4 3373 3375
3416 5 3373 3376
3417 5 3376 3377
3418 4 3377 3378
3419 4 3377 3379
3420 5 3377 3380
3421 1 382 3381
3422 6 3381 3361
3423 7 3380 383
3424 4 3382 3383
3425 4 3382 3384
3426 5 3382 3385
3427 5 3385 3386
3428 4 3386 3387
3429 4 3386 3388
3430 5 3386 3389
3431 5 3389 3390
3432 4 3390 3391
3433 4 3390 3392
3434 5 3390 3393
3435 5 3393 3394
3436 4 3394 3395
3437 4 3394 3396
3438 5 3394 3397
3439 5 3397 3398
3440 4 3398 3399
3441 4 3398 3400
3442 5 3398 3401
3443 1 382 3402
3444 6 3402 3382
3445 7 3401 485
3446 4 3403 3404
3447 4 3403 3405
3448 5 3403 3406
3449 5 3406 3407
3450 4 3407 3408
3451 4 3407 3409
3452 5 3407 3410
3453 5 3410 3411
3454 4 3411 3412
3455 4 3411 3413
3456 5 3411 3414
3457 5 3414 3415
3458 4 3415 3416
3459 4 3415 3417
3460 5 3415 3418
3461 5 3418 3419
3462 4 3419 3420
3463 4 3419 3421
3464 5 3419 3422
3465 1 383 3423
3466 6 3423 3403
3467 7 3422 486
3468 4 3424 3425
3469 4 3424 3426
3470 5 3424 3427
3471 5 3427 3428
3472 4 3428 3429
3473 4 3428 3430
3474 5 3428 3431
3475 5 3431 3432
3476 4 3432 3433
3477 4 3432 3434
3478 5 3432 3435
3479 5 3435 3436
3480 4 3436 3437
3481 4 3436 3438
3482 5 3436 3439
3483 5 3439 3440
3484 4 3440 3441
3485 4 3440 3442
3486 5 3440 3443
3487 4 406 3424
3488 7 3443 463
3489 4 3444 3445
3490 4 3444 3446
3491 5 3444 3447
3492 5 3447 3448
3493 4 3448 3449
3494 4 3448 3450
3495 5 3448 3451
3496 5 3451 3452
3497 4 3452 3453
3498 4 3452 3454
3499 5 3452 3455
3500 5 3455 3456
3501 4 3456 3457
3502 4 3456 3458
3503 5 3456 3459
3504 5 3459 3460
3505 4 3460 3461
3506 4 3460 3462
3507 5 3460 3463
3508 1 463 3464
3509 6 3464 3444
3510 7 3463 488
3511 4 3465 3466
3512 4 3465 3467
3513 5 3465 3468
3514 5 3468 3469
3515 4 3469 3470
3516 4 3469 3471
3517 5 3469 3472
3518 5 3472 3473
3519 4 3473 3474
3520 4 3473 3475
3521 5 3473 3476
3522 5 3476 3477
3523 4 3477 3478
3524 4 3477 3479
3525 5 3477 3480
3526 5 3480 3481
3527 4 3481 3482
3528 4 3481 3483
3529 5 3481 3484
3530 1 463 3485
3531 6 3485 3465
3532 7 3484 483
3533 4 3486 3487
3534 4 3486 3488
3535 5 3486 3489
3536 5 3489 3490
3537 4 3490 3491
3538 4 3490 3492
3539 5 3490 3493
3540 5 3493 3494
3541 4 3494 3495
3542 4 3494 3496
3543 5 3494 3497
3544 5 3497 3498
3545 4 3498 3499
3546 4 3498 3500
3547 5 3498 3501
3548 5 3501 3502
3549 4 3502 3503
3550 4 3502 3504
3551 5 3502 3505
3552 1 464 3506
3553 6 3506 3486
3554 7 3505 465
3555 4 3507 3508
3556 4 3507 3509
3557 5 3507 3510
3558 5 3510 3511
3559 4 3511 3512
3560 4 3511 3513
3561 5 3511 3514
3562 5 3514 3515
3563 4 3515 3516
3564 4 3515 3517
3565 5 3515 3518
3566 5 3518 3519
3567 4 3519 3520
3568 4 3519 3521
3569 5 3519 3522
3570 5 3522 3523
3571 4 3523 3524
3572 4 3523 3525
3573 5 3523 3526
3574 1 464 3527
3575 6 3527 3507
3576 7 3526 489
3577 4 3528 3529
3578 4 3528 3530
3579 5 3528 3531
3580 5 3531 3532
3581 4 3532 3533
3582 4 3532 3534
3583 5 3532 3535
3584 5 3535 3536
3585 4 3536 3537
3586 4 3536 3538
3587 5 3536 3539
3588 5 3539 3540
3589 4 3540 3541
3590 4 3540 3542
3591 5 3540 3543
3592 5 3543 3544
3593 4 3544 3545
3594 4 3544 3546
3595 5 3544 3547
3596 1 464 3548
3597 6 3548 3528
3598 7 3547 484
3599 4 3549 3550
3600 4 3549 3551
3601 5 3549 3552
3602 5 3552 3553
3603 4 3553 3554
3604 4 3553 3555
3605 5 3553 3556
3606 5 3556 3557
3607 4 3557 3558
3608 4 3557 3559
3609 5 3557 3560
3610 5 3560 3561
3611 4 3561 3562
3612 4 3561 3563
3613 5 3561 3564
3614 5 3564 3565
3615 4 3565 3566
3616 4 3565 3567
3617 5 3565 3568
3618 1 465 3569
3619 6 3569 3549
3620 7 3568 470
3621 4 3570 3571
3622 4 3570 3572
3623 5 3570 3573
3624 5 3573 3574
3625 4 3574 3575
3626 4 3574 3576
3627 5 3574 3577
3628 5 3577 3578
3629 4 3578 3579
3630 4 3578 3580
3631 5 3578 3581
3632 5 3581 3582
3633 4 3582 3583
3634 4 3582 3584
3635 5 3582 3585
3636 5 3585 3586
3637 4 3586 3587
3638 4 3586 3588
3639 5 3586 3589
3640 1 465 3590
3641 6 3590 3570
3642 7 3589 490
3643 4 3591 3592
3644 4 3591 3593
3645 5 3591 3594
3646 5 3594 3595
3647 4 3595 3596
3648 4 3595 3597
3649 5 3595 3598
3650 5 3598 3599
3651 4 3599 3600
3652 4 3599 3601
3653 5 3599 3602
3654 5 3602 3603
3655 4 3603 3604
3656 4 3603 3605
3657 5 3603 3606
3658 5 3606 3607
3659 4 3607 3608
3660 4 3607 3609
3661 5 3607 3610
3662 1 466 3611
3663 6 3611 3591
3664 7 3610 491
3665 4 3612 3613
3666 4 3612 3614
3667 5 3612 3615
3668 5 3615 3616
3669 4 3616 3617
3670 4 3616 3618
3671 5 3616 3619
3672 5 3619 3620
3673 4 3620 3621
3674 4 3620 3622
3675 5 3620 3623
3676 5 3623 3624
3677 4 3624 3625
3678 4 3624 3626
3679 5 3624 3627
3680 5 3627 3628
3681 4 3628 3629
3682 4 3628 3630
3683 5 3628 3631
3684 1 466 3632
3685 6 3632 3612
3686 7 3631 486
3687 4 3633 3634
3688 4 3633 3635
3689 5 3633 3636
3690 5 3636 3637
3691 4 3637 3638
3692 4 3637 3639
3693 5 3637 3640
3694 5 3640 3641
3695 4 3641 3642
3696 4 3641 3643
3697 5 3641 3644
3698 5 3644 3645
3699 4 3645 3646
3700 4 3645 3647
3701 5 3645 3648
3702 5 3648 3649
3703 4 3649 3650
3704 4 3649 3651
3705 5 3649 3652
3706 1 467 3653
3707 6 3653 3633
3708 7 3652 468
3709 4 3654 3655
3710 4 3654 3656
3711 5 3654 3657
3712 5 3657 3658
3713 4 3658 3659
3714 4 3658 3660
3715 5 3658 3661
3716 5 3661 3662
3717 4 3662 3663
3718 4 3662 3664
3719 5 3662 3665
3720 5 3665 3666
3721 4 3666 3667
3722 4 3666 3668
3723 5 3666 3669
3724 5 3669 3670
3725 4 3670 3671
3726 4 3670 3672
3727 5 3670 3673
3728 1 467 3674
3729 6 3674 3654
3730 7 3673 492
3731 4 3675 3676
3732 4 3675 3677
3733 5 3675 3678
3734 5 3678 3679
3735 4 3679 3680
3736 4 3679 3681
3737 5 3679 3682
3738 5 3682 3683
3739 4 3683 3684
3740 4 3683 3685
3741 5 3683 3686
3742 5 3686 3687
3743 4 3687 3688
3744 4 3687 3689
3745 5 3687 3690
3746 5 3690 3691
3747 4 3691 3692
3748 4 3691 3693
3749 5 3691 3694
3750 1 468 3695
3751 6 3695 3675
3752 7 3694 469
3753 4 3696 3697
3754 4 3696 3698
3755 5 3696 3699
3756 5 3699 3700
3757 4 3700 3701
3758 4 3700 3702
3759 5 3700 3703
3760 5 3703 3704
3761 4 3704 3705
3762 4 3704 3706
3763 5 3704 3707
3764 5 3707 3708
3765 4 3708 3709
3766 4 3708 3710
3767 5 3708 3711
3768 5 3711 3712
3769 4 3712 3713
3770 4 3712 3714
3771 5 3712 3715
3772 1 468 3716
3773 6 3716 3696
3774 7 3715 493
3775 4 3717 3718
3776 4 3717 3719
3777 5 3717 3720
3778 5 3720 3721
3779 4 3721 3722
3780 4 3721 3723
3781 5 3721 3724
3782 5 3724 3725
3783 4 3725 3726
3784 4 3725 3727
3785 5 3725 3728
3786 5 3728 3729
3787 4 3729 3730
3788 4 3729 3731
3789 5 3729 3732
3790 5 3732 3733
3791 4 3733 3734
3792 4 3733 3735
3793 5 3733 3736
3794 1 469 3737
3795 6 3737 3717
3796 7 3736 470
3797 4 3738 3739
3798 4 3738 3740
3799 5 3738 3741
3800 5 3741 3742
3801 4 3742 3743
3802 4 3742 3744
3803 5 3742 3745
3804 5 3745 3746
3805 4 3746 3747
3806 4 3746 3748
3807 5 3746 3749
3808 5 3749 3750
3809 4 3750 3751
3810 4 3750 3752
3811 5 3750 3753
3812 5 3753 3754
3813 4 3754 3755
3814 4 3754 3756
3815 5 3754 3757
3816 1 469 3758
3817 6 3758 3738
3818 7 3757 474
3819 4 3759 3760
3820 4 3759 3761
3821 5 3759 3762
3822 5 3762 3763
3823 4 3763 3764
3824 4 3763 3765
3825 5 3763 3766
3826 5 3766 3767
3827 4 3767 3768
3828 4 3767 3769
3829 5 3767 3770
3830 5 3770 3771
3831 4 3771 3772
3832 4 3771 3773
3833 5 3771 3774
3834 5 3774 3775
3835 4 3775 3776
3836 4 3775 3777
3837 5 3775 3778
3838 1 469 3779
3839 6 3779 3759
3840 7 3778 494
3841 4 3780 3781
3842 4 3780 3782
3843 5 3780 3783
3844 5 3783 3784
3845 4 3784 3785
3846 4 3784 3786
3847 5 3784 3787
3848 5 3787 3788
3849 4 3788 3789
3850 4 3788 3790
3851 5 3788 3791
3852 5 3791 3792
3853 4 3792 3793
3854 4 3792 3794
3855 5 3792 3795
3856 5 3795 3796
3857 4 3796 3797
3858 4 3796 3798
3859 5 3796 3799
3860 1 470 3800
3861 6 3800 3780
3862 7 3799 475
3863 4 3801 3802
3864 4 3801 3803
3865 5 3801 3804
3866 5 3804 3805
3867 4 3805 3806
3868 4 3805 3807
3869 5 3805 3808
3870 5 3808 3809
3871 4 3809 3810
3872 4 3809 3811
3873 5 3809 3812
3874 5 3812 3813
3875 4 3813 3814
3876 4 3813 3815
3877 5 3813 3816
3878 5 3816 3817
3879 4 3817 3818
3880 4 3817 3819
3881 5 3817 3820
3882 1 471 3821
3883 6 3821 3801
3884 7 3820 476
3885 4 3822 3823
3886 4 3822 3824
3887 5 3822 3825
3888 5 3825 3826
3889 4 3826 3827
3890 4 3826 3828
3891 5 3826 3829
3892 5 3829 3830
3893 4 3830 3831
3894 4 3830 3832
3895 5 3830 3833
3896 5 3833 3834
3897 4 3834 3835
3898 4 3834 3836
3899 5 3834 3837
3900 5 3837 3838
3901 4 3838 3839
3902 4 3838 3840
3903 5 3838 3841
3904 1 471 3842
3905 6 3842 3822
3906 7 3841 496
3907 4 3843 3844
3908 4 3843 3845
3909 5 3843 3846
3910 5 3846 3847
3911 4 3847 3848
3912 4 3847 3849
3913 5 3847 3850
3914 5 3850 3851
3915 4 3851 3852
3916 4 3851 3853
3917 5 3851 3854
3918 5 3854 3855
3919 4 3855 3856
3920 4 3855 3857
3921 5 3855 3858
3922 5 3858 3859
3923 4 3859 3860
3924 4 3859 3861
3925 5 3859 3862
3926 1 472 3863
3927 6 3863 3843
3928 7 3862 477
3929 4 3864 3865
3930 4 3864 3866
3931 5 3864 3867
3932 5 3867 3868
3933 4 3868 3869
3934 4 3868 3870
3935 5 3868 3871
3936 5 3871 3872
3937 4 3872 3873
3938 4 3872 3874
3939 5 3872 3875
3940 5 3875 3876
3941 4 3876 3877
3942 4 3876 3878
3943 5 3876 3879
3944 5 3879 3880
3945 4 3880 3881
3946 4 3880 3882
3947 5 3880 3883
3948 1 472 3884
3949 6 3884 3864
3950 7 3883 497
3951 4 3885 3886
3952 4 3885 3887
3953 5 3885 3888
3954 5 3888 3889
3955 4 3889 3890
3956 4 3889 3891
3957 5 3889 3892
3958 5 3892 3893
3959 4 3893 3894
3960 4 3893 3895
3961 5 3893 3896
3962 5 3896 3897
3963 4 3897 3898
3964 4 3897 3899
3965 5 3897 3900
3966 5 3900 3901
3967 4 3901 3902
3968 4 3901 3903
3969 5 3901 3904
3970 1 472 3905
3971 6 3905 3885
3972 7 3904 476
3973 4 3906 3907
3974 4 3906 3908
3975 5 3906 3909
3976 5 3909 3910
3977 4 3910 3911
3978 4 3910 3912
3979 5 3910 3913
3980 5 3913 3914
3981 4 3914 3915
3982 4 3914 3916
3983 5 3914 3917
3984 5 3917 3918
3985 4 3918 3919
3986 4 3918 3920
3987 5 3918 3921
3988 5 3921 3922
3989 4 3922 3923
3990 4 3922 3924
3991 5 3922 3925
3992 1 473 3926
3993 6 3926 3906
3994 7 3925 474
3995 4 3927 3928
3996 4 3927 3929
3997 5 3927 3930
3998 5 3930 3931
3999 4 3931 3932
4000 4 3931 3933
4001 5 3931 3934
4002 5 3934 3935
4003 4 3935 3936
4004 4 3935 3937
4005 5 3935 3938
4006 5 3938 3939
4007 4 3939 3940
4008 4 3939 3941
4009 5 3939 3942
4010 5 3942 3943
4011 4 3943 3944
4012 4 3943 3945
4013 5 3943 3946
4014 1 473 3947
4015 6 3947 3927
4016 7 3946 498
4017 4 3948 3949
4018 4 3948 3950
4019 5 3948 3951
4020 5 3951 3952
4021 4 3952 3953
4022 4 3952 3954
4023 5 3952 3955
4024 5 3955 3956
4025 4 3956 3957
4026 4 3956 3958
4027 5 3956 3959
4028 5 3959 3960
4029 4 3960 3961
4030 4 3960 3962
4031 5 3960 3963
4032 5 3963 3964
4033 4 3964 3965
4034 4 3964 3966
4035 5 3964 3967
4036 1 474 3968
4037 6 3968 3948
4038 7 3967 479
4039 4 3969 3970
4040 4 3969 3971
4041 5 3969 3972
4042 5 3972 3973
4043 4 3973 3974
4044 4 3973 3975
4045 5 3973 3976
4046 5 3976 3977
4047 4 3977 3978
4048 4 3977 3979
4049 5 3977 3980
4050 5 3980 3981
4051 4 3981 3982
4052 4 3981 3983
4053 5 3981 3984
4054 5 3984 3985
4055 4 3985 3986
4056 4 3985 3987
4057 5 3985 3988
4058 1 475 3989
4059 6 3989 3969
4060 7 3988 476
4061 4 3990 3991
4062 4 3990 3992
4063 5 3990 3993
4064 5 3993 3994
4065 4 3994 3995
4066 4 3994 3996
4067 5 3994 3997
4068 5 3997 3998
4069 4 3998 3999
4070 4 3998 4000
4071 5 3998 4001
4072 5 4001 4002
4073 4 4002 4003
4074 4 4002 4004
4075 5 4002 4005
4076 5 4005 4006
4077 4 4006 4007
4078 4 4006 4008
4079 5 4006 4009
4080 1 475 4010
4081 6 4010 3990
4082 7 4009 480
4083 4 4011 4012
4084 4 4011 4013
4085 5 4011 4014
4086 5 4014 4015
4087 4 4015 4016
4088 4 4015 4017
4089 5 4015 4018
4090 5 4018 4019
4091 4 4019 4020
4092 4 4019 4021
4093 5 4019 4022
4094 5 4022 4023
4095 4 4023 4024
4096 4 4023 4025
4097 5 4023 4026
4098 5 4026 4027
4099 4 4027 4028
4100 4 4027 4029
4101 5 4027 4030
4102 1 476 4031
4103 6 4031 4011
4104 7 4030 501
4105 4 4032 4033
4106 4 4032 4034
4107 5 4032 4035
4108 5 4035 4036
4109 4 4036 4037
4110 4 4036 4038
4111 5 4036 4039
4112 5 4039 4040
4113 4 4040 4041
4114 4 4040 4042
4115 5 4040 4043
4116 5 4043 4044
4117 4 4044 4045
4118 4 4044 4046
4119 5 4044 4047
4120 5 4047 4048
4121 4 4048 4049
4122 4 4048 4050
4123 5 4048 4051
4124 1 477 4052
4125 6 4052 4032
4126 7 4051 478
4127 4 4053 4054
4128 4 4053 4055
4129 5 4053 4056
4130 5 4056 4057
4131 4 4057 4058
4132 4 4057 4059
4133 5 4057 4060
4134 5 4060 4061
4135 4 4061 4062
4136 4 4061 4063
4137 5 4061 4064
4138 5 4064 4065
4139 4 4065 4066
4140 4 4065 4067
4141 5 4065 4068
4142 5 4068 4069
4143 4 4069 4070
4144 4 4069 4071
4145 5 4069 4072
4146 1 477 4073
4147 6 4073 4053
4148 7 4072 481
4149 4 4074 4075
4150 4 4074 4076
4151 5 4074 4077
4152 5 4077 4078
4153 4 4078 4079
4154 4 4078 4080
4155 5 4078 4081
4156 5 4081 4082
4157 4 4082 4083
4158 4 4082 4084
4159 5 4082 4085
4160 5 4085 4086
4161 4 4086 4087
4162 4 4086 4088
4163 5 4086 4089
4164 5 4089 4090
4165 4 4090 4091
4166 4 4090 4092
4167 5 4090 4093
4168 1 478 4094
4169 6 4094 4074
4170 7 4093 483
4171 4 4095 4096
4172 4 4095 4097
4173 5 4095 4098
4174 5 4098 4099
4175 4 4099 4100
4176 4 4099 4101
4177 5 4099 4102
4178 5 4102 4103
4179 4 4103 4104
4180 4 4103 4105
4181 5 4103 4106
4182 5 4106 4107
4183 4 4107 4108
4184 4 4107 4109
4185 5 4107 4110
4186 5 4110 4111
4187 4 4111 4112
4188 4 4111 4113
4189 5 4111 4114
4190 1 478 4115
4191 6 4115 4095
4192 7 4114 581
4193 4 4116 4117
4194 4 4116 4118
4195 5 4116 4119
4196 5 4119 4120
4197 4 4120 4121
4198 4 4120 4122
4199 5 4120 4123
4200 5 4123 4124
4201 4 4124 4125
4202 4 4124 4126
4203 5 4124 4127
4204 5 4127 4128
4205 4 4128 4129
4206 4 4128 4130
4207 5 4128 4131
4208 5 4131 4132
4209 4 4132 4133
4210 4 4132 4134
4211 5 4132 4135
4212 1 479 4136
4213 6 4136 4116
4214 7 4135 582
4215 4 4137 4138
4216 4 4137 4139
4217 5 4137 4140
4218 5 4140 4141
4219 4 4141 4142
4220 4 4141 4143
4221 5 4141 4144
4222 5 4144 4145
4223 4 4145 4146
4224 4 4145 4147
4225 5 4145 4148
4226 5 4148 4149
4227 4 4149 4150
4228 4 4149 4151
4229 5 4149 4152
4230 5 4152 4153
4231 4 4153 4154
4232 4 4153 4155
4233 5 4153 4156
4234 1 480 4157
4235 6 4157 4137
4236 7 4156 481
4237 4 4158 4159
4238 4 4158 4160
4239 5 4158 4161
4240 5 4161 4162
4241 4 4162 4163
4242 4 4162 4164
4243 5 4162 4165
4244 5 4165 4166
4245 4 4166 4167
4246 4 4166 4168
4247 5 4166 4169
4248 5 4169 4170
4249 4 4170 4171
4250 4 4170 4172
4251 5 4170 4173
4252 5 4173 4174
4253 4 4174 4175
4254 4 4174 4176
4255 5 4174 4177
4256 1 480 4178
4257 6 4178 4158
4258 7 4177 485
4259 4 4179 4180
4260 4 4179 4181
4261 5 4179 4182
4262 5 4182 4183
4263 4 4183 4184
4264 4 4183 4185
4265 5 4183 4186
4266 5 4186 4187
4267 4 4187 4188
4268 4 4187 4189
4269 5 4187 4190
4270 5 4190 4191
4271 4 4191 4192
4272 4 4191 4193
4273 5 4191 4194
4274 5 4194 4195
4275 4 4195 4196
4276 4 4195 4197
4277 5 4195 4198
4278 1 480 4199
4279 6 4199 4179
4280 7 4198 583
4281 4 4200 4201
4282 4 4200 4202
4283 5 4200 4203
4284 5 4203 4204
4285 4 4204 4205
4286 4 4204 4206
4287 5 4204 4207
4288 5 4207 4208
4289 4 4208 4209
4290 4 4208 4210
4291 5 4208 4211
4292 5 4211 4212
4293 4 4212 4213
4294 4 4212 4214
4295 5 4212 4215
4296 5 4215 4216
4297 4 4216 4217
4298 4 4216 4218
4299 5 4216 4219
4300 1 481 4220
4301 6 4220 4200
4302 7 4219 584
4303 4 4221 4222
4304 4 4221 4223
4305 5 4221 4224
4306 5 4224 4225
4307 4 4225 4226
4308 4 4225 4227
4309 5 4225 4228
4310 5 4228 4229
4311 4 4229 4230
4312 4 4229 4231
4313 5 4229 4232
4314 5 4232 4233
4315 4 4233 4234
4316 4 4233 4235
4317 5 4233 4236
4318 5 4236 4237
4319 4 4237 4238
4320 4 4237 4239
4321 5 4237 4240
4322 1 482 4241
4323 6 4241 4221
4324 7 4240 483
4325 4 4242 4243
4326 4 4242 4244
4327 5 4242 4245
4328 5 4245 4246
4329 4 4246 4247
4330 4 4246 4248
4331 5 4246 4249
4332 5 4249 4250
4333 4 4250 4251
4334 4 4250 4252
4335 5 4250 4253
4336 5 4253 4254
4337 4 4254 4255
4338 4 4254 4256
4339 5 4254 4257
4340 5 4257 4258
4341 4 4258 4259
4342 4 4258 4260
4343 5 4258 4261
4344 1 482 4262
4345 6 4262 4242
4346 7 4261 585
4347 4 4263 4264
4348 4 4263 4265
4349 5 4263 4266
4350 5 4266 4267
4351 4 4267 4268
4352 4 4267 4269
4353 5 4267 4270
4354 5 4270 4271
4355 4 4271 4272
4356 4 4271 4273
4357 5 4271 4274
4358 5 4274 4275
4359 4 4275 4276
4360 4 4275 4277
4361 5 4275 4278
4362 5 4278 4279
4363 4 4279 4280
4364 4 4279 4281
4365 5 4279 4282
4366 1 482 4283
4367 6 4283 4263
4368 7 4282 486
4369 4 4284 4285
4370 4 4284 4286
4371 5 4284 4287
4372 5 4287 4288
4373 4 4288 4289
4374 4 4288 4290
4375 5 4288 4291
4376 5 4291 4292
4377 4 4292 4293
4378 4 4292 4294
4379 5 4292 4295
4380 5 4295 4296
4381 4 4296 4297
4382 4 4296 4298
4383 5 4296 4299
4384 5 4299 4300
4385 4 4300 4301
4386 4 4300 4302
4387 5 4300 4303
4388 1 483 4304
4389 6 4304 4284
4390 7 4303 586
4391 4 4305 4306
4392 4 4305 4307
4393 5 4305 4308
4394 5 4308 4309
4395 4 4309 4310
4396 4 4309 4311
4397 5 4309 4312
4398 5 4312 4313
4399 4 4313 4314
4400 4 4313 4315
4401 5 4313 4316
4402 5 4316 4317
4403 4 4317 4318
4404 4 4317 4319
4405 5 4317 4320
4406 5 4320 4321
4407 4 4321 4322
4408 4 4321 4323
4409 5 4321 4324
4410 1 484 4325
4411 6 4325 4305
4412 7 4324 485
4413 4 4326 4327
4414 4 4326 4328
4415 5 4326 4329
4416 5 4329 4330
4417 4 4330 4331
4418 4 4330 4332
4419 5 4330 4333
4420 5 4333 4334
4421 4 4334 4335
4422 4 4334 4336
4423 5 4334 4337
4424 5 4337 4338
4425 4 4338 4339
4426 4 4338 4340
4427 5 4338 4341
4428 5 4341 4342
4429 4 4342 4343
4430 4 4342 4344
4431 5 4342 4345
4432 1 484 4346
4433 6 4346 4326
4434 7 4345 587
4435 4 4347 4348
4436 4 4347 4349
4437 5 4347 4350
4438 5 4350 4351
4439 4 4351 4352
4440 4 4351 4353
4441 5 4351 4354
4442 5 4354 4355
4443 4 4355 4356
4444 4 4355 4357
4445 5 4355 4358
4446 5 4358 4359
4447 4 4359 4360
4448 4 4359 4361
4449 5 4359 4362
4450 5 4362 4363
4451 4 4363 4364
4452 4 4363 4365
4453 5 4363 4366
4454 1 485 4367
4455 6 4367 4347
4456 7 4366 588
4457 4 4368 4369
4458 4 4368 4370
4459 5 4368 4371
4460 5 4371 4372
4461 4 4372 4373
4462 4 4372 4374
4463 5 4372 4375
4464 5 4375 4376
4465 4 4376 4377
4466 4 4376 4378
4467 5 4376 4379
4468 5 4379 4380
4469 4 4380 4381
4470 4 4380 4382
4471 5 4380 4383
4472 5 4383 4384
4473 4 4384 4385
4474 4 4384 4386
4475 5 4384 4387
4476 1 487 4388
4477 6 4388 4368
4478 7 4387 488
4479 4 4389 4390
4480 4 4389 4391
4481 5 4389 4392
4482 5 4392 4393
4483 4 4393 4394
4484 4 4393 4395
4485 5 4393 4396
4486 5 4396 4397
4487 4 4397 4398
4488 4 4397 4399
4489 5 4397 4400
4490 5 4400 4401
4491 4 4401 4402
4492 4 4401 4403
4493 5 4401 4404
4494 5 4404 4405
4495 4 4405 4406
4496 4 4405 4407
4497 5 4405 4408
4498 1 487 4409
4499 6 4409 4389
4500 7 4408 491
4501 4 4410 4411
4502 4 4410 4412
4503 5 4410 4413
4504 5 4413 4414
4505 4 4414 4415
4506 4 4414 4416
4507 5 4414 4417
4508 5 4417 4418
4509 4 4418 4419
4510 4 4418 4420
4511 5 4418 4421
4512 5 4421 4422
4513 4 4422 4423
4514 4 4422 4424
4515 5 4422 4425
4516 5 4425 4426
4517 4 4426 4427
4518 4 4426 4428
4519 5 4426 4429
4520 1 487 4430
4521 6 4430 4410
4522 7 4429 585
4523 4 4431 4432
4524 4 4431 4433
4525 5 4431 4434
4526 5 4434 4435
4527 4 4435 4436
4528 4 4435 4437
4529 5 4435 4438
4530 5 4438 4439
4531 4 4439 4440
4532 4 4439 4441
4533 5 4439 4442
4534 5 4442 4443
4535 4 4443 4444
4536 4 4443 4445
4537 5 4443 4446
4538 5 4446 4447
4539 4 4447 4448
4540 4 4447 4449
4541 5 4447 4450
4542 1 488 4451
4543 6 4451 4431
4544 7 4450 493
4545 4 4452 4453
4546 4 4452 4454
4547 5 4452 4455
4548 5 4455 4456
4549 4 4456 4457
4550 4 4456 4458
4551 5 4456 4459
4552 5 4459 4460
4553 4 4460 4461
4554 4 4460 4462
4555 5 4460 4463
4556 5 4463 4464
4557 4 4464 4465
4558 4 4464 4466
4559 5 4464 4467
4560 5 4467 4468
4561 4 4468 4469
4562 4 4468 4470
4563 5 4468 4471
4564 1 488 4472
4565 6 4472 4452
4566 7 4471 586
4567 4 4473 4474
4568 4 4473 4475
4569 5 4473 4476
4570 5 4476 4477
4571 4 4477 4478
4572 4 4477 4479
4573 5 4477 4480
4574 5 4480 4481
4575 4 4481 4482
4576 4 4481 4483
4577 5 4481 4484
4578 5 4484 4485
4579 4 4485 4486
4580 4 4485 4487
4581 5 4485 4488
4582 5 4488 4489
4583 4 4489 4490
4584 4 4489 4491
4585 5 4489 4492
4586 1 489 4493
4587 6 4493 4473
4588 7 4492 490
4589 4 4494 4495
4590 4 4494 4496
4591 5 4494 4497
4592 5 4497 4498
4593 4 4498 4499
4594 4 4498 4500
4595 5 4498 4501
4596 5 4501 4502
4597 4 4502 4503
4598 4 4502 4504
4599 5 4502 4505
4600 5 4505 4506
4601 4 4506 4507
4602 4 4506 4508
4603 5 4506 4509
4604 5 4509 4510
4605 4 4510 4511
4606 4 4510 4512
4607 5 4510 4513
4608 1 489 4514
4609 6 4514 4494
4610 7 4513 494
4611 4 4515 4516
4612 4 4515 4517
4613 5 4515 4518
4614 5 4518 4519
4615 4 4519 4520
4616 4 4519 4521
4617 5 4519 4522
4618 5 4522 4523
4619 4 4523 4524
4620 4 4523 4525
4621 5 4523 4526
4622 5 4526 4527
4623 4 4527 4528
4624 4 4527 4529
4625 5 4527 4530
4626 5 4530 4531
4627 4 4531 4532
4628 4 4531 4533
4629 5 4531 4534
4630 1 490 4535
4631 6 4535 4515
4632 7 4534 491
4633 4 4536 4537
4634 4 4536 4538
4635 5 4536 4539
4636 5 4539 4540
4637 4 4540 4541
4638 4 4540 4542
4639 5 4540 4543
4640 5 4543 4544
4641 4 4544 4545
4642 4 4544 4546
4643 5 4544 4547
4644 5 4547 4548
4645 4 4548 4549
4646 4 4548 4550
4647 5 4548 4551
4648 5 4551 4552
4649 4 4552 4553
4650 4 4552 4554
4651 5 4552 4555
4652 1 490 4556
4653 6 4556 4536
4654 7 4555 495
4655 4 4557 4558
4656 4 4557 4559
4657 5 4557 4560
4658 5 4560 4561
4659 4 4561 4562
4660 4 4561 4563
4661 5 4561 4564
4662 5 4564 4565
4663 4 4565 4566
4664 4 4565 4567
4665 5 4565 4568
4666 5 4568 4569
4667 4 4569 4570
4668 4 4569 4571
4669 5 4569 4572
4670 5 4572 4573
4671 4 4573 4574
4672 4 4573 4575
4673 5 4573 4576
4674 1 491 4577
4675 6 4577 4557
4676 7 4576 589
4677 4 4578 4579
4678 4 4578 4580
4679 5 4578 4581
4680 5 4581 4582
4681 4 4582 4583
4682 4 4582 4584
4683 5 4582 4585
4684 5 4585 4586
4685 4 4586 4587
4686 4 4586 4588
4687 5 4586 4589
4688 5 4589 4590
4689 4 4590 4591
4690 4 4590 4592
4691 5 4590 4593
4692 5 4593 4594
4693 4 4594 4595
4694 4 4594 4596
4695 5 4594 4597
4696 1 492 4598
4697 6 4598 4578
4698 7 4597 497
4699 4 4599 4600
4700 4 4599 4601
4701 5 4599 4602
4702 5 4602 4603
4703 4 4603 4604
4704 4 4603 4605
4705 5 4603 4606
4706 5 4606 4607
4707 4 4607 4608
4708 4 4607 4609
4709 5 4607 4610
4710 5 4610 4611
4711 4 4611 4612
4712 4 4611 4613
4713 5 4611 4614
4714 5 4614 4615
4715 4 4615 4616
4716 4 4615 4617
4717 5 4615 4618
4718 1 492 4619
4719 6 4619 4599
4720 7 4618 496
4721 4 4620 4621
4722 4 4620 4622
4723 5 4620 4623
4724 5 4623 4624
4725 4 4624 4625
4726 4 4624 4626
4727 5 4624 4627
4728 5 4627 4628
4729 4 4628 4629
4730 4 4628 4630
4731 5 4628 4631
4732 5 4631 4632
4733 4 4632 4633
4734 4 4632 4634
4735 5 4632 4635
4736 5 4635 4636
4737 4 4636 4637
4738 4 4636 4638
4739 5 4636 4639
4740 1 493 4640
4741 6 4640 4620
4742 7 4639 498
4743 4 4641 4642
4744 4 4641 4643
4745 5 4641 4644
4746 5 4644 4645
4747 4 4645 4646
4748 4 4645 4647
4749 5 4645 4648
4750 5 4648 4649
4751 4 4649 4650
4752 4 4649 4651
4753 5 4649 4652
4754 5 4652 4653
4755 4 4653 4654
4756 4 4653 4655
4757 5 4653 4656
4758 5 4656 4657
4759 4 4657 4658
4760 4 4657 4659
4761 5 4657 4660
4762 1 494 4661
4763 6 4661 4641
4764 7 4660 499
4765 4 4662 4663
4766 4 4662 4664
4767 5 4662 4665
4768 5 4665 4666
4769 4 4666 4667
4770 4 4666 4668
4771 5 4666 4669
4772 5 4669 4670
4773 4 4670 4671
4774 4 4670 4672
4775 5 4670 4673
4776 5 4673 4674
4777 4 4674 4675
4778 4 4674 4676
4779 5 4674 4677
4780 5 4677 4678
4781 4 4678 4679
4782 4 4678 4680
4783 5 4678 4681
4784 1 495 4682
4785 6 4682 4662
4786 7 4681 500
4787 4 4683 4684
4788 4 4683 4685
4789 5 4683 4686
4790 5 4686 4687
4791 4 4687 4688
4792 4 4687 4689
4793 5 4687 4690
4794 5 4690 4691
4795 4 4691 4692
4796 4 4691 4693
4797 5 4691 4694
4798 5 4694 4695
4799 4 4695 4696
4800 4 4695 4697
4801 5 4695 4698
4802 5 4698 4699
4803 4 4699 4700
4804 4 4699 4701
4805 5 4699 4702
4806 1 496 4703
4807 6 4703 4683
4808 7 4702 501
4809 4 4704 4705
4810 4 4704 4706
4811 5 4704 4707
4812 5 4707 4708
4813 4 4708 4709
4814 4 4708 4710
4815 5 4708 4711
4816 5 4711 4712
4817 4 4712 4713
4818 4 4712 4714
4819 5 4712 4715
4820 5 4715 4716
4821 4 4716 4717
4822 4 4716 4718
4823 5 4716 4719
4824 5 4719 4720
4825 4 4720 4721
4826 4 4720 4722
4827 5 4720 4723
4828 1 497 4724
4829 6 4724 4704
4830 7 4723 498
4831 4 4725 4726
4832 4 4725 4727
4833 5 4725 4728
4834 5 4728 4729
4835 4 4729 4730
4836 4 4729 4731
4837 5 4729 4732
4838 5 4732 4733
4839 4 4733 4734
4840 4 4733 4735
4841 5 4733 4736
4842 5 4736 4737
4843 4 4737 4738
4844 4 4737 4739
4845 5 4737 4740
4846 5 4740 4741
4847 4 4741 4742
4848 4 4741 4743
4849 5 4741 4744
4850 1 497 4745
4851 6 4745 4725
4852 8 4744 524
4853 4 4746 4747
4854 4 4746 4748
4855 5 4746 4749
4856 5 4749 4750
4857 4 4750 4751
4858 4 4750 4752
4859 5 4750 4753
4860 5 4753 4754
4861 4 4754 4755
4862 4 4754 4756
4863 5 4754 4757
4864 5 4757 4758
4865 4 4758 4759
4866 4 4758 4760
4867 5 4758 4761
4868 5 4761 4762
4869 4 4762 4763
4870 4 4762 4764
4871 5 4762 4765
4872 1 498 4766
4873 6 4766 4746
4874 7 4765 499
4875 4 4767 4768
4876 4 4767 4769
4877 5 4767 4770
4878 5 4770 4771
4879 4 4771 4772
4880 4 4771 4773
4881 5 4771 4774
4882 5 4774 4775
4883 4 4775 4776
4884 4 4775 4777
4885 5 4775 4778
4886 5 4778 4779
4887 4 4779 4780
4888 4 4779 4781
4889 5 4779 4782
4890 5 4782 4783
4891 4 4783 4784
4892 4 4783 4785
4893 5 4783 4786
4894 1 499 4787
4895 6 4787 4767
4896 7 4786 582
4897 4 4788 4789
4898 4 4788 4790
4899 5 4788 4791
4900 5 4791 4792
4901 4 4792 4793
4902 4 4792 4794
4903 5 4792 4795
4904 5 4795 4796
4905 4 4796 4797
4906 4 4796 4798
4907 5 4796 4799
4908 5 4799 4800
4909 4 4800 4801
4910 4 4800 4802
4911 5 4800 4803
4912 5 4803 4804
4913 4 4804 4805
4914 4 4804 4806
4915 5 4804 4807
4916 1 500 4808
4917 6 4808 4788
4918 7 4807 501
4919 4 4809 4810
4920 4 4809 4811
4921 5 4809 4812
4922 5 4812 4813
4923 4 4813 4814
4924 4 4813 4815
4925 5 4813 4816
4926 5 4816 4817
4927 4 4817 4818
4928 4 4817 4819
4929 5 4817 4820
4930 5 4820 4821
4931 4 4821 4822
4932 4 4821 4823
4933 5 4821 4824
4934 5 4824 4825
4935 4 4825 4826
4936 4 4825 4827
4937 5 4825 4828
4938 1 500 4829
4939 6 4829 4809
4940 7 4828 583
4941 4 4830 4831
4942 4 4830 4832
4943 5 4830 4833
4944 5 4833 4834
4945 4 4834 4835
4946 4 4834 4836
4947 5 4834 4837
4948 5 4837 4838
4949 4 4838 4839
4950 4 4838 4840
4951 5 4838 4841
4952 5 4841 4842
4953 4 4842 4843
4954 4 4842 4844
4955 5 4842 4845
4956 5 4845 4846
4957 4 4846 4847
4958 4 4846 4848
4959 5 4846 4849
4960 1 501 4850
4961 6 4850 4830
4962 7 4849 584
4963 4 4851 4852
4964 4 4851 4853
4965 5 4851 4854
4966 5 4854 4855
4967 4 4855 4856
4968 4 4855 4857
4969 5 4855 4858
4970 5 4858 4859
4971 4 4859 4860
4972 4 4859 4861
4973 5 4859 4862
4974 5 4862 4863
4975 4 4863 4864
4976 4 4863 4865
4977 5 4863 4866
4978 5 4866 4867
4979 4 4867 4868
4980 4 4867 4869
4981 5 4867 4870
4982 1 581 4871
4983 6 4871 4851
4984 7 4870 582
4985 4 4872 4873
4986 4 4872 4874
4987 5 4872 4875
4988 5 4875 4876
4989 4 4876 4877
4990 4 4876 4878
4991 5 4876 4879
4992 5 4879 4880
4993 4 4880 4881
4994 4 4880 4882
4995 5 4880 4883
4996 5 4883 4884
4997 4 4884 4885
4998 4 4884 4886
4999 5 4884 4887
5000 5 4887 4888
5001 4 4888 4889
5002 4 4888 4890
5003 5 4888 4891
5004 1 581 4892
5005 6 4892 4872
5006 7 4891 586
5007 4 4893 4894
5008 4 4893 4895
5009 5 4893 4896
5010 5 4896 4897
5011 4 4897 4898
5012 4 4897 4899
5013 5 4897 4900
5014 5 4900 4901
5015 4 4901 4902
5016 4 4901 4903
5017 5 4901 4904
5018 5 4904 4905
5019 4 4905 4906
5020 4 4905 4907
5021 5 4905 4908
5022 5 4908 4909
5023 4 4909 4910
5024 4 4909 4911
5025 5 4909 4912
5026 1 582 4913
5027 6 4913 4893
5028 7 4912 587
5029 4 4914 4915
5030 4 4914 4916
5031 5 4914 4917
5032 5 4917 4918
5033 4 4918 4919
5034 4 4918 4920
5035 5 4918 4921
5036 5 4921 4922
5037 4 4922 4923
5038 4 4922 4924
5039 5 4922 4925
5040 5 4925 4926
5041 4 4926 4927
5042 4 4926 4928
5043 5 4926 4929
5044 5 4929 4930
5045 4 4930 4931
5046 4 4930 4932
5047 5 4930 4933
5048 1 583 4934
5049 6 4934 4914
5050 7 4933 588
5051 4 4935 4936
5052 4 4935 4937
5053 5 4935 4938
5054 5 4938 4939
5055 4 4939 4940
5056 4 4939 4941
5057 5 4939 4942
5058 5 4942 4943
5059 4 4943 4944
5060 4 4943 4945
5061 5 4943 4946
5062 5 4946 4947
5063 4 4947 4948
5064 4 4947 4949
5065 5 4947 4950
5066 5 4950 4951
5067 4 4951 4952
5068 4 4951 4953
5069 5 4951 4954
5070 1 585 4955
5071 6 4955 4935
5072 7 4954 586
5073 4 4956 4957
5074 4 4956 4958
5075 5 4956 4959
5076 5 4959 4960
5077 4 4960 4961
5078 4 4960 4962
5079 5 4960 4963
5080 5 4963 4964
5081 4 4964 4965
5082 4 4964 4966
5083 5 4964 4967
5084 5 4967 4968
5085 4 4968 4969
5086 4 4968 4970
5087 5 4968 4971
5088 5 4971 4972
5089 4 4972 4973
5090 4 4972 4974
5091 5 4972 4975
5092 1 587 4976
5093 6 4976 4956
5094 7 4975 588
5095 4 4977 4978
5096 4 4977 4979
5097 5 4977 4980
5098 5 4980 4981
5099 4 4981 4982
5100 4 4981 4983
5101 5 4981 4984
5102 5 4984 4985
5103 4 4985 4986
5104 4 4985 4987
5105 5 4985 4988
5106 5 4988 4989
5107 4 4989 4990
5108 4 4989 4991
5109 5 4989 4992
5110 5 4992 4993
5111 4 4993 4994
5112 4 4993 4995
5113 5 4993 4996
5114 1 588 4997
5115 6 4997 4977
5116 7 4996 589

Angles

1 1 610 1 631
2 1 610 1 652
3 1 631 1 652
4 1 673 2 694
5 1 673 2 715
6 1 694 2 715
7 2 672 3 736
8 2 672 3 757
9 2 672 3 778
10 1 736 3 757
11 1 736 3 778
12 1 757 3 778
13 2 735 4 799
14 2 735 4 820
15 2 735 4 841
16 1 799 4 820
17 1 799 4 841
18 1 820 4 841
19 3 630 5 798
20 2 630 5 862
21 2 630 5 883
22 2 798 5 862
23 2 798 5 883
24 1 862 5 883
25 2 609 6 904
26 2 609 6 925
27 2 609 6 946
28 1 904 6 925
29 1 904 6 946
30 1 925 6 946
31 1 967 7 988
32 1 967 7 1009
33 1 967 7 1030
34 1 988 7 1009
35 1 988 7 1030
36 1 1009 7 1030
37 3 819 8 966
38 2 819 8 1051
39 2 819 8 1072
40 2 966 8 1051
41 2 966 8 1072
42 1 1051 8 1072
43 3 861 9 924
44 3 861 9 1050
45 2 861 9 1093
46 3 924 9 1050
47 2 924 9 1093
48 2 1050 9 1093
49 1 1114 10 1135
50 1 1114 10 1156
51 1 1135 10 1156
52 1 1177 11 1198
53 1 1177 11 1219
54 1 1198 11 1219
55 3 987 12 1176
56 2 987 12 1240
57 2 987 12 1261
58 2 1176 12 1240
59 2 1176 12 1261
60 1 1240 12 1261
61 1 1282 13 1303
62 1 1282 13 1324
63 1 1303 13 1324
64 3 1155 14 1281
65 2 1155 14 1345
66 2 1281 14 1345
67 2 1113 15 1366
68 2 1113 15 1387
69 2 1113 15 1408
70 1 1366 15 1387
71 1 1366 15 1408
72 1 1387 15 1408
73 2 1197 16 1429
74 2 1197 16 1450
75 1 1429 16 1450
76 1 25 17 26
77 1 25 17 27
78 4 25 17 37
79 1 26 17 27
80 4 26 17 37
81 4 27 17 37
82 1 25 18 28
83 1 25 18 29
84 4 25 18 40
85 1 28 18 29
86 4 28 18 40
87 4 29 18 40
88 1 26 19 30
89 1 26 19 31
90 4 26 19 48
91 1 30 19 31
92 4 30 19 48
93 4 31 19 48
94 1 28 20 30
95 1 28 20 32
96 4 28 20 56
97 1 30 20 32
98 4 30 20 56
99 4 32 20 56
100 1 27 21 33
101 1 27 21 34
102 4 27 21 64
103 1 33 21 34
104 4 33 21 64
105 4 34 21 64
106 1 29 22 33
107 1 29 22 35
108 4 29 22 72
109 1 33 22 35
110 4 33 22 72
111 4 35 22 72
112 1 31 23 34
113 1 31 23 36
114 4 31 23 80
115 1 34 23 36
116 4 34 23 80
117 4 36 23 80
118 1 32 24 35
119 1 32 24 36
120 4 32 24 88
121 1 35 24 36
122 4 35 24 88
123 4 36 24 88
124 5 17 25 18
125 5 17 26 19
126 5 17 27 21
127 5 18 28 20
128 5 18 29 22
129 5 19 30 20
130 5 19 31 23
131 5 20 32 24
132 5 21 33 22
133 5 21 34 23
134 5 22 35 24
135 5 23 36 24
136 6 38 37 17
137 7 37 38 39
138 8 38 39 1451
139 6 41 40 18
140 7 40 41 42
141 7 40 41 43
142 7 42 41 43
143 7 41 43 44
144 7 43 44 45
145 7 43 44 46
146 7 43 44 47
147 7 45 44 46
148 7 45 44 47
149 7 46 44 47
150 6 49 48 19
151 7 48 49 50
152 7 48 49 51
153 7 50 49 51
154 7 49 51 52
155 7 51 52 53
156 7 51 52 54
157 7 51 52 55
158 7 53 52 54
159 7 53 52 55
160 7 54 52 55
161 6 57 56 20
162 7 56 57 58
163 7 56 57 59
164 7 58 57 59
165 7 57 59 60
166 7 59 60 61
167 7 59 60 62
168 7 59 60 63
169 7 61 60 62
170 7 61 60 63
171 7 62 60 63
172 6 65 64 21
173 7 64 65 66
174 7 64 65 67
175 7 66 65 67
176 7 65 67 68
177 7 67 68 69
178 7 67 68 70
179 7 67 68 71
180 7 69 68 70
181 7 69 68 71
182 7 70 68 71
183 6 73 72 22
184 7 72 73 74
185 7 72 73 75
186 7 74 73 75
187 7 73 75 76
188 7 75 76 77
189 7 75 76 78
190 7 75 76 79
191 7 77 76 78
192 7 77 76 79
193 7 78 76 79
194 6 81 80 23
195 7 80 81 82
196 7 80 81 83
197 7 82 81 83
198 7 81 83 84
199 7 83 84 85
200 7 83 84 86
201 7 83 84 87
202 7 85 84 86
203 7 85 84 87
204 7 86 84 87
205 6 89 88 24
206 7 88 89 90
207 7 88 89 91
208 7 90 89 91
209 7 89 91 92
210 7 91 92 93
211 7 91 92 94
212 7 91 92 95
213 7 93 92 94
214 7 93 92 95
215 7 94 92 95
216 2 1302 96 1491
217 2 1302 96 1512
218 1 1491 96 1512
219 3 1344 97 1407
220 2 1344 97 1533
221 2 1344 97 1554
222 2 1407 97 1533
223 2 1407 97 1554
224 1 1533 97 1554
225 3 651 98 1365
226 2 651 98 1575
227 2 651 98 1596
228 2 1365 98 1575
229 2 1365 98 1596
230 1 1575 98 1596
231 3 714 99 1428
232 3 714 99 1574
233 2 714 99 1617
234 3 1428 99 1574
235 2 1428 99 1617
236 2 1574 99 1617
237 2 777 100 1638
238 2 777 100 1659
239 1 1638 100 1659
240 3 1490 101 1637
241 2 1490 101 1680
242 2 1490 101 1701
243 2 1637 101 1680
244 2 1637 101 1701
245 1 1680 101 1701
246 3 1532 102 1595
247 3 1532 102 1679
248 2 1532 102 1722
249 3 1595 102 1679
250 2 1595 102 1722
251 2 1679 102 1722
252 1 1743 103 1764
253 1 1743 103 1785
254 1 1764 103 1785
255 2 693 104 1806
256 2 693 104 1827
257 2 693 104 1848
258 1 1806 104 1827
259 1 1806 104 1848
260 1 1827 104 1848
261 3 756 105 1805
262 2 756 105 1869
263 2 756 105 1890
264 2 1805 105 1869
265 2 1805 105 1890
266 1 1869 105 1890
267 2 840 106 1911
268 2 840 106 1932
269 2 840 106 1953
270 1 1911 106 1932
271 1 1911 106 1953
272 1 1932 106 1953
273 3 882 107 1763
274 3 882 107 1910
275 2 882 107 1974
276 3 1763 107 1910
277 2 1763 107 1974
278 2 1910 107 1974
279 2 903 108 1995
280 2 903 108 2016
281 1 1995 108 2016
282 3 1826 109 1994
283 2 1826 109 2037
284 2 1826 109 2058
285 2 1994 109 2037
286 2 1994 109 2058
287 1 2037 109 2058
288 3 1008 110 1868
289 2 1008 110 2079
290 2 1008 110 2100
291 2 1868 110 2079
292 2 1868 110 2100
293 1 2079 110 2100
294 2 1931 111 2121
295 2 1931 111 2142
296 1 2121 111 2142
297 3 1092 112 2120
298 2 1092 112 2163
299 2 2120 112 2163
300 3 1134 113 2015
301 2 1134 113 2184
302 2 2015 113 2184
303 3 1218 114 2036
304 2 1218 114 2205
305 2 2036 114 2205
306 3 1239 115 2078
307 2 1239 115 2226
308 2 1239 115 2247
309 2 2078 115 2226
310 2 2078 115 2247
311 1 2226 115 2247
312 2 2225 116 2268
313 2 2225 116 2289
314 2 2225 116 2310
315 1 2268 116 2289
316 1 2268 116 2310
317 1 2289 116 2310
318 3 2162 117 2267
319 2 2162 117 2331
320 2 2162 117 2352
321 2 2267 117 2331
322 2 2267 117 2352
323 1 2331 117 2352
324 3 1386 118 2183
325 2 1386 118 2373
326 2 1386 118 2394
327 2 2183 118 2373
328 2 2183 118 2394
329 1 2373 118 2394
330 2 1470 119 2415
331 2 1470 119 2436
332 1 2415 119 2436
333 3 2288 120 2414
334 2 2288 120 2457
335 2 2414 120 2457
336 3 2330 121 2393
337 2 2330 121 2478
338 2 2393 121 2478
339 3 1784 122 2372
340 2 1784 122 2499
341 2 2372 122 2499
342 3 1616 123 1847
343 2 1616 123 2520
344 2 1847 123 2520
345 1 132 124 133
346 1 132 124 134
347 4 132 124 144
348 1 133 124 134
349 4 133 124 144
350 4 134 124 144
351 1 132 125 135
352 1 132 125 136
353 4 132 125 147
354 1 135 125 136
355 4 135 125 147
356 4 136 125 147
357 1 133 126 137
358 1 133 126 138
359 4 133 126 155
360 1 137 126 138
361 4 137 126 155
362 4 138 126 155
363 1 135 127 137
364 1 135 127 139
365 4 135 127 163
366 1 137 127 139
367 4 137 127 163
368 4 139 127 163
369 1 134 128 140
370 1 134 128 141
371 4 134 128 171
372 1 140 128 141
373 4 140 128 171
374 4 141 128 171
375 1 136 129 140
376 1 136 129 142
377 4 136 129 179
378 1 140 129 142
379 4 140 129 179
380 4 142 129 179
381 1 138 130 141
382 1 138 130 143
383 4 138 130 187
384 1 141 130 143
385 4 141 130 187
386 4 143 130 187
387 1 139 131 142
388 1 139 131 143
389 4 139 131 195
390 1 142 131 143
391 4 142 131 195
392 4 143 131 195
393 5 124 132 125
394 5 124 133 126
395 5 124 134 128
396 5 125 135 127
397 5 125 136 129
398 5 126 137 127
399 5 126 138 130
400 5 127 139 131
401 5 128 140 129
402 5 128 141 130
403 5 129 142 131
404 5 130 143 131
405 6 145 144 124
406 7 144 145 146
407 9 145 146 1658
408 6 148 147 125
409 7 147 148 149
410 7 147 148 150
411 7 149 148 150
412 7 148 150 151
413 7 150 151 152
414 7 150 151 153
415 7 150 151 154
416 7 152 151 153
417 7 152 151 154
418 7 153 151 154
419 6 156 155 126
420 7 155 156 157
421 7 155 156 158
422 7 157 156 158
423 7 156 158 159
424 7 158 159 160
425 7 158 159 161
426 7 158 159 162
427 7 160 159 161
428 7 160 159 162
429 7 161 159 162
430 6 164 163 127
431 7 163 164 165
432 7 163 164 166
433 7 165 164 166
434 7 164 166 167
435 7 166 167 168
436 7 166 167 169
437 7 166 167 170
438 7 168 167 169
439 7 168 167 170
440 7 169 167 170
441 6 172 171 128
442 7 171 172 173
443 7 171 172 174
444 7 173 172 174
445 7 172 174 175
446 7 174 175 176
447 7 174 175 177
448 7 174 175 178
449 7 176 175 177
450 7 176 175 178
451 7 177 175 178
452 6 180 179 129
453 7 179 180 181
454 7 179 180 182
455 7 181 180 182
456 7 180 182 183
457 7 182 183 184
458 7 182 183 185
459 7 182 183 186
460 7 184 183 185
461 7 184 183 186
462 7 185 183 186
463 6 188 187 130
464 7 187 188 189
465 7 187 188 190
466 7 189 188 190
467 7 188 190 191
468 7 190 191 192
469 7 190 191 193
470 7 190 191 194
471 7 192 191 193
472 7 192 191 194
473 7 193 191 194
474 6 196 195 131
475 7 195 196 197
476 7 195 196 198
477 7 197 196 198
478 7 196 198 199
479 7 198 199 200
480 7 198 199 201
481 7 198 199 202
482 7 200 199 201
483 7 200 199 202
484 7 201 199 202
485 3 1700 203 1952
486 3 1700 203 2456
487 2 1700 203 2541
488 3 1952 203 2456
489 2 1952 203 2541
490 2 2456 203 2541
491 3 2477 204 2540
492 2 2477 204 2562
493 2 2540 204 2562
494 1 213 205 214
495 1 213 205 215
496 4 213 205 225
497 1 214 205 215
498 4 214 205 225
499 4 215 205 225
500 1 213 206 216
501 1 213 206 217
502 4 213 206 228
503 1 216 206 217
504 4 216 206 228
505 4 217 206 228
506 1 214 207 218
507 1 214 207 219
508 4 214 207 236
509 1 218 207 219
510 4 218 207 236
511 4 219 207 236
512 1 216 208 218
513 1 216 208 220
514 4 216 208 244
515 1 218 208 220
516 4 218 208 244
517 4 220 208 244
518 1 215 209 221
519 1 215 209 222
520 4 215 209 252
521 1 221 209 222
522 4 221 209 252
523 4 222 209 252
524 1 217 210 221
525 1 217 210 223
526 4 217 210 260
527 1 221 210 223
528 4 221 210 260
529 4 223 210 260
530 1 219 211 222
531 1 219 211 224
532 4 219 211 268
533 1 222 211 224
534 4 222 211 268
535 4 224 211 268
536 1 220 212 223
537 1 220 212 224
538 4 220 212 276
539 1 223 212 224
540 4 223 212 276
541 4 224 212 276
542 5 205 213 206
543 5 205 214 207
544 5 205 215 209
545 5 206 216 208
546 5 206 217 210
547 5 207 218 208
548 5 207 219 211
549 5 208 220 212
550 5 209 221 210
551 5 209 222 211
552 5 210 223 212
553 5 211 224 212
554 6 226 225 205
555 7 225 226 227
556 9 226 227 1742
557 6 229 228 206
558 7 228 229 230
559 7 228 229 231
560 7 230 229 231
561 7 229 231 232
562 7 231 232 233
563 7 231 232 234
564 7 231 232 235
565 7 233 232 234
566 7 233 232 235
567 7 234 232 235
568 6 237 236 207
569 7 236 237 238
570 7 236 237 239
571 7 238 237 239
572 7 237 239 240
573 7 239 240 241
574 7 239 240 242
575 7 239 240 243
576 7 241 240 242
577 7 241 240 243
578 7 242 240 243
579 6 245 244 208
580 7 244 245 246
581 7 244 245 247
582 7 246 245 247
583 7 245 247 248
584 7 247 248 249
585 7 247 248 250
586 7 247 248 251
587 7 249 248 250
588 7 249 248 251
589 7 250 248 251
590 6 253 252 209
591 7 252 253 254
592 7 252 253 255
593 7 254 253 255
594 7 253 255 256
595 7 255 256 257
596 7 255 256 258
597 7 255 256 259
598 7 257 256 258
599 7 257 256 259
600 7 258 256 259
601 6 261 260 210
602 7 260 261 262
603 7 260 261 263
604 7 262 261 263
605 7 261 263 264
606 7 263 264 265
607 7 263 264 266
608 7 263 264 267
609 7 265 264 266
610 7 265 264 267
611 7 266 264 267
612 6 269 268 211
613 7 268 269 270
614 7 268 269 271
615 7 270 269 271
616 7 269 271 272
617 7 271 272 273
618 7 271 272 274
619 7 271 272 275
620 7 273 272 274
621 7 273 272 275
622 7 274 272 275
623 6 277 276 212
624 7 276 277 278
625 7 276 277 279
626 7 278 277 279
627 7 277 279 280
628 7 279 280 281
629 7 279 280 282
630 7 279 280 283
631 7 281 280 282
632 7 281 280 283
633 7 282 280 283
634 2 1889 284 2583
635 2 1889 284 2604
636 2 1889 284 2625
637 1 2583 284 2604
638 1 2583 284 2625
639 1 2604 284 2625
640 2 2582 285 2646
641 2 2582 285 2667
642 2 2582 285 2688
643 1 2646 285 2667
644 1 2646 285 2688
645 1 2667 285 2688
646 2 1973 286 2709
647 2 1973 286 2730
648 2 1973 286 2751
649 1 2709 286 2730
650 1 2709 286 2751
651 1 2730 286 2751
652 1 2772 287 2793
653 1 2772 287 2814
654 1 2772 287 2835
655 1 2793 287 2814
656 1 2793 287 2835
657 1 2814 287 2835
658 3 2057 288 2771
659 2 2057 288 2856
660 2 2057 288 2877
661 2 2771 288 2856
662 2 2771 288 2877
663 1 2856 288 2877
664 3 2099 289 2603
665 2 2099 289 2898
666 2 2603 289 2898
667 3 2141 290 2645
668 3 2141 290 2897
669 3 2645 290 2897
670 3 2708 291 2834
671 2 2708 291 2919
672 2 2708 291 2940
673 2 2834 291 2919
674 2 2834 291 2940
675 1 2919 291 2940
676 2 2792 292 2961
677 2 2792 292 2982
678 1 2961 292 2982
679 3 2204 293 2855
680 2 2204 293 3003
681 2 2204 293 3024
682 2 2855 293 3003
683 2 2855 293 3024
684 1 3003 293 3024
685 2 2246 294 3045
686 2 2246 294 3066
687 2 2246 294 3087
688 1 3045 294 3066
689 1 3045 294 3087
690 1 3066 294 3087
691 3 2309 295 3044
692 2 2309 295 3108
693 2 2309 295 3129
694 2 3044 295 3108
695 2 3044 295 3129
696 1 3108 295 3129
697 3 2351 296 2918
698 3 2351 296 2981
699 2 2351 296 3150
700 3 2918 296 2981
701 2 2918 296 3150
702 2 2981 296 3150
703 2 3002 297 3171
704 2 3002 297 3192
705 1 3171 297 3192
706 3 2435 298 3065
707 2 2435 298 3213
708 2 2435 298 3234
709 2 3065 298 3213
710 2 3065 298 3234
711 1 3213 298 3234
712 3 3107 299 3212
713 2 3107 299 3255
714 2 3107 299 3276
715 2 3212 299 3255
716 2 3212 299 3276
717 1 3255 299 3276
718 3 3149 300 3254
719 2 3149 300 3297
720 2 3254 300 3297
721 2 2498 301 3318
722 2 2498 301 3339
723 1 3318 301 3339
724 3 2519 302 3170
725 3 2519 302 3317
726 2 2519 302 3360
727 3 3170 302 3317
728 2 3170 302 3360
729 2 3317 302 3360
730 1 311 303 312
731 1 311 303 313
732 4 311 303 323
733 1 312 303 313
734 4 312 303 323
735 4 313 303 323
736 1 311 304 314
737 1 311 304 315
738 4 311 304 326
739 1 314 304 315
740 4 314 304 326
741 4 315 304 326
742 1 312 305 316
743 1 312 305 317
744 4 312 305 334
745 1 316 305 317
746 4 316 305 334
747 4 317 305 334
748 1 314 306 316
749 1 314 306 318
750 4 314 306 342
751 1 316 306 318
752 4 316 306 342
753 4 318 306 342
754 1 313 307 319
755 1 313 307 320
756 4 313 307 350
757 1 319 307 320
758 4 319 307 350
759 4 320 307 350
760 1 315 308 319
761 1 315 308 321
762 4 315 308 358
763 1 319 308 321
764 4 319 308 358
765 4 321 308 358
766 1 317 309 320
767 1 317 309 322
768 4 317 309 366
769 1 320 309 322
770 4 320 309 366
771 4 322 309 366
772 1 318 310 321
773 1 318 310 322
774 4 318 310 374
775 1 321 310 322
776 4 321 310 374
777 4 322 310 374
778 5 303 311 304
779 5 303 312 305
780 5 303 313 307
781 5 304 314 306
782 5 304 315 308
783 5 305 316 306
784 5 305 317 309
785 5 306 318 310
786 5 307 319 308
787 5 307 320 309
788 5 308 321 310
789 5 309 322 310
790 6 324 323 303
791 7 323 324 325
792 9 324 325 3359
793 6 327 326 304
794 7 326 327 328
795 7 326 327 329
796 7 328 327 329
797 7 327 329 330
798 7 329 330 331
799 7 329 330 332
800 7 329 330 333
801 7 331 330 332
802 7 331 330 333
803 7 332 330 333
804 6 335 334 305
805 7 334 335 336
806 7 334 335 337
807 7 336 335 337
808 7 335 337 338
809 7 337 338 339
810 7 337 338 340
811 7 337 338 341
812 7 339 338 340
813 7 339 338 341
814 7 340 338 341
815 6 343 342 306
816 7 342 343 344
817 7 342 343 345
818 7 344 343 345
819 7 343 345 346
820 7 345 346 347
821 7 345 346 348
822 7 345 346 349
823 7 347 346 348
824 7 347 346 349
825 7 348 346 349
826 6 351 350 307
827 7 350 351 352
828 7 350 351 353
829 7 352 351 353
830 7 351 353 354
831 7 353 354 355
832 7 353 354 356
833 7 353 354 357
834 7 355 354 356
835 7 355 354 357
836 7 356 354 357
837 6 359 358 308
838 7 358 359 360
839 7 358 359 361
840 7 360 359 361
841 7 359 361 362
842 7 361 362 363
843 7 361 362 364
844 7 361 362 365
845 7 363 362 364
846 7 363 362 365
847 7 364 362 365
848 6 367 366 309
849 7 366 367 368
850 7 366 367 369
851 7 368 367 369
852 7 367 369 370
853 7 369 370 371
854 7 369 370 372
855 7 369 370 373
856 7 371 370 372
857 7 371 370 373
858 7 372 370 373
859 6 375 374 310
860 7 374 375 376
861 7 374 375 377
862 7 376 375 377
863 7 375 377 378
864 7 377 378 379
865 7 377 378 380
866 7 377 378 381
867 7 379 378 380
868 7 379 378 381
869 7 380 378 381
870 3 2687 382 3275
871 2 2687 382 3381
872 2 2687 382 3402
873 2 3275 382 3381
874 2 3275 382 3402
875 1 3381 382 3402
876 3 2561 383 2750
877 3 2561 383 3380
878 2 2561 383 3423
879 3 2750 383 3380
880 2 2750 383 3423
881 2 3380 383 3423
882 1 392 384 393
883 1 392 384 394
884 4 392 384 404
885 1 393 384 394
886 4 393 384 404
887 4 394 384 404
888 1 392 385 395
889 1 392 385 396
890 4 392 385 407
891 1 395 385 396
892 4 395 385 407
893 4 396 385 407
894 1 393 386 397
895 1 393 386 398
896 4 393 386 415
897 1 397 386 398
898 4 397 386 415
899 4 398 386 415
900 1 395 387 397
901 1 395 387 399
902 4 395 387 423
903 1 397 387 399
904 4 397 387 423
905 4 399 387 423
906 1 394 388 400
907 1 394 388 401
908 4 394 388 431
909 1 400 388 401
910 4 400 388 431
911 4 401 388 431
912 1 396 389 400
913 1 396 389 402
914 4 396 389 439
915 1 400 389 402
916 4 400 389 439
917 4 402 389 439
918 1 398 390 401
919 1 398 390 403
920 4 398 390 447
921 1 401 390 403
922 4 401 390 447
923 4 403 390 447
924 1 399 391 402
925 1 399 391 403
926 4 399 391 455
927 1 402 391 403
928 4 402 391 455
929 4 403 391 455
930 5 384 392 385
931 5 384 393 386
932 5 384 394 388
933 5 385 395 387
934 5 385 396 389
935 5 386 397 387
936 5 386 398 390
937 5 387 399 391
938 5 388 400 389
939 5 388 401 390
940 5 389 402 391
941 5 390 403 391
942 6 405 404 384
943 7 404 405 406
944 8 405 406 3424
945 6 408 407 385
946 7 407 408 409
947 7 407 408 410
948 7 409 408 410
949 7 408 410 411
950 7 410 411 412
951 7 410 411 413
952 7 410 411 414
953 7 412 411 413
954 7 412 411 414
955 7 413 411 414
956 6 416 415 386
957 7 415 416 417
958 7 415 416 418
959 7 417 416 418
960 7 416 418 419
961 7 418 419 420
962 7 418 419 421
963 7 418 419 422
964 7 420 419 421
965 7 420 419 422
966 7 421 419 422
967 6 424 423 387
968 7 423 424 425
969 7 423 424 426
970 7 425 424 426
971 7 424 426 427
972 7 426 427 428
973 7 426 427 429
974 7 426 427 430
975 7 428 427 429
976 7 428 427 430
977 7 429 427 430
978 6 432 431 388
979 7 431 432 433
980 7 431 432 434
981 7 433 432 434
982 7 432 434 435
983 7 434 435 436
984 7 434 435 437
985 7 434 435 438
986 7 436 435 437
987 7 436 435 438
988 7 437 435 438
989 6 440 439 389
990 7 439 440 441
991 7 439 440 442
992 7 441 440 442
993 7 440 442 443
994 7 442 443 444
995 7 442 443 445
996 7 442 443 446
997 7 444 443 445
998 7 444 443 446
999 7 445 443 446
1000 6 448 447 390
1001 7 447 448 449
1002 7 447 448 450
1003 7 449 448 450
1004 7 448 450 451
1005 7 450 451 452
1006 7 450 451 453
1007 7 450 451 454
1008 7 452 451 453
1009 7 452 451 454
1010 7 453 451 454
1011 6 456 455 391
1012 7 455 456 457
1013 7 455 456 458
1014 7 457 456 458
1015 7 456 458 459
1016 7 458 459 460
1017 7 458 459 461
1018 7 458 459 462
1019 7 460 459 461
1020 7 460 459 462
1021 7 461 459 462
1022 2 3443 463 3464
1023 2 3443 463 3485
1024 1 3464 463 3485
1025 2 2624 464 3506
1026 2 2624 464 3527
1027 2 2624 464 3548
1028 1 3506 464 3527
1029 1 3506 464 3548
1030 1 3527 464 3548
1031 3 2666 465 3505
1032 2 2666 465 3569
1033 2 2666 465 3590
1034 2 3505 465 3569
1035 2 3505 465 3590
1036 1 3569 465 3590
1037 2 2729 466 3611
1038 2 2729 466 3632
1039 1 3611 466 3632
1040 2 2813 467 3653
1041 2 2813 467 3674
1042 1 3653 467 3674
1043 3 2876 468 3652
1044 2 2876 468 3695
1045 2 2876 468 3716
1046 2 3652 468 3695
1047 2 3652 468 3716
1048 1 3695 468 3716
1049 2 3694 469 3737
1050 2 3694 469 3758
1051 2 3694 469 3779
1052 1 3737 469 3758
1053 1 3737 469 3779
1054 1 3758 469 3779
1055 3 3568 470 3736
1056 2 3568 470 3800
1057 2 3736 470 3800
1058 2 2939 471 3821
1059 2 2939 471 3842
1060 1 3821 471 3842
1061 2 2960 472 3863
1062 2 2960 472 3884
1063 2 2960 472 3905
1064 1 3863 472 3884
1065 1 3863 472 3905
1066 1 3884 472 3905
1067 2 3023 473 3926
1068 2 3023 473 3947
1069 1 3926 473 3947
1070 3 3086 474 3757
1071 3 3086 474 3925
1072 2 3086 474 3968
1073 3 3757 474 3925
1074 2 3757 474 3968
1075 2 3925 474 3968
1076 3 3128 475 3799
1077 2 3128 475 3989
1078 2 3128 475 4010
1079 2 3799 475 3989
1080 2 3799 475 4010
1081 1 3989 475 4010
1082 3 3820 476 3904
1083 3 3820 476 3988
1084 2 3820 476 4031
1085 3 3904 476 3988
1086 2 3904 476 4031
1087 2 3988 476 4031
1088 2 3862 477 4052
1089 2 3862 477 4073
1090 1 4052 477 4073
1091 3 3191 478 4051
1092 2 3191 478 4094
1093 2 3191 478 4115
1094 2 4051 478 4094
1095 2 4051 478 4115
1096 1 4094 478 4115
1097 3 3233 479 3967
1098 2 3233 479 4136
1099 2 3967 479 4136
1100 2 4009 480 4157
1101 2 4009 480 4178
1102 2 4009 480 4199
1103 1 4157 480 4178
1104 1 4157 480 4199
1105 1 4178 480 4199
1106 3 3296 481 4072
1107 3 3296 481 4156
1108 2 3296 481 4220
1109 3 4072 481 4156
1110 2 4072 481 4220
1111 2 4156 481 4220
1112 2 3338 482 4241
1113 2 3338 482 4262
1114 2 3338 482 4283
1115 1 4241 482 4262
1116 1 4241 482 4283
1117 1 4262 482 4283
1118 3 3484 483 4093
1119 3 3484 483 4240
1120 2 3484 483 4304
1121 3 4093 483 4240
1122 2 4093 483 4304
1123 2 4240 483 4304
1124 2 3547 484 4325
1125 2 3547 484 4346
1126 1 4325 484 4346
1127 3 3401 485 4177
1128 3 3401 485 4324
1129 2 3401 485 4367
1130 3 4177 485 4324
1131 2 4177 485 4367
1132 2 4324 485 4367
1133 3 3422 486 3631
1134 3 3422 486 4282
1135 3 3631 486 4282
1136 1 4388 487 4409
1137 1 4388 487 4430
1138 1 4409 487 4430
1139 3 3463 488 4387
1140 2 3463 488 4451
1141 2 3463 488 4472
1142 2 4387 488 4451
1143 2 4387 488 4472
1144 1 4451 488 4472
1145 2 3526 489 4493
1146 2 3526 489 4514
1147 1 4493 489 4514
1148 3 3589 490 4492
1149 2 3589 490 4535
1150 2 3589 490 4556
1151 2 4492 490 4535
1152 2 4492 490 4556
1153 1 4535 490 4556
1154 3 3610 491 4408
1155 3 3610 491 4534
1156 2 3610 491 4577
1157 3 4408 491 4534
1158 2 4408 491 4577
1159 2 4534 491 4577
1160 3 945 492 3673
1161 2 945 492 4598
1162 2 945 492 4619
1163 2 3673 492 4598
1164 2 3673 492 4619
1165 1 4598 492 4619
1166 3 3715 493 4450
1167 2 3715 493 4640
1168 2 4450 493 4640
1169 3 1029 494 3778
1170 3 1029 494 4513
1171 2 1029 494 4661
1172 3 3778 494 4513
1173 2 3778 494 4661
1174 2 4513 494 4661
1175 3 1071 495 4555
1176 2 1071 495 4682
1177 2 4555 495 4682
1178 3 3841 496 4618
1179 2 3841 496 4703
1180 2 4618 496 4703
1181 3 3883 497 4597
1182 2 3883 497 4724
1183 2 3883 497 4745
1184 2 4597 497 4724
1185 2 4597 497 4745
1186 1 4724 497 4745
1187 3 3946 498 4639
1188 3 3946 498 4723
1189 2 3946 498 4766
1190 3 4639 498 4723
1191 2 4639 498 4766
1192 2 4723 498 4766
1193 3 1260 499 4660
1194 3 1260 499 4765
1195 2 1260 499 4787
1196 3 4660 499 4765
1197 2 4660 499 4787
1198 2 4765 499 4787
1199 3 1323 500 4681
1200 2 1323 500 4808
1201 2 1323 500 4829
1202 2 4681 500 4808
1203 2 4681 500 4829
1204 1 4808 500 4829
1205 3 4030 501 4702
1206 3 4030 501 4807
1207 2 4030 501 4850
1208 3 4702 501 4807
1209 2 4702 501 4850
1210 2 4807 501 4850
1211 1 510 502 511
1212 1 510 502 512
1213 4 510 502 522
1214 1 511 502 512
1215 4 511 502 522
1216 4 512 502 522
1217 1 510 503 513
1218 1 510 503 514
1219 4 510 503 525
1220 1 513 503 514
1221 4 513 503 525
1222 4 514 503 525
1223 1 511 504 515
1224 1 511 504 516
1225 4 511 504 533
1226 1 515 504 516
1227 4 515 504 533
1228 4 516 504 533
1229 1 513 505 515
1230 1 513 505 517
1231 4 513 505 541
1232 1 515 505 517
1233 4 515 505 541
1234 4 517 505 541
1235 1 512 506 518
1236 1 512 506 519
1237 4 512 506 549
1238 1 518 506 519
1239 4 518 506 549
1240 4 519 506 549
1241 1 514 507 518
1242 1 514 507 520
1243 4 514 507 557
1244 1 518 507 520
1245 4 518 507 557
1246 4 520 507 557
1247 1 516 508 519
1248 1 516 508 521
1249 4 516 508 565
1250 1 519 508 521
1251 4 519 508 565
1252 4 521 508 565
1253 1 517 509 520
1254 1 517 509 521
1255 4 517 509 573
1256 1 520 509 521
1257 4 520 509 573
1258 4 521 509 573
1259 5 502 510 503
1260 5 502 511 504
1261 5 502 512 506
1262 5 503 513 505
1263 5 503 514 507
1264 5 504 515 505
1265 5 504 516 508
1266 5 505 517 509
1267 5 506 518 507
1268 5 506 519 508
1269 5 507 520 509
1270 5 508 521 509
1271 6 523 522 502
1272 7 522 523 524
1273 9 523 524 4744
1274 6 526 525 503
1275 7 525 526 527
1276 7 525 526 528
1277 7 527 526 528
1278 7 526 528 529
1279 7 528 529 530
1280 7 528 529 531
1281 7 528 529 532
1282 7 530 529 531
1283 7 530 529 532
1284 7 531 529 532
1285 6 534 533 504
1286 7 533 534 535
1287 7 533 534 536
1288 7 535 534 536
1289 7 534 536 537
1290 7 536 537 538
1291 7 536 537 539
1292 7 536 537 540
1293 7 538 537 539
1294 7 538 537 540
1295 7 539 537 540
1296 6 542 541 505
1297 7 541 542 543
1298 7 541 542 544
1299 7 543 542 544
1300 7 542 544 545
1301 7 544 545 546
1302 7 544 545 547
1303 7 544 545 548
1304 7 546 545 547
1305 7 546 545 548
1306 7 547 545 548
1307 6 550 549 506
1308 7 549 550 551
1309 7 549 550 552
1310 7 551 550 552
1311 7 550 552 553
1312 7 552 553 554
1313 7 552 553 555
1314 7 552 553 556
1315 7 554 553 555
1316 7 554 553 556
1317 7 555 553 556
1318 6 558 557 507
1319 7 557 558 559
1320 7 557 558 560
1321 7 559 558 560
1322 7 558 560 561
1323 7 560 561 562
1324 7 560 561 563
1325 7 560 561 564
1326 7 562 561 563
1327 7 562 561 564
1328 7 563 561 564
1329 6 566 565 508
1330 7 565 566 567
1331 7 565 566 568
1332 7 567 566 568
1333 7 566 568 569
1334 7 568 569 570
1335 7 568 569 571
1336 7 568 569 572
1337 7 570 569 571
1338 7 570 569 572
1339 7 571 569 572
1340 6 574 573 509
1341 7 573 574 575
1342 7 573 574 576
1343 7 575 574 576
1344 7 574 576 577
1345 7 576 577 578
1346 7 576 577 579
1347 7 576 577 580
1348 7 578 577 579
1349 7 578 577 580
1350 7 579 577 580
1351 3 1449 581 4114
1352 2 1449 581 4871
1353 2 1449 581 4892
1354 2 4114 581 4871
1355 2 4114 581 4892
1356 1 4871 581 4892
1357 3 4135 582 4786
1358 3 4135 582 4870
1359 2 4135 582 4913
1360 3 4786 582 4870
1361 2 4786 582 4913
1362 2 4870 582 4913
1363 3 1511 583 4198
1364 3 1511 583 4828
1365 2 1511 583 4934
1366 3 4198 583 4828
1367 2 4198 583 4934
1368 2 4828 583 4934
1369 3 1553 584 4219
1370 3 1553 584 4849
1371 3 4219 584 4849
1372 3 4261 585 4429
1373 2 4261 585 4955
1374 2 4429 585 4955
1375 3 4303 586 4471
1376 3 4303 586 4891
1377 3 4303 586 4954
1378 3 4471 586 4891
1379 3 4471 586 4954
1380 3 4891 586 4954
1381 3 4345 587 4912
1382 2 4345 587 4976
1383 2 4912 587 4976
1384 3 4366 588 4933
1385 3 4366 588 4975
1386 2 4366 588 4997
1387 3 4933 588 4975
1388 2 4933 588 4997
1389 2 4975 588 4997
1390 3 1721 589 4576
1391 3 1721 589 4996
1392 3 4576 589 4996
1393 10 591 590 592
1394 11 591 590 593
1395 12 591 590 610
1396 11 592 590 593
1397 12 592 590 610
1398 13 593 590 610
1399 14 590 593 594
1400 11 593 594 595
1401 11 593 594 596
1402 15 593 594 597
1403 10 595 594 596
1404 11 595 594 597
1405 11 596 594 597
1406 14 594 597 598
1407 11 597 598 599
1408 11 597 598 600
1409 15 597 598 601
1410 10 599 598 600
1411 11 599 598 601
1412 11 600 598 601
1413 14 598 601 602
1414 11 601 602 603
1415 11 601 602 604
1416 15 601 602 605
1417 10 603 602 604
1418 11 603 602 605
1419 11 604 602 605
1420 14 602 605 606
1421 11 605 606 607
1422 11 605 606 608
1423 15 605 606 609
1424 10 607 606 608
1425 11 607 606 609
1426 11 608 606 609
1427 16 606 609 6
1428 17 1 610 590
1429 10 612 611 613
1430 11 612 611 614
1431 12 612 611 631
1432 11 613 611 614
1433 12 613 611 631
1434 13 614 611 631
1435 14 611 614 615
1436 11 614 615 616
1437 11 614 615 617
1438 15 614 615 618
1439 10 616 615 617
1440 11 616 615 618
1441 11 617 615 618
1442 14 615 618 619
1443 11 618 619 620
1444 11 618 619 621
1445 15 618 619 622
1446 10 620 619 621
1447 11 620 619 622
1448 11 621 619 622
1449 14 619 622 623
1450 11 622 623 624
1451 11 622 623 625
1452 15 622 623 626
1453 10 624 623 625
1454 11 624 623 626
1455 11 625 623 626
1456 14 623 626 627
1457 11 626 627 628
1458 11 626 627 629
1459 15 626 627 630
1460 10 628 627 629
1461 11 628 627 630
1462 11 629 627 630
1463 16 627 630 5
1464 17 1 631 611
1465 10 633 632 634
1466 11 633 632 635
1467 12 633 632 652
1468 11 634 632 635
1469 12 634 632 652
1470 13 635 632 652
1471 14 632 635 636
1472 11 635 636 637
1473 11 635 636 638
1474 15 635 636 639
1475 10 637 636 638
1476 11 637 636 639
1477 11 638 636 639
1478 14 636 639 640
1479 11 639 640 641
1480 11 639 640 642
1481 15 639 640 643
1482 10 641 640 642
1483 11 641 640 643
1484 11 642 640 643
1485 14 640 643 644
1486 11 643 644 645
1487 11 643 644 646
1488 15 643 644 647
1489 10 645 644 646
1490 11 645 644 647
1491 11 646 644 647
1492 14 644 647 648
1493 11 647 648 649
1494 11 647 648 650
1495 15 647 648 651
1496 10 649 648 650
1497 11 649 648 651
1498 11 650 648 651
1499 16 648 651 98
1500 17 1 652 632
1501 10 654 653 655
1502 11 654 653 656
1503 12 654 653 673
1504 11 655 653 656
1505 12 655 653 673
1506 13 656 653 673
1507 14 653 656 657
1508 11 656 657 658
1509 11 656 657 659
1510 15 656 657 660
1511 10 658 657 659
1512 11 658 657 660
1513 11 659 657 660
1514 14 657 660 661
1515 11 660 661 662
1516 11 660 661 663
1517 15 660 661 664
1518 10 662 661 663
1519 11 662 661 664
1520 11 663 661 664
1521 14 661 664 665
1522 11 664 665 666
1523 11 664 665 667
1524 15 664 665 668
1525 10 666 665 667
1526 11 666 665 668
1527 11 667 665 668
1528 14 665 668 669
1529 11 668 669 670
1530 11 668 669 671
1531 15 668 669 672
1532 10 670 669 671
1533 11 670 669 672
1534 11 671 669 672
1535 16 669 672 3
1536 17 2 673 653
1537 10 675 674 676
1538 11 675 674 677
1539 12 675 674 694
1540 11 676 674 677
1541 12 676 674 694
1542 13 677 674 694
1543 14 674 677 678
1544 11 677 678 679
1545 11 677 678 680
1546 15 677 678 681
1547 10 679 678 680
1548 11 679 678 681
1549 11 680 678 681
1550 14 678 681 682
1551 11 681 682 683
1552 11 681 682 684
1553 15 681 682 685
1554 10 683 682 684
1555 11 683 682 685
1556 11 684 682 685
1557 14 682 685 686
1558 11 685 686 687
1559 11 685 686 688
1560 15 685 686 689
1561 10 687 686 688
1562 11 687 686 689
1563 11 688 686 689
1564 14 686 689 690
1565 11 689 690 691
1566 11 689 690 692
1567 15 689 690 693
1568 10 691 690 692
1569 11 691 690 693
1570 11 692 690 693
1571 16 690 693 104
1572 17 2 694 674
1573 10 696 695 697
1574 11 696 695 698
1575 12 696 695 715
1576 11 697 695 698
1577 12 697 695 715
1578 13 698 695 715
1579 14 695 698 699
1580 11 698 699 700
1581 11 698 699 701
1582 15 698 699 702
1583 10 700 699 701
1584 11 700 699 702
1585 11 701 699 702
1586 14 699 702 703
1587 11 702 703 704
1588 11 702 703 705
1589 15 702 703 706
1590 10 704 703 705
1591 11 704 703 706
1592 11 705 703 706
1593 14 703 706 707
1594 11 706 707 708
1595 11 706 707 709
1596 15 706 707 710
1597 10 708 707 709
1598 11 708 707 710
1599 11 709 707 710
1600 14 707 710 711
1601 11 710 711 712
1602 11 710 711 713
1603 15 710 711 714
1604 10 712 711 713
1605 11 712 711 714
1606 11 713 711 714
1607 16 711 714 99
1608 17 2 715 695
1609 10 717 716 718
1610 11 717 716 719
1611 12 717 716 736
1612 11 718 716 719
1613 12 718 716 736
1614 13 719 716 736
1615 14 716 719 720
1616 11 719 720 721
1617 11 719 720 722
1618 15 719 720 723
1619 10 721 720 722
1620 11 721 720 723
1621 11 722 720 723
1622 14 720 723 724
1623 11 723 724 725
1624 11 723 724 726
1625 15 723 724 727
1626 10 725 724 726
1627 11 725 724 727
1628 11 726 724 727
1629 14 724 727 728
1630 11 727 728 729
1631 11 727 728 730
1632 15 727 728 731
1633 10 729 728 730
1634 11 729 728 731
1635 11 730 728 731
1636 14 728 731 732
1637 11 731 732 733
1638 11 731 732 734
1639 15 731 732 735
1640 10 733 732 734
1641 11 733 732 735
1642 11 734 732 735
1643 16 732 735 4
1644 17 3 736 716
1645 10 738 737 739
1646 11 738 737 740
1647 12 738 737 757
1648 11 739 737 740
1649 12 739 737 757
1650 13 740 737 757
1651 14 737 740 741
1652 11 740 741 742
1653 11 740 741 743
1654 15 740 741 744
1655 10 742 741 743
1656 11 742 741 744
1657 11 743 741 744
1658 14 741 744 745
1659 11 744 745 746
1660 11 744 745 747
1661 15 744 745 748
1662 10 746 745 747
1663 11 746 745 748
1664 11 747 745 748
1665 14 745 748 749
1666 11 748 749 750
1667 11 748 749 751
1668 15 748 749 752
1669 10 750 749 751
1670 11 750 749 752
1671 11 751 749 752
1672 14 749 752 753
1673 11 752 753 754
1674 11 752 753 755
1675 15 752 753 756
1676 10 754 753 755
1677 11 754 753 756
1678 11 755 753 756
1679 16 753 756 105
1680 17 3 757 737
1681 10 759 758 760
1682 11 759 758 761
1683 12 759 758 778
1684 11 760 758 761
1685 12 760 758 778
1686 13 761 758 778
1687 14 758 761 762
1688 11 761 762 763
1689 11 761 762 764
1690 15 761 762 765
1691 10 763 762 764
1692 11 763 762 765
1693 11 764 762 765
1694 14 762 765 766
1695 11 765 766 767
1696 11 765 766 768
1697 15 765 766 769
1698 10 767 766 768
1699 11 767 766 769
1700 11 768 766 769
1701 14 766 769 770
1702 11 769 770 771
1703 11 769 770 772
1704 15 769 770 773
1705 10 771 770 772
1706 11 771 770 773
1707 11 772 770 773
1708 14 770 773 774
1709 11 773 774 775
1710 11 773 774 776
1711 15 773 774 777
1712 10 775 774 776
1713 11 775 774 777
1714 11 776 774 777
1715 16 774 777 100
1716 17 3 778 758
1717 10 780 779 781
1718 11 780 779 782
1719 12 780 779 799
1720 11 781 779 782
1721 12 781 779 799
1722 13 782 779 799
1723 14 779 782 783
1724 11 782 783 784
1725 11 782 783 785
1726 15 782 783 786
1727 10 784 783 785
1728 11 784 783 786
1729 11 785 783 786
1730 14 783 786 787
1731 11 786 787 788
1732 11 786 787 789
1733 15 786 787 790
1734 10 788 787 789
1735 11 788 787 790
1736 11 789 787 790
1737 14 787 790 791
1738 11 790 791 792
1739 11 790 791 793
1740 15 790 791 794
1741 10 792 791 793
1742 11 792 791 794
1743 11 793 791 794
1744 14 791 794 795
1745 11 794 795 796
1746 11 794 795 797
1747 15 794 795 798
1748 10 796 795 797
1749 11 796 795 798
1750 11 797 795 798
1751 16 795 798 5
1752 17 4 799 779
1753 10 801 800 802
1754 11 801 800 803
1755 12 801 800 820
1756 11 802 800 803
1757 12 802 800 820
1758 13 803 800 820
1759 14 800 803 804
1760 11 803 804 805
1761 11 803 804 806
1762 15 803 804 807
1763 10 805 804 806
1764 11 805 804 807
1765 11 806 804 807
1766 14 804 807 808
1767 11 807 808 809
1768 11 807 808 810
1769 15 807 808 811
1770 10 809 808 810
1771 11 809 808 811
1772 11 810 808 811
1773 14 808 811 812
1774 11 811 812 813
1775 11 811 812 814
1776 15 811 812 815
1777 10 813 812 814
1778 11 813 812 815
1779 11 814 812 815
1780 14 812 815 816
1781 11 815 816 817
1782 11 815 816 818
1783 15 815 816 819
1784 10 817 816 818
1785 11 817 816 819
1786 11 818 816 819
1787 16 816 819 8
1788 17 4 820 800
1789 10 822 821 823
1790 11 822 821 824
1791 12 822 821 841
1792 11 823 821 824
1793 12 823 821 841
1794 13 824 821 841
1795 14 821 824 825
1796 11 824 825 826
1797 11 824 825 827
1798 15 824 825 828
1799 10 826 825 827
1800 11 826 825 828
1801 11 827 825 828
1802 14 825 828 829
1803 11 828 829 830
1804 11 828 829 831
1805 15 828 829 832
1806 10 830 829 831
1807 11 830 829 832
1808 11 831 829 832
1809 14 829 832 833
1810 11 832 833 834
1811 11 832 833 835
1812 15 832 833 836
1813 10 834 833 835
1814 11 834 833 836
1815 11 835 833 836
1816 14 833 836 837
1817 11 836 837 838
1818 11 836 837 839
1819 15 836 837 840
1820 10 838 837 839
1821 11 838 837 840
1822 11 839 837 840
1823 16 837 840 106
1824 17 4 841 821
1825 10 843 842 844
1826 11 843 842 845
1827 12 843 842 862
1828 11 844 842 845
1829 12 844 842 862
1830 13 845 842 862
1831 14 842 845 846
1832 11 845 846 847
1833 11 845 846 848
1834 15 845 846 849
1835 10 847 846 848
1836 11 847 846 849
1837 11 848 846 849
1838 14 846 849 850
1839 11 849 850 851
1840 11 849 850 852
1841 15 849 850 853
1842 10 851 850 852
1843 11 851 850 853
1844 11 852 850 853
1845 14 850 853 854
1846 11 853 854 855
1847 11 853 854 856
1848 15 853 854 857
1849 10 855 854 856
1850 11 855 854 857
1851 11 856 854 857
1852 14 854 857 858
1853 11 857 858 859
1854 11 857 858 860
1855 15 857 858 861
1856 10 859 858 860
1857 11 859 858 861
1858 11 860 858 861
1859 16 858 861 9
1860 17 5 862 842
1861 10 864 863 865
1862 11 864 863 866
1863 12 864 863 883
1864 11 865 863 866
1865 12 865 863 883
1866 13 866 863 883
1867 14 863 866 867
1868 11 866 867 868
1869 11 866 867 869
1870 15 866 867 870
1871 10 868 867 869
1872 11 868 867 870
1873 11 869 867 870
1874 14 867 870 871
1875 11 870 871 872
1876 11 870 871 873
1877 15 870 871 874
1878 10 872 871 873
1879 11 872 871 874
1880 11 873 871 874
1881 14 871 874 875
1882 11 874 875 876
1883 11 874 875 877
1884 15 874 875 878
1885 10 876 875 877
1886 11 876 875 878
1887 11 877 875 878
1888 14 875 878 879
1889 11 878 879 880
1890 11 878 879 881
1891 15 878 879 882
1892 10 880 879 881
1893 11 880 879 882
1894 11 881 879 882
1895 16 879 882 107
1896 17 5 883 863
1897 10 885 884 886
1898 11 885 884 887
1899 12 885 884 904
1900 11 886 884 887
1901 12 886 884 904
1902 13 887 884 904
1903 14 884 887 888
1904 11 887 888 889
1905 11 887 888 890
1906 15 887 888 891
1907 10 889 888 890
1908 11 889 888 891
1909 11 890 888 891
1910 14 888 891 892
1911 11 891 892 893
1912 11 891 892 894
1913 15 891 892 895
1914 10 893 892 894
1915 11 893 892 895
1916 11 894 892 895
1917 14 892 895 896
1918 11 895 896 897
1919 11 895 896 898
1920 15 895 896 899
1921 10 897 896 898
1922 11 897 896 899
1923 11 898 896 899
1924 14 896 899 900
1925 11 899 900 901
1926 11 899 900 902
1927 15 899 900 903
1928 10 901 900 902
1929 11 901 900 903
1930 11 902 900 903
1931 16 900 903 108
1932 17 6 904 884
1933 10 906 905 907
1934 11 906 905 908
1935 12 906 905 925
1936 11 907 905 908
1937 12 907 905 925
1938 13 908 905 925
1939 14 905 908 909
1940 11 908 909 910
1941 11 908 909 911
1942 15 908 909 912
1943 10 910 909 911
1944 11 910 909 912
1945 11 911 909 912
1946 14 909 912 913
1947 11 912 913 914
1948 11 912 913 915
1949 15 912 913 916
1950 10 914 913 915
1951 11 914 913 916
1952 11 915 913 916
1953 14 913 916 917
1954 11 916 917 918
1955 11 916 917 919
1956 15 916 917 920
1957 10 918 917 919
1958 11 918 917 920
1959 11 919 917 920
1960 14 917 920 921
1961 11 920 921 922
1962 11 920 921 923
1963 15 920 921 924
1964 10 922 921 923
1965 11 922 921 924
1966 11 923 921 924
1967 16 921 924 9
1968 17 6 925 905
1969 10 927 926 928
1970 11 927 926 929
1971 12 927 926 946
1972 11 928 926 929
1973 12 928 926 946
1974 13 929 926 946
1975 14 926 929 930
1976 11 929 930 931
1977 11 929 930 932
1978 15 929 930 933
1979 10 931 930 932
1980 11 931 930 933
1981 11 932 930 933
1982 14 930 933 934
1983 11 933 934 935
1984 11 933 934 936
1985 15 933 934 937
1986 10 935 934 936
1987 11 935 934 937
1988 11 936 934 937
1989 14 934 937 938
1990 11 937 938 939
1991 11 937 938 940
1992 15 937 938 941
1993 10 939 938 940
1994 11 939 938 941
1995 11 940 938 941
1996 14 938 941 942
1997 11 941 942 943
1998 11 941 942 944
1999 15 941 942 945
2000 10 943 942 944
2001 11 943 942 945
2002 11 944 942 945
2003 16 942 945 492
2004 17 6 946 926
2005 10 948 947 949
2006 11 948 947 950
2007 12 948 947 967
2008 11 949 947 950
2009 12 949 947 967
2010 13 950 947 967
2011 14 947 950 951
2012 11 950 951 952
2013 11 950 951 953
2014 15 950 951 954
2015 10 952 951 953
2016 11 952 951 954
2017 11 953 951 954
2018 14 951 954 955
2019 11 954 955 956
2020 11 954 955 957
2021 15 954 955 958
2022 10 956 955 957
2023 11 956 955 958
2024 11 957 955 958
2025 14 955 958 959
2026 11 958 959 960
2027 11 958 959 961
2028 15 958 959 962
2029 10 960 959 961
2030 11 960 959 962
2031 11 961 959 962
2032 14 959 962 963
2033 11 962 963 964
2034 11 962 963 965
2035 15 962 963 966
2036 10 964 963 965
2037 11 964 963 966
2038 11 965 963 966
2039 16 963 966 8
2040 17 7 967 947
2041 10 969 968 970
2042 11 969 968 971
2043 12 969 968 988
2044 11 970 968 971
2045 12 970 968 988
2046 13 971 968 988
2047 14 968 971 972
2048 11 971 972 973
2049 11 971 972 974
2050 15 971 972 975
2051 10 973 972 974
2052 11 973 972 975
2053 11 974 972 975
2054 14 972 975 976
2055 11 975 976 977
2056 11 975 976 978
2057 15 975 976 979
2058 10 977 976 978
2059 11 977 976 979
2060 11 978 976 979
2061 14 976 979 980
2062 11 979 980 981
2063 11 979 980 982
2064 15 979 980 983
2065 10 981 980 982
2066 11 981 980 983
2067 11 982 980 983
2068 14 980 983 984
2069 11 983 984 985
2070 11 983 984 986
2071 15 983 984 987
2072 10 985 984 986
2073 11 985 984 987
2074 11 986 984 987
2075 16 984 987 12
2076 17 7 988 968
2077 10 990 989 991
2078 11 990 989 992
2079 12 990 989 1009
2080 11 991 989 992
2081 12 991 989 1009
2082 13 992 989 1009
2083 14 989 992 993
2084 11 992 993 994
2085 11 992 993 995
2086 15 992 993 996
2087 10 994 993 995
2088 11 994 993 996
2089 11 995 993 996
2090 14 993 996 997
2091 11 996 997 998
2092 11 996 997 999
2093 15 996 997 1000
2094 10 998 997 999
2095 11 998 997 1000
2096 11 999 997 1000
2097 14 997 1000 1001
2098 11 1000 1001 1002
2099 11 1000 1001 1003
2100 15 1000 1001 1004
2101 10 1002 1001 1003
2102 11 1002 1001 1004
2103 11 1003 1001 1004
2104 14 1001 1004 1005
2105 11 1004 1005 1006
2106 11 1004 1005 1007
2107 15 1004 1005 1008
2108 10 1006 1005 1007
2109 11 1006 1005 1008
2110 11 1007 1005 1008
2111 16 1005 1008 110
2112 17 7 1009 989
2113 10 1011 1010 1012
2114 11 1011 1010 1013
2115 12 1011 1010 1030
2116 11 1012 1010 1013
2117 12 1012 1010 1030
2118 13 1013 1010 1030
2119 14 1010 1013 1014
2120 11 1013 1014 1015
2121 11 1013 1014 1016
2122 15 1013 1014 1017
2123 10 1015 1014 1016
2124 11 1015 1014 1017
2125 11 1016 1014 1017
2126 14 1014 1017 1018
2127 11 1017 1018 1019
2128 11 1017 1018 1020
2129 15 1017 1018 1021
2130 10 1019 1018 1020
2131 11 1019 1018 1021
2132 11 1020 1018 1021
2133 14 1018 1021 1022
2134 11 1021 1022 1023
2135 11 1021 1022 1024
2136 15 1021 1022 1025
2137 10 1023 1022 1024
2138 11 1023 1022 1025
2139 11 1024 1022 1025
2140 14 1022 1025 1026
2141 11 1025 1026 1027
2142 11 1025 1026 1028
2143 15 1025 1026 1029
2144 10 1027 1026 1028
2145 11 1027 1026 1029
2146 11 1028 1026 1029
2147 16 1026 1029 494
2148 17 7 1030 1010
2149 10 1032 1031 1033
2150 11 1032 1031 1034
2151 12 1032 1031 1051
2152 11 1033 1031 1034
2153 12 1033 1031 1051
2154 13 1034 1031 1051
2155 14 1031 1034 1035
2156 11 1034 1035 1036
2157 11 1034 1035 1037
2158 15 1034 1035 1038
2159 10 1036 1035 1037
2160 11 1036 1035 1038
2161 11 1037 1035 1038
2162 14 1035 1038 1039
2163 11 1038 1039 1040
2164 11 1038 1039 1041
2165 15 1038 1039 1042
2166 10 1040 1039 1041
2167 11 1040 1039 1042
2168 11 1041 1039 1042
2169 14 1039 1042 1043
2170 11 1042 1043 1044
2171 11 1042 1043 1045
2172 15 1042 1043 1046
2173 10 1044 1043 1045
2174 11 1044 1043 1046
2175 11 1045 1043 1046
2176 14 1043 1046 1047
2177 11 1046 1047 1048
2178 11 1046 1047 1049
2179 15 1046 1047 1050
2180 10 1048 1047 1049
2181 11 1048 1047 1050
2182 11 1049 1047 1050
2183 16 1047 1050 9
2184 17 8 1051 1031
2185 10 1053 1052 1054
2186 11 1053 1052 1055
2187 12 1053 1052 1072
2188 11 1054 1052 1055
2189 12 1054 1052 1072
2190 13 1055 1052 1072
2191 14 1052 1055 1056
2192 11 1055 1056 1057
2193 11 1055 1056 1058
2194 15 1055 1056 1059
2195 10 1057 1056 1058
2196 11 1057 1056 1059
2197 11 1058 1056 1059
2198 14 1056 1059 1060
2199 11 1059 1060 1061
2200 11 1059 1060 1062
2201 15 1059 1060 1063
2202 10 1061 1060 1062
2203 11 1061 1060 1063
2204 11 1062 1060 1063
2205 14 1060 1063 1064
2206 11 1063 1064 1065
2207 11 1063 1064 1066
2208 15 1063 1064 1067
2209 10 1065 1064 1066
2210 11 1065 1064 1067
2211 11 1066 1064 1067
2212 14 1064 1067 1068
2213 11 1067 1068 1069
2214 11 1067 1068 1070
2215 15 1067 1068 1071
2216 10 1069 1068 1070
2217 11 1069 1068 1071
2218 11 1070 1068 1071
2219 16 1068 1071 495
2220 17 8 1072 1052
2221 10 1074 1073 1075
2222 11 1074 1073 1076
2223 12 1074 1073 1093
2224 11 1075 1073 1076
2225 12 1075 1073 1093
2226 13 1076 1073 1093
2227 14 1073 1076 1077
2228 11 1076 1077 1078
2229 11 1076 1077 1079
2230 15 1076 1077 1080
2231 10 1078 1077 1079
2232 11 1078 1077 1080
2233 11 1079 1077 1080
2234 14 1077 1080 1081
2235 11 1080 1081 1082
2236 11 1080 1081 1083
2237 15 1080 1081 1084
2238 10 1082 1081 1083
2239 11 1082 1081 1084
2240 11 1083 1081 1084
2241 14 1081 1084 1085
2242 11 1084 1085 1086
2243 11 1084 1085 1087
2244 15 1084 1085 1088
2245 10 1086 1085 1087
2246 11 1086 1085 1088
2247 11 1087 1085 1088
2248 14 1085 1088 1089
2249 11 1088 1089 1090
2250 11 1088 1089 1091
2251 15 1088 1089 1092
2252 10 1090 1089 1091
2253 11 1090 1089 1092
2254 11 1091 1089 1092
2255 16 1089 1092 112
2256 17 9 1093 1073
2257 10 1095 1094 1096
2258 11 1095 1094 1097
2259 12 1095 1094 1114
2260 11 1096 1094 1097
2261 12 1096 1094 1114
2262 13 1097 1094 1114
2263 14 1094 1097 1098
2264 11 1097 1098 1099
2265 11 1097 1098 1100
2266 15 1097 1098 1101
2267 10 1099 1098 1100
2268 11 1099 1098 1101
2269 11 1100 1098 1101
2270 14 1098 1101 1102
2271 11 1101 1102 1103
2272 11 1101 1102 1104
2273 15 1101 1102 1105
2274 10 1103 1102 1104
2275 11 1103 1102 1105
2276 11 1104 1102 1105
2277 14 1102 1105 1106
2278 11 1105 1106 1107
2279 11 1105 1106 1108
2280 15 1105 1106 1109
2281 10 1107 1106 1108
2282 11 1107 1106 1109
2283 11 1108 1106 1109
2284 14 1106 1109 1110
2285 11 1109 1110 1111
2286 11 1109 1110 1112
2287 15 1109 1110 1113
2288 10 1111 1110 1112
2289 11 1111 1110 1113
2290 11 1112 1110 1113
2291 16 1110 1113 15
2292 17 10 1114 1094
2293 10 1116 1115 1117
2294 11 1116 1115 1118
2295 12 1116 1115 1135
2296 11 1117 1115 1118
2297 12 1117 1115 1135
2298 13 1118 1115 1135
2299 14 1115 1118 1119
2300 11 1118 1119 1120
2301 11 1118 1119 1121
2302 15 1118 1119 1122
2303 10 1120 1119 1121
2304 11 1120 1119 1122
2305 11 1121 1119 1122
2306 14 1119 1122 1123
2307 11 1122 1123 1124
2308 11 1122 1123 1125
2309 15 1122 1123 1126
2310 10 1124 1123 1125
2311 11 1124 1123 1126
2312 11 1125 1123 1126
2313 14 1123 1126 1127
2314 11 1126 1127 1128
2315 11 1126 1127 1129
2316 15 1126 1127 1130
2317 10 1128 1127 1129
2318 11 1128 1127 1130
2319 11 1129 1127 1130
2320 14 1127 1130 1131
2321 11 1130 1131 1132
2322 11 1130 1131 1133
2323 15 1130 1131 1134
2324 10 1132 1131 1133
2325 11 1132 1131 1134
2326 11 1133 1131 1134
2327 16 1131 1134 113
2328 17 10 1135 1115
2329 10 1137 1136 1138
2330 11 1137 1136 1139
2331 12 1137 1136 1156
2332 11 1138 1136 1139
2333 12 1138 1136 1156
2334 13 1139 1136 1156
2335 14 1136 1139 1140
2336 11 1139 1140 1141
2337 11 1139 1140 1142
2338 15 1139 1140 1143
2339 10 1141 1140 1142
2340 11 1141 1140 1143
2341 11 1142 1140 1143
2342 14 1140 1143 1144
2343 11 1143 1144 1145
2344 11 1143 1144 1146
2345 15 1143 1144 1147
2346 10 1145 1144 1146
2347 11 1145 1144 1147
2348 11 1146 1144 1147
2349 14 1144 1147 1148
2350 11 1147 1148 1149
2351 11 1147 1148 1150
2352 15 1147 1148 1151
2353 10 1149 1148 1150
2354 11 1149 1148 1151
2355 11 1150 1148 1151
2356 14 1148 1151 1152
2357 11 1151 1152 1153
2358 11 1151 1152 1154
2359 15 1151 1152 1155
2360 10 1153 1152 1154
2361 11 1153 1152 1155
2362 11 1154 1152 1155
2363 16 1152 1155 14
2364 17 10 1156 1136
2365 10 1158 1157 1159
2366 11 1158 1157 1160
2367 12 1158 1157 1177
2368 11 1159 1157 1160
2369 12 1159 1157 1177
2370 13 1160 1157 1177
2371 14 1157 1160 1161
2372 11 1160 1161 1162
2373 11 1160 1161 1163
2374 15 1160 1161 1164
2375 10 1162 1161 1163
2376 11 1162 1161 1164
2377 11 1163 1161 1164
2378 14 1161 1164 1165
2379 11 1164 1165 1166
2380 11 1164 1165 1167
2381 15 1164 1165 1168
2382 10 1166 1165 1167
2383 11 1166 1165 1168
2384 11 1167 1165 1168
2385 14 1165 1168 1169
2386 11 1168 1169 1170
2387 11 1168 1169 1171
2388 15 1168 1169 1172
2389 10 1170 1169 1171
2390 11 1170 1169 1172
2391 11 1171 1169 1172
2392 14 1169 1172 1173
2393 11 1172 1173 1174
2394 11 1172 1173 1175
2395 15 1172 1173 1176
2396 10 1174 1173 1175
2397 11 1174 1173 1176
2398 11 1175 1173 1176
2399 16 1173 1176 12
2400 17 11 1177 1157
2401 10 1179 1178 1180
2402 11 1179 1178 1181
2403 12 1179 1178 1198
2404 11 1180 1178 1181
2405 12 1180 1178 1198
2406 13 1181 1178 1198
2407 14 1178 1181 1182
2408 11 1181 1182 1183
2409 11 1181 1182 1184
2410 15 1181 1182 1185
2411 10 1183 1182 1184
2412 11 1183 1182 1185
2413 11 1184 1182 1185
2414 14 1182 1185 1186
2415 11 1185 1186 1187
2416 11 1185 1186 1188
2417 15 1185 1186 1189
2418 10 1187 1186 1188
2419 11 1187 1186 1189
2420 11 1188 1186 1189
2421 14 1186 1189 1190
2422 11 1189 1190 1191
2423 11 1189 1190 1192
2424 15 1189 1190 1193
2425 10 1191 1190 1192
2426 11 1191 1190 1193
2427 11 1192 1190 1193
2428 14 1190 1193 1194
2429 11 1193 1194 1195
2430 11 1193 1194 1196
2431 15 1193 1194 1197
2432 10 1195 1194 1196
2433 11 1195 1194 1197
2434 11 1196 1194 1197
2435 16 1194 1197 16
2436 17 11 1198 1178
2437 10 1200 1199 1201
2438 11 1200 1199 1202
2439 12 1200 1199 1219
2440 11 1201 1199 1202
2441 12 1201 1199 1219
2442 13 1202 1199 1219
2443 14 1199 1202 1203
2444 11 1202 1203 1204
2445 11 1202 1203 1205
2446 15 1202 1203 1206
2447 10 1204 1203 1205
2448 11 1204 1203 1206
2449 11 1205 1203 1206
2450 14 1203 1206 1207
2451 11 1206 1207 1208
2452 11 1206 1207 1209
2453 15 1206 1207 1210
2454 10 1208 1207 1209
2455 11 1208 1207 1210
2456 11 1209 1207 1210
2457 14 1207 1210 1211
2458 11 1210 1211 1212
2459 11 1210 1211 1213
2460 15 1210 1211 1214
2461 10 1212 1211 1213
2462 11 1212 1211 1214
2463 11 1213 1211 1214
2464 14 1211 1214 1215
2465 11 1214 1215 1216
2466 11 1214 1215 1217
2467 15 1214 1215 1218
2468 10 1216 1215 1217
2469 11 1216 1215 1218
2470 11 1217 1215 1218
2471 16 1215 1218 114
2472 17 11 1219 1199
2473 10 1221 1220 1222
2474 11 1221 1220 1223
2475 12 1221 1220 1240
2476 11 1222 1220 1223
2477 12 1222 1220 1240
2478 13 1223 1220 1240
2479 14 1220 1223 1224
2480 11 1223 1224 1225
2481 11 1223 1224 1226
2482 15 1223 1224 1227
2483 10 1225 1224 1226
2484 11 1225 1224 1227
2485 11 1226 1224 1227
2486 14 1224 1227 1228
2487 11 1227 1228 1229
2488 11 1227 1228 1230
2489 15 1227 1228 1231
2490 10 1229 1228 1230
2491 11 1229 1228 1231
2492 11 1230 1228 1231
2493 14 1228 1231 1232
2494 11 1231 1232 1233
2495 11 1231 1232 1234
2496 15 1231 1232 1235
2497 10 1233 1232 1234
2498 11 1233 1232 1235
2499 11 1234 1232 1235
2500 14 1232 1235 1236
2501 11 1235 1236 1237
2502 11 1235 1236 1238
2503 15 1235 1236 1239
2504 10 1237 1236 1238
2505 11 1237 1236 1239
2506 11 1238 1236 1239
2507 16 1236 1239 115
2508 17 12 1240 1220
2509 10 1242 1241 1243
2510 11 1242 1241 1244
2511 12 1242 1241 1261
2512 11 1243 1241 1244
2513 12 1243 1241 1261
2514 13 1244 1241 1261
2515 14 1241 1244 1245
2516 11 1244 1245 1246
2517 11 1244 1245 1247
2518 15 1244 1245 1248
2519 10 1246 1245 1247
2520 11 1246 1245 1248
2521 11 1247 1245 1248
2522 14 1245 1248 1249
2523 11 1248 1249 1250
2524 11 1248 1249 1251
2525 15 1248 1249 1252
2526 10 1250 1249 1251
2527 11 1250 1249 1252
2528 11 1251 1249 1252
2529 14 1249 1252 1253
2530 11 1252 1253 1254
2531 11 1252 1253 1255
2532 15 1252 1253 1256
2533 10 1254 1253 1255
2534 11 1254 1253 1256
2535 11 1255 1253 1256
2536 14 1253 1256 1257
2537 11 1256 1257 1258
2538 11 1256 1257 1259
2539 15 1256 1257 1260
2540 10 1258 1257 1259
2541 11 1258 1257 1260
2542 11 1259 1257 1260
2543 16 1257 1260 499
2544 17 12 1261 1241
2545 10 1263 1262 1264
2546 11 1263 1262 1265
2547 12 1263 1262 1282
2548 11 1264 1262 1265
2549 12 1264 1262 1282
2550 13 1265 1262 1282
2551 14 1262 1265 1266
2552 11 1265 1266 1267
2553 11 1265 1266 1268
2554 15 1265 1266 1269
2555 10 1267 1266 1268
2556 11 1267 1266 1269
2557 11 1268 1266 1269
2558 14 1266 1269 1270
2559 11 1269 1270 1271
2560 11 1269 1270 1272
2561 15 1269 1270 1273
2562 10 1271 1270 1272
2563 11 1271 1270 1273
2564 11 1272 1270 1273
2565 14 1270 1273 1274
2566 11 1273 1274 1275
2567 11 1273 1274 1276
2568 15 1273 1274 1277
2569 10 1275 1274 1276
2570 11 1275 1274 1277
2571 11 1276 1274 1277
2572 14 1274 1277 1278
2573 11 1277 1278 1279
2574 11 1277 1278 1280
2575 15 1277 1278 1281
2576 10 1279 1278 1280
2577 11 1279 1278 1281
2578 11 1280 1278 1281
2579 16 1278 1281 14
2580 17 13 1282 1262
2581 10 1284 1283 1285
2582 11 1284 1283 1286
2583 12 1284 1283 1303
2584 11 1285 1283 1286
2585 12 1285 1283 1303
2586 13 1286 1283 1303
2587 14 1283 1286 1287
2588 11 1286 1287 1288
2589 11 1286 1287 1289
2590 15 1286 1287 1290
2591 10 1288 1287 1289
2592 11 1288 1287 1290
2593 11 1289 1287 1290
2594 14 1287 1290 1291
2595 11 1290 1291 1292
2596 11 1290 1291 1293
2597 15 1290 1291 1294
2598 10 1292 1291 1293
2599 11 1292 1291 1294
2600 11 1293 1291 1294
2601 14 1291 1294 1295
2602 11 1294 1295 1296
2603 11 1294 1295 1297
2604 15 1294 1295 1298
2605 10 1296 1295 1297
2606 11 1296 1295 1298
2607 11 1297 1295 1298
2608 14 1295 1298 1299
2609 11 1298 1299 1300
2610 11 1298 1299 1301
2611 15 1298 1299 1302
2612 10 1300 1299 1301
2613 11 1300 1299 1302
2614 11 1301 1299 1302
2615 16 1299 1302 96
2616 17 13 1303 1283
2617 10 1305 1304 1306
2618 11 1305 1304 1307
2619 12 1305 1304 1324
2620 11 1306 1304 1307
2621 12 1306 1304 1324
2622 13 1307 1304 1324
2623 14 1304 1307 1308
2624 11 1307 1308 1309
2625 11 1307 1308 1310
2626 15 1307 1308 1311
2627 10 1309 1308 1310
2628 11 1309 1308 1311
2629 11 1310 1308 1311
2630 14 1308 1311 1312
2631 11 1311 1312 1313
2632 11 1311 1312 1314
2633 15 1311 1312 1315
2634 10 1313 1312 1314
2635 11 1313 1312 1315
2636 11 1314 1312 1315
2637 14 1312 1315 1316
2638 11 1315 1316 1317
2639 11 1315 1316 1318
2640 15 1315 1316 1319
2641 10 1317 1316 1318
2642 11 1317 1316 1319
2643 11 1318 1316 1319
2644 14 1316 1319 1320
2645 11 1319 1320 1321
2646 11 1319 1320 1322
2647 15 1319 1320 1323
2648 10 1321 1320 1322
2649 11 1321 1320 1323
2650 11 1322 1320 1323
2651 16 1320 1323 500
2652 17 13 1324 1304
2653 10 1326 1325 1327
2654 11 1326 1325 1328
2655 12 1326 1325 1345
2656 11 1327 1325 1328
2657 12 1327 1325 1345
2658 13 1328 1325 1345
2659 14 1325 1328 1329
2660 11 1328 1329 1330
2661 11 1328 1329 1331
2662 15 1328 1329 1332
2663 10 1330 1329 1331
2664 11 1330 1329 1332
2665 11 1331 1329 1332
2666 14 1329 1332 1333
2667 11 1332 1333 1334
2668 11 1332 1333 1335
2669 15 1332 1333 1336
2670 10 1334 1333 1335
2671 11 1334 1333 1336
2672 11 1335 1333 1336
2673 14 1333 1336 1337
2674 11 1336 1337 1338
2675 11 1336 1337 1339
2676 15 1336 1337 1340
2677 10 1338 1337 1339
2678 11 1338 1337 1340
2679 11 1339 1337 1340
2680 14 1337 1340 1341
2681 11 1340 1341 1342
2682 11 1340 1341 1343
2683 15 1340 1341 1344
2684 10 1342 1341 1343
2685 11 1342 1341 1344
2686 11 1343 1341 1344
2687 16 1341 1344 97
2688 17 14 1345 1325
2689 10 1347 1346 1348
2690 11 1347 1346 1349
2691 12 1347 1346 1366
2692 11 1348 1346 1349
2693 12 1348 1346 1366
2694 13 1349 1346 1366
2695 14 1346 1349 1350
2696 11 1349 1350 1351
2697 11 1349 1350 1352
2698 15 1349 1350 1353
2699 10 1351 1350 1352
2700 11 1351 1350 1353
2701 11 1352 1350 1353
2702 14 1350 1353 1354
2703 11 1353 1354 1355
2704 11 1353 1354 1356
2705 15 1353 1354 1357
2706 10 1355 1354 1356
2707 11 1355 1354 1357
2708 11 1356 1354 1357
2709 14 1354 1357 1358
2710 11 1357 1358 1359
2711 11 1357 1358 1360
2712 15 1357 1358 1361
2713 10 1359 1358 1360
2714 11 1359 1358 1361
2715 11 1360 1358 1361
2716 14 1358 1361 1362
2717 11 1361 1362 1363
2718 11 1361 1362 1364
2719 15 1361 1362 1365
2720 10 1363 1362 1364
2721 11 1363 1362 1365
2722 11 1364 1362 1365
2723 16 1362 1365 98
2724 17 15 1366 1346
2725 10 1368 1367 1369
2726 11 1368 1367 1370
2727 12 1368 1367 1387
2728 11 1369 1367 1370
2729 12 1369 1367 1387
2730 13 1370 1367 1387
2731 14 1367 1370 1371
2732 11 1370 1371 1372
2733 11 1370 1371 1373
2734 15 1370 1371 1374
2735 10 1372 1371 1373
2736 11 1372 1371 1374
2737 11 1373 1371 1374
2738 14 1371 1374 1375
2739 11 1374 1375 1376
2740 11 1374 1375 1377
2741 15 1374 1375 1378
2742 10 1376 1375 1377
2743 11 1376 1375 1378
2744 11 1377 1375 1378
2745 14 1375 1378 1379
2746 11 1378 1379 1380
2747 11 1378 1379 1381
2748 15 1378 1379 1382
2749 10 1380 1379 1381
2750 11 1380 1379 1382
2751 11 1381 1379 1382
2752 14 1379 1382 1383
2753 11 1382 1383 1384
2754 11 1382 1383 1385
2755 15 1382 1383 1386
2756 10 1384 1383 1385
2757 11 1384 1383 1386
2758 11 1385 1383 1386
2759 16 1383 1386 118
2760 17 15 1387 1367
2761 10 1389 1388 1390
2762 11 1389 1388 1391
2763 12 1389 1388 1408
2764 11 1390 1388 1391
2765 12 1390 1388 1408
2766 13 1391 1388 1408
2767 14 1388 1391 1392
2768 11 1391 1392 1393
2769 11 1391 1392 1394
2770 15 1391 1392 1395
2771 10 1393 1392 1394
2772 11 1393 1392 1395
2773 11 1394 1392 1395
2774 14 1392 1395 1396
2775 11 1395 1396 1397
2776 11 1395 1396 1398
2777 15 1395 1396 1399
2778 10 1397 1396 1398
2779 11 1397 1396 1399
2780 11 1398 1396 1399
2781 14 1396 1399 1400
2782 11 1399 1400 1401
2783 11 1399 1400 1402
2784 15 1399 1400 1403
2785 10 1401 1400 1402
2786 11 1401 1400 1403
2787 11 1402 1400 1403
2788 14 1400 1403 1404
2789 11 1403 1404 1405
2790 11 1403 1404 1406
2791 15 1403 1404 1407
2792 10 1405 1404 1406
2793 11 1405 1404 1407
2794 11 1406 1404 1407
2795 16 1404 1407 97
2796 17 15 1408 1388
2797 10 1410 1409 1411
2798 11 1410 1409 1412
2799 12 1410 1409 1429
2800 11 1411 1409 1412
2801 12 1411 1409 1429
2802 13 1412 1409 1429
2803 14 1409 1412 1413
2804 11 1412 1413 1414
2805 11 1412 1413 1415
2806 15 1412 1413 1416
2807 10 1414 1413 1415
2808 11 1414 1413 1416
2809 11 1415 1413 1416
2810 14 1413 1416 1417
2811 11 1416 1417 1418
2812 11 1416 1417 1419
2813 15 1416 1417 1420
2814 10 1418 1417 1419
2815 11 1418 1417 1420
2816 11 1419 1417 1420
2817 14 1417 1420 1421
2818 11 1420 1421 1422
2819 11 1420 1421 1423
2820 15 1420 1421 1424
2821 10 1422 1421 1423
2822 11 1422 1421 1424
2823 11 1423 1421 1424
2824 14 1421 1424 1425
2825 11 1424 1425 1426
2826 11 1424 1425 1427
2827 15 1424 1425 1428
2828 10 1426 1425 1427
2829 11 1426 1425 1428
2830 11 1427 1425 1428
2831 16 1425 1428 99
2832 17 16 1429 1409
2833 10 1431 1430 1432
2834 11 1431 1430 1433
2835 12 1431 1430 1450
2836 11 1432 1430 1433
2837 12 1432 1430 1450
2838 13 1433 1430 1450
2839 14 1430 1433 1434
2840 11 1433 1434 1435
2841 11 1433 1434 1436
2842 15 1433 1434 1437
2843 10 1435 1434 1436
2844 11 1435 1434 1437
2845 11 1436 1434 1437
2846 14 1434 1437 1438
2847 11 1437 1438 1439
2848 11 1437 1438 1440
2849 15 1437 1438 1441
2850 10 1439 1438 1440
2851 11 1439 1438 1441
2852 11 1440 1438 1441
2853 14 1438 1441 1442
2854 11 1441 1442 1443
2855 11 1441 1442 1444
2856 15 1441 1442 1445
2857 10 1443 1442 1444
2858 11 1443 1442 1445
2859 11 1444 1442 1445
2860 14 1442 1445 1446
2861 11 1445 1446 1447
2862 11 1445 1446 1448
2863 15 1445 1446 1449
2864 10 1447 1446 1448
2865 11 1447 1446 1449
2866 11 1448 1446 1449
2867 16 1446 1449 581
2868 17 16 1450 1430
2869 10 1452 1451 1453
2870 11 1452 1451 1454
2871 10 1452 1451 39
2872 11 1453 1451 1454
2873 10 1453 1451 39
2874 11 1454 1451 39
2875 14 1451 1454 1455
2876 11 1454 1455 1456
2877 11 1454 1455 1457
2878 15 1454 1455 1458
2879 10 1456 1455 1457
2880 11 1456 1455 1458
2881 11 1457 1455 1458
2882 14 1455 1458 1459
2883 11 1458 1459 1460
2884 11 1458 1459 1461
2885 15 1458 1459 1462
2886 10 1460 1459 1461
2887 11 1460 1459 1462
2888 11 1461 1459 1462
2889 14 1459 1462 1463
2890 11 1462 1463 1464
2891 11 1462 1463 1465
2892 15 1462 1463 1466
2893 10 1464 1463 1465
2894 11 1464 1463 1466
2895 11 1465 1463 1466
2896 14 1463 1466 1467
2897 11 1466 1467 1468
2898 11 1466 1467 1469
2899 15 1466 1467 1470
2900 10 1468 1467 1469
2901 11 1468 1467 1470
2902 11 1469 1467 1470
2903 16 1467 1470 119
2904 10 1472 1471 1473
2905 11 1472 1471 1474
2906 12 1472 1471 1491
2907 11 1473 1471 1474
2908 12 1473 1471 1491
2909 13 1474 1471 1491
2910 14 1471 1474 1475
2911 11 1474 1475 1476
2912 11 1474 1475 1477
2913 15 1474 1475 1478
2914 10 1476 1475 1477
2915 11 1476 1475 1478
2916 11 1477 1475 1478
2917 14 1475 1478 1479
2918 11 1478 1479 1480
2919 11 1478 1479 1481
2920 15 1478 1479 1482
2921 10 1480 1479 1481
2922 11 1480 1479 1482
2923 11 1481 1479 1482
2924 14 1479 1482 1483
2925 11 1482 1483 1484
2926 11 1482 1483 1485
2927 15 1482 1483 1486
2928 10 1484 1483 1485
2929 11 1484 1483 1486
2930 11 1485 1483 1486
2931 14 1483 1486 1487
2932 11 1486 1487 1488
2933 11 1486 1487 1489
2934 15 1486 1487 1490
2935 10 1488 1487 1489
2936 11 1488 1487 1490
2937 11 1489 1487 1490
2938 16 1487 1490 101
2939 17 96 1491 1471
2940 10 1493 1492 1494
2941 11 1493 1492 1495
2942 12 1493 1492 1512
2943 11 1494 1492 1495
2944 12 1494 1492 1512
2945 13 1495 1492 1512
2946 14 1492 1495 1496
2947 11 1495 1496 1497
2948 11 1495 1496 1498
2949 15 1495 1496 1499
2950 10 1497 1496 1498
2951 11 1497 1496 1499
2952 11 1498 1496 1499
2953 14 1496 1499 1500
2954 11 1499 1500 1501
2955 11 1499 1500 1502
2956 15 1499 1500 1503
2957 10 1501 1500 1502
2958 11 1501 1500 1503
2959 11 1502 1500 1503
2960 14 1500 1503 1504
2961 11 1503 1504 1505
2962 11 1503 1504 1506
2963 15 1503 1504 1507
2964 10 1505 1504 1506
2965 11 1505 1504 1507
2966 11 1506 1504 1507
2967 14 1504 1507 1508
2968 11 1507 1508 1509
2969 11 1507 1508 1510
2970 15 1507 1508 1511
2971 10 1509 1508 1510
2972 11 1509 1508 1511
2973 11 1510 1508 1511
2974 16 1508 1511 583
2975 17 96 1512 1492
2976 10 1514 1513 1515
2977 11 1514 1513 1516
2978 12 1514 1513 1533
2979 11 1515 1513 1516
2980 12 1515 1513 1533
2981 13 1516 1513 1533
2982 14 1513 1516 1517
2983 11 1516 1517 1518
2984 11 1516 1517 1519
2985 15 1516 1517 1520
2986 10 1518 1517 1519
2987 11 1518 1517 1520
2988 11 1519 1517 1520
2989 14 1517 1520 1521
2990 11 1520 1521 1522
2991 11 1520 1521 1523
2992 15 1520 1521 1524
2993 10 1522 1521 1523
2994 11 1522 1521 1524
2995 11 1523 1521 1524
2996 14 1521 1524 1525
2997 11 1524 1525 1526
2998 11 1524 1525 1527
2999 15 1524 1525 1528
3000 10 1526 1525 1527
3001 11 1526 1525 1528
3002 11 1527 1525 1528
3003 14 1525 1528 1529
3004 11 1528 1529 1530
3005 11 1528 1529 1531
3006 15 1528 1529 1532
3007 10 1530 1529 1531
3008 11 1530 1529 1532
3009 11 1531 1529 1532
3010 16 1529 1532 102
3011 17 97 1533 1513
3012 10 1535 1534 1536
3013 11 1535 1534 1537
3014 12 1535 1534 1554
3015 11 1536 1534 1537
3016 12 1536 1534 1554
3017 13 1537 1534 1554
3018 14 1534 1537 1538
3019 11 1537 1538 1539
3020 11 1537 1538 1540
3021 15 1537 1538 1541
3022 10 1539 1538 1540
3023 11 1539 1538 1541
3024 11 1540 1538 1541
3025 14 1538 1541 1542
3026 11 1541 1542 1543
3027 11 1541 1542 1544
3028 15 1541 1542 1545
3029 10 1543 1542 1544
3030 11 1543 1542 1545
3031 11 1544 1542 1545
3032 14 1542 1545 1546
3033 11 1545 1546 1547
3034 11 1545 1546 1548
3035 15 1545 1546 1549
3036 10 1547 1546 1548
3037 11 1547 1546 1549
3038 11 1548 1546 1549
3039 14 1546 1549 1550
3040 11 1549 1550 1551
3041 11 1549 1550 1552
3042 15 1549 1550 1553
3043 10 1551 1550 1552
3044 11 1551 1550 1553
3045 11 1552 1550 1553
3046 16 1550 1553 584
3047 17 97 1554 1534
3048 10 1556 1555 1557
3049 11 1556 1555 1558
3050 12 1556 1555 1575
3051 11 1557 1555 1558
3052 12 1557 1555 1575
3053 13 1558 1555 1575
3054 14 1555 1558 1559
3055 11 1558 1559 1560
3056 11 1558 1559 1561
3057 15 1558 1559 1562
3058 10 1560 1559 1561
3059 11 1560 1559 1562
3060 11 1561 1559 1562
3061 14 1559 1562 1563
3062 11 1562 1563 1564
3063 11 1562 1563 1565
3064 15 1562 1563 1566
3065 10 1564 1563 1565
3066 11 1564 1563 1566
3067 11 1565 1563 1566
3068 14 1563 1566 1567
3069 11 1566 1567 1568
3070 11 1566 1567 1569
3071 15 1566 1567 1570
3072 10 1568 1567 1569
3073 11 1568 1567 1570
3074 11 1569 1567 1570
3075 14 1567 1570 1571
3076 11 1570 1571 1572
3077 11 1570 1571 1573
3078 15 1570 1571 1574
3079 10 1572 1571 1573
3080 11 1572 1571 1574
3081 11 1573 1571 1574
3082 16 1571 1574 99
3083 17 98 1575 1555
3084 10 1577 1576 1578
3085 11 1577 1576 1579
3086 12 1577 1576 1596
3087 11 1578 1576 1579
3088 12 1578 1576 1596
3089 13 1579 1576 1596
3090 14 1576 1579 1580
3091 11 1579 1580 1581
3092 11 1579 1580 1582
3093 15 1579 1580 1583
3094 10 1581 1580 1582
3095 11 1581 1580 1583
3096 11 1582 1580 1583
3097 14 1580 1583 1584
3098 11 1583 1584 1585
3099 11 1583 1584 1586
3100 15 1583 1584 1587
3101 10 1585 1584 1586
3102 11 1585 1584 1587
3103 11 1586 1584 1587
3104 14 1584 1587 1588
3105 11 1587 1588 1589
3106 11 1587 1588 1590
3107 15 1587 1588 1591
3108 10 1589 1588 1590
3109 11 1589 1588 1591
3110 11 1590 1588 1591
3111 14 1588 1591 1592
3112 11 1591 1592 1593
3113 11 1591 1592 1594
3114 15 1591 1592 1595
3115 10 1593 1592 1594
3116 11 1593 1592 1595
3117 11 1594 1592 1595
3118 16 1592 1595 102
3119 17 98 1596 1576
3120 10 1598 1597 1599
3121 11 1598 1597 1600
3122 12 1598 1597 1617
3123 11 1599 1597 1600
3124 12 1599 1597 1617
3125 13 1600 1597 1617
3126 14 1597 1600 1601
3127 11 1600 1601 1602
3128 11 1600 1601 1603
3129 15 1600 1601 1604
3130 10 1602 1601 1603
3131 11 1602 1601 1604
3132 11 1603 1601 1604
3133 14 1601 1604 1605
3134 11 1604 1605 1606
3135 11 1604 1605 1607
3136 15 1604 1605 1608
3137 10 1606 1605 1607
3138 11 1606 1605 1608
3139 11 1607 1605 1608
3140 14 1605 1608 1609
3141 11 1608 1609 1610
3142 11 1608 1609 1611
3143 15 1608 1609 1612
3144 10 1610 1609 1611
3145 11 1610 1609 1612
3146 11 1611 1609 1612
3147 14 1609 1612 1613
3148 11 1612 1613 1614
3149 11 1612 1613 1615
3150 15 1612 1613 1616
3151 10 1614 1613 1615
3152 11 1614 1613 1616
3153 11 1615 1613 1616
3154 16 1613 1616 123
3155 17 99 1617 1597
3156 10 1619 1618 1620
3157 11 1619 1618 1621
3158 12 1619 1618 1638
3159 11 1620 1618 1621
3160 12 1620 1618 1638
3161 13 1621 1618 1638
3162 14 1618 1621 1622
3163 11 1621 1622 1623
3164 11 1621 1622 1624
3165 15 1621 1622 1625
3166 10 1623 1622 1624
3167 11 1623 1622 1625
3168 11 1624 1622 1625
3169 14 1622 1625 1626
3170 11 1625 1626 1627
3171 11 1625 1626 1628
3172 15 1625 1626 1629
3173 10 1627 1626 1628
3174 11 1627 1626 1629
3175 11 1628 1626 1629
3176 14 1626 1629 1630
3177 11 1629 1630 1631
3178 11 1629 1630 1632
3179 15 1629 1630 1633
3180 10 1631 1630 1632
3181 11 1631 1630 1633
3182 11 1632 1630 1633
3183 14 1630 1633 1634
3184 11 1633 1634 1635
3185 11 1633 1634 1636
3186 15 1633 1634 1637
3187 10 1635 1634 1636
3188 11 1635 1634 1637
3189 11 1636 1634 1637
3190 16 1634 1637 101
3191 17 100 1638 1618
3192 10 1640 1639 1641
3193 11 1640 1639 1642
3194 12 1640 1639 1659
3195 11 1641 1639 1642
3196 12 1641 1639 1659
3197 13 1642 1639 1659
3198 14 1639 1642 1643
3199 11 1642 1643 1644
3200 11 1642 1643 1645
3201 15 1642 1643 1646
3202 10 1644 1643 1645
3203 11 1644 1643 1646
3204 11 1645 1643 1646
3205 14 1643 1646 1647
3206 11 1646 1647 1648
3207 11 1646 1647 1649
3208 15 1646 1647 1650
3209 10 1648 1647 1649
3210 11 1648 1647 1650
3211 11 1649 1647 1650
3212 14 1647 1650 1651
3213 11 1650 1651 1652
3214 11 1650 1651 1653
3215 15 1650 1651 1654
3216 10 1652 1651 1653
3217 11 1652 1651 1654
3218 11 1653 1651 1654
3219 14 1651 1654 1655
3220 11 1654 1655 1656
3221 11 1654 1655 1657
3222 15 1654 1655 1658
3223 10 1656 1655 1657
3224 11 1656 1655 1658
3225 11 1657 1655 1658
3226 18 1655 1658 146
3227 17 100 1659 1639
3228 10 1661 1660 1662
3229 11 1661 1660 1663
3230 12 1661 1660 1680
3231 11 1662 1660 1663
3232 12 1662 1660 1680
3233 13 1663 1660 1680
3234 14 1660 1663 1664
3235 11 1663 1664 1665
3236 11 1663 1664 1666
3237 15 1663 1664 1667
3238 10 1665 1664 1666
3239 11 1665 1664 1667
3240 11 1666 1664 1667
3241 14 1664 1667 1668
3242 11 1667 1668 1669
3243 11 1667 1668 1670
3244 15 1667 1668 1671
3245 10 1669 1668 1670
3246 11 1669 1668 1671
3247 11 1670 1668 1671
3248 14 1668 1671 1672
3249 11 1671 1672 1673
3250 11 1671 1672 1674
3251 15 1671 1672 1675
3252 10 1673 1672 1674
3253 11 1673 1672 1675
3254 11 1674 1672 1675
3255 14 1672 1675 1676
3256 11 1675 1676 1677
3257 11 1675 1676 1678
3258 15 1675 1676 1679
3259 10 1677 1676 1678
3260 11 1677 1676 1679
3261 11 1678 1676 1679
3262 16 1676 1679 102
3263 17 101 1680 1660
3264 10 1682 1681 1683
3265 11 1682 1681 1684
3266 12 1682 1681 1701
3267 11 1683 1681 1684
3268 12 1683 1681 1701
3269 13 1684 1681 1701
3270 14 1681 1684 1685
3271 11 1684 1685 1686
3272 11 1684 1685 1687
3273 15 1684 1685 1688
3274 10 1686 1685 1687
3275 11 1686 1685 1688
3276 11 1687 1685 1688
3277 14 1685 1688 1689
3278 11 1688 1689 1690
3279 11 1688 1689 1691
3280 15 1688 1689 1692
3281 10 1690 1689 1691
3282 11 1690 1689 1692
3283 11 1691 1689 1692
3284 14 1689 1692 1693
3285 11 1692 1693 1694
3286 11 1692 1693 1695
3287 15 1692 1693 1696
3288 10 1694 1693 1695
3289 11 1694 1693 1696
3290 11 1695 1693 1696
3291 14 1693 1696 1697
3292 11 1696 1697 1698
3293 11 1696 1697 1699
3294 15 1696 1697 1700
3295 10 1698 1697 1699
3296 11 1698 1697 1700
3297 11 1699 1697 1700
3298 16 1697 1700 203
3299 17 101 1701 1681
3300 10 1703 1702 1704
3301 11 1703 1702 1705
3302 12 1703 1702 1722
3303 11 1704 1702 1705
3304 12 1704 1702 1722
3305 13 1705 1702 1722
3306 14 1702 1705 1706
3307 11 1705 1706 1707
3308 11 1705 1706 1708
3309 15 1705 1706 1709
3310 10 1707 1706 1708
3311 11 1707 1706 1709
3312 11 1708 1706 1709
3313 14 1706 1709 1710
3314 11 1709 1710 1711
3315 11 1709 1710 1712
3316 15 1709 1710 1713
3317 10 1711 1710 1712
3318 11 1711 1710 1713
3319 11 1712 1710 1713
3320 14 1710 1713 1714
3321 11 1713 1714 1715
3322 11 1713 1714 1716
3323 15 1713 1714 1717
3324 10 1715 1714 1716
3325 11 1715 1714 1717
3326 11 1716 1714 1717
3327 14 1714 1717 1718
3328 11 1717 1718 1719
3329 11 1717 1718 1720
3330 15 1717 1718 1721
3331 10 1719 1718 1720
3332 11 1719 1718 1721
3333 11 1720 1718 1721
3334 16 1718 1721 589
3335 17 102 1722 1702
3336 10 1724 1723 1725
3337 11 1724 1723 1726
3338 12 1724 1723 1743
3339 11 1725 1723 1726
3340 12 1725 1723 1743
3341 13 1726 1723 1743
3342 14 1723 1726 1727
3343 11 1726 1727 1728
3344 11 1726 1727 1729
3345 15 1726 1727 1730
3346 10 1728 1727 1729
3347 11 1728 1727 1730
3348 11 1729 1727 1730
3349 14 1727 1730 1731
3350 11 1730 1731 1732
3351 11 1730 1731 1733
3352 15 1730 1731 1734
3353 10 1732 1731 1733
3354 11 1732 1731 1734
3355 11 1733 1731 1734
3356 14 1731 1734 1735
3357 11 1734 1735 1736
3358 11 1734 1735 1737
3359 15 1734 1735 1738
3360 10 1736 1735 1737
3361 11 1736 1735 1738
3362 11 1737 1735 1738
3363 14 1735 1738 1739
3364 11 1738 1739 1740
3365 11 1738 1739 1741
3366 15 1738 1739 1742
3367 10 1740 1739 1741
3368 11 1740 1739 1742
3369 11 1741 1739 1742
3370 18 1739 1742 227
3371 17 103 1743 1723
3372 10 1745 1744 1746
3373 11 1745 1744 1747
3374 12 1745 1744 1764
3375 11 1746 1744 1747
3376 12 1746 1744 1764
3377 13 1747 1744 1764
3378 14 1744 1747 1748
3379 11 1747 1748 1749
3380 11 1747 1748 1750
3381 15 1747 1748 1751
3382 10 1749 1748 1750
3383 11 1749 1748 1751
3384 11 1750 1748 1751
3385 14 1748 1751 1752
3386 11 1751 1752 1753
3387 11 1751 1752 1754
3388 15 1751 1752 1755
3389 10 1753 1752 1754
3390 11 1753 1752 1755
3391 11 1754 1752 1755
3392 14 1752 1755 1756
3393 11 1755 1756 1757
3394 11 1755 1756 1758
3395 15 1755 1756 1759
3396 10 1757 1756 1758
3397 11 1757 1756 1759
3398 11 1758 1756 1759
3399 14 1756 1759 1760
3400 11 1759 1760 1761
3401 11 1759 1760 1762
3402 15 1759 1760 1763
3403 10 1761 1760 1762
3404 11 1761 1760 1763
3405 11 1762 1760 1763
3406 16 1760 1763 107
3407 17 103 1764 1744
3408 10 1766 1765 1767
3409 11 1766 1765 1768
3410 12 1766 1765 1785
3411 11 1767 1765 1768
3412 12 1767 1765 1785
3413 13 1768 1765 1785
3414 14 1765 1768 1769
3415 11 1768 1769 1770
3416 11 1768 1769 1771
3417 15 1768 1769 1772
3418 10 1770 1769 1771
3419 11 1770 1769 1772
3420 11 1771 1769 1772
3421 14 1769 1772 1773
3422 11 1772 1773 1774
3423 11 1772 1773 1775
3424 15 1772 1773 1776
3425 10 1774 1773 1775
3426 11 1774 1773 1776
3427 11 1775 1773 1776
3428 14 1773 1776 1777
3429 11 1776 1777 1778
3430 11 1776 1777 1779
3431 15 1776 1777 1780
3432 10 1778 1777 1779
3433 11 1778 1777 1780
3434 11 1779 1777 1780
3435 14 1777 1780 1781
3436 11 1780 1781 1782
3437 11 1780 1781 1783
3438 15 1780 1781 1784
3439 10 1782 1781 1783
3440 11 1782 1781 1784
3441 11 1783 1781 1784
3442 16 1781 1784 122
3443 17 103 1785 1765
3444 10 1787 1786 1788
3445 11 1787 1786 1789
3446 12 1787 1786 1806
3447 11 1788 1786 1789
3448 12 1788 1786 1806
3449 13 1789 1786 1806
3450 14 1786 1789 1790
3451 11 1789 1790 1791
3452 11 1789 1790 1792
3453 15 1789 1790 1793
3454 10 1791 1790 1792
3455 11 1791 1790 1793
3456 11 1792 1790 1793
3457 14 1790 1793 1794
3458 11 1793 1794 1795
3459 11 1793 1794 1796
3460 15 1793 1794 1797
3461 10 1795 1794 1796
3462 11 1795 1794 1797
3463 11 1796 1794 1797
3464 14 1794 1797 1798
3465 11 1797 1798 1799
3466 11 1797 1798 1800
3467 15 1797 1798 1801
3468 10 1799 1798 1800
3469 11 1799 1798 1801
3470 11 1800 1798 1801
3471 14 1798 1801 1802
3472 11 1801 1802 1803
3473 11 1801 1802 1804
3474 15 1801 1802 1805
3475 10 1803 1802 1804
3476 11 1803 1802 1805
3477 11 1804 1802 1805
3478 16 1802 1805 105
3479 17 104 1806 1786
3480 10 1808 1807 1809
3481 11 1808 1807 1810
3482 12 1808 1807 1827
3483 11 1809 1807 1810
3484 12 1809 1807 1827
3485 13 1810 1807 1827
3486 14 1807 1810 1811
3487 11 1810 1811 1812
3488 11 1810 1811 1813
3489 15 1810 1811 1814
3490 10 1812 1811 1813
3491 11 1812 1811 1814
3492 11 1813 1811 1814
3493 14 1811 1814 1815
3494 11 1814 1815 1816
3495 11 1814 1815 1817
3496 15 1814 1815 1818
3497 10 1816 1815 1817
3498 11 1816 1815 1818
3499 11 1817 1815 1818
3500 14 1815 1818 1819
3501 11 1818 1819 1820
3502 11 1818 1819 1821
3503 15 1818 1819 1822
3504 10 1820 1819 1821
3505 11 1820 1819 1822
3506 11 1821 1819 1822
3507 14 1819 1822 1823
3508 11 1822 1823 1824
3509 11 1822 1823 1825
3510 15 1822 1823 1826
3511 10 1824 1823 1825
3512 11 1824 1823 1826
3513 11 1825 1823 1826
3514 16 1823 1826 109
3515 17 104 1827 1807
3516 10 1829 1828 1830
3517 11 1829 1828 1831
3518 12 1829 1828 1848
3519 11 1830 1828 1831
3520 12 1830 1828 1848
3521 13 1831 1828 1848
3522 14 1828 1831 1832
3523 11 1831 1832 1833
3524 11 1831 1832 1834
3525 15 1831 1832 1835
3526 10 1833 1832 1834
3527 11 1833 1832 1835
3528 11 1834 1832 1835
3529 14 1832 1835 1836
3530 11 1835 1836 1837
3531 11 1835 1836 1838
3532 15 1835 1836 1839
3533 10 1837 1836 1838
3534 11 1837 1836 1839
3535 11 1838 1836 1839
3536 14 1836 1839 1840
3537 11 1839 1840 1841
3538 11 1839 1840 1842
3539 15 1839 1840 1843
3540 10 1841 1840 1842
3541 11 1841 1840 1843
3542 11 1842 1840 1843
3543 14 1840 1843 1844
3544 11 1843 1844 1845
3545 11 1843 1844 1846
3546 15 1843 1844 1847
3547 10 1845 1844 1846
3548 11 1845 1844 1847
3549 11 1846 1844 1847
3550 16 1844 1847 123
3551 17 104 1848 1828
3552 10 1850 1849 1851
3553 11 1850 1849 1852
3554 12 1850 1849 1869
3555 11 1851 1849 1852
3556 12 1851 1849 1869
3557 13 1852 1849 1869
3558 14 1849 1852 1853
3559 11 1852 1853 1854
3560 11 1852 1853 1855
3561 15 1852 1853 1856
3562 10 1854 1853 1855
3563 11 1854 1853 1856
3564 11 1855 1853 1856
3565 14 1853 1856 1857
3566 11 1856 1857 1858
3567 11 1856 1857 1859
3568 15 1856 1857 1860
3569 10 1858 1857 1859
3570 11 1858 1857 1860
3571 11 1859 1857 1860
3572 14 1857 1860 1861
3573 11 1860 1861 1862
3574 11 1860 1861 1863
3575 15 1860 1861 1864
3576 10 1862 1861 1863
3577 11 1862 1861 1864
3578 11 1863 1861 1864
3579 14 1861 1864 1865
3580 11 1864 1865 1866
3581 11 1864 1865 1867
3582 15 1864 1865 1868
3583 10 1866 1865 1867
3584 11 1866 1865 1868
3585 11 1867 1865 1868
3586 16 1865 1868 110
3587 17 105 1869 1849
3588 10 1871 1870 1872
3589 11 1871 1870 1873
3590 12 1871 1870 1890
3591 11 1872 1870 1873
3592 12 1872 1870 1890
3593 13 1873 1870 1890
3594 14 1870 1873 1874
3595 11 1873 1874 1875
3596 11 1873 1874 1876
3597 15 1873 1874 1877
3598 10 1875 1874 1876
3599 11 1875 1874 1877
3600 11 1876 1874 1877
3601 14 1874 1877 1878
3602 11 1877 1878 1879
3603 11 1877 1878 1880
3604 15 1877 1878 1881
3605 10 1879 1878 1880
3606 11 1879 1878 1881
3607 11 1880 1878 1881
3608 14 1878 1881 1882
3609 11 1881 1882 1883
3610 11 1881 1882 1884
3611 15 1881 1882 1885
3612 10 1883 1882 1884
3613 11 1883 1882 1885
3614 11 1884 1882 1885
3615 14 1882 1885 1886
3616 11 1885 1886 1887
3617 11 1885 1886 1888
3618 15 1885 1886 1889
3619 10 1887 1886 1888
3620 11 1887 1886 1889
3621 11 1888 1886 1889
3622 16 1886 1889 284
3623 17 105 1890 1870
3624 10 1892 1891 1893
3625 11 1892 1891 1894
3626 12 1892 1891 1911
3627 11 1893 1891 1894
3628 12 1893 1891 1911
3629 13 1894 1891 1911
3630 14 1891 1894 1895
3631 11 1894 1895 1896
3632 11 1894 1895 1897
3633 15 1894 1895 1898
3634 10 1896 1895 1897
3635 11 1896 1895 1898
3636 11 1897 1895 1898
3637 14 1895 1898 1899
3638 11 1898 1899 1900
3639 11 1898 1899 1901
3640 15 1898 1899 1902
3641 10 1900 1899 1901
3642 11 1900 1899 1902
3643 11 1901 1899 1902
3644 14 1899 1902 1903
3645 11 1902 1903 1904
3646 11 1902 1903 1905
3647 15 1902 1903 1906
3648 10 1904 1903 1905
3649 11 1904 1903 1906
3650 11 1905 1903 1906
3651 14 1903 1906 1907
3652 11 1906 1907 1908
3653 11 1906 1907 1909
3654 15 1906 1907 1910
3655 10 1908 1907 1909
3656 11 1908 1907 1910
3657 11 1909 1907 1910
3658 16 1907 1910 107
3659 17 106 1911 1891
3660 10 1913 1912 1914
3661 11 1913 1912 1915
3662 12 1913 1912 1932
3663 11 1914 1912 1915
3664 12 1914 1912 1932
3665 13 1915 1912 1932
3666 14 1912 1915 1916
3667 11 1915 1916 1917
3668 11 1915 1916 1918
3669 15 1915 1916 1919
3670 10 1917 1916 1918
3671 11 1917 1916 1919
3672 11 1918 1916 1919
3673 14 1916 1919 1920
3674 11 1919 1920 1921
3675 11 1919 1920 1922
3676 15 1919 1920 1923
3677 10 1921 1920 1922
3678 11 1921 1920 1923
3679 11 1922 1920 1923
3680 14 1920 1923 1924
3681 11 1923 1924 1925
3682 11 1923 1924 1926
3683 15 1923 1924 1927
3684 10 1925 1924 1926
3685 11 1925 1924 1927
3686 11 1926 1924 1927
3687 14 1924 1927 1928
3688 11 1927 1928 1929
3689 11 1927 1928 1930
3690 15 1927 1928 1931
3691 10 1929 1928 1930
3692 11 1929 1928 1931
3693 11 1930 1928 1931
3694 16 1928 1931 111
3695 17 106 1932 1912
3696 10 1934 1933 1935
3697 11 1934 1933 1936
3698 12 1934 1933 1953
3699 11 1935 1933 1936
3700 12 1935 1933 1953
3701 13 1936 1933 1953
3702 14 1933 1936 1937
3703 11 1936 1937 1938
3704 11 1936 1937 1939
3705 15 1936 1937 1940
3706 10 1938 1937 1939
3707 11 1938 1937 1940
3708 11 1939 1937 1940
3709 14 1937 1940 1941
3710 11 1940 1941 1942
3711 11 1940 1941 1943
3712 15 1940 1941 1944
3713 10 1942 1941 1943
3714 11 1942 1941 1944
3715 11 1943 1941 1944
3716 14 1941 1944 1945
3717 11 1944 1945 1946
3718 11 1944 1945 1947
3719 15 1944 1945 1948
3720 10 1946 1945 1947
3721 11 1946 1945 1948
3722 11 1947 1945 1948
3723 14 1945 1948 1949
3724 11 1948 1949 1950
3725 11 1948 1949 1951
3726 15 1948 1949 1952
3727 10 1950 1949 1951
3728 11 1950 1949 1952
3729 11 1951 1949 1952
3730 16 1949 1952 203
3731 17 106 1953 1933
3732 10 1955 1954 1956
3733 11 1955 1954 1957
3734 12 1955 1954 1974
3735 11 1956 1954 1957
3736 12 1956 1954 1974
3737 13 1957 1954 1974
3738 14 1954 1957 1958
3739 11 1957 1958 1959
3740 11 1957 1958 1960
3741 15 1957 1958 1961
3742 10 1959 1958 1960
3743 11 1959 1958 1961
3744 11 1960 1958 1961
3745 14 1958 1961 1962
3746 11 1961 1962 1963
3747 11 1961 1962 1964
3748 15 1961 1962 1965
3749 10 1963 1962 1964
3750 11 1963 1962 1965
3751 11 1964 1962 1965
3752 14 1962 1965 1966
3753 11 1965 1966 1967
3754 11 1965 1966 1968
3755 15 1965 1966 1969
3756 10 1967 1966 1968
3757 11 1967 1966 1969
3758 11 1968 1966 1969
3759 14 1966 1969 1970
3760 11 1969 1970 1971
3761 11 1969 1970 1972
3762 15 1969 1970 1973
3763 10 1971 1970 1972
3764 11 1971 1970 1973
3765 11 1972 1970 1973
3766 16 1970 1973 286
3767 17 107 1974 1954
3768 10 1976 1975 1977
3769 11 1976 1975 1978
3770 12 1976 1975 1995
3771 11 1977 1975 1978
3772 12 1977 1975 1995
3773 13 1978 1975 1995
3774 14 1975 1978 1979
3775 11 1978 1979 1980
3776 11 1978 1979 1981
3777 15 1978 1979 1982
3778 10 1980 1979 1981
3779 11 1980 1979 1982
3780 11 1981 1979 1982
3781 14 1979 1982 1983
3782 11 1982 1983 1984
3783 11 1982 1983 1985
3784 15 1982 1983 1986
3785 10 1984 1983 1985
3786 11 1984 1983 1986
3787 11 1985 1983 1986
3788 14 1983 1986 1987
3789 11 1986 1987 1988
3790 11 1986 1987 1989
3791 15 1986 1987 1990
3792 10 1988 1987 1989
3793 11 1988 1987 1990
3794 11 1989 1987 1990
3795 14 1987 1990 1991
3796 11 1990 1991 1992
3797 11 1990 1991 1993
3798 15 1990 1991 1994
3799 10 1992 1991 1993
3800 11 1992 1991 1994
3801 11 1993 1991 1994
3802 16 1991 1994 109
3803 17 108 1995 1975
3804 10 1997 1996 1998
3805 11 1997 1996 1999
3806 12 1997 1996 2016
3807 11 1998 1996 1999
3808 12 1998 1996 2016
3809 13 1999 1996 2016
3810 14 1996 1999 2000
3811 11 1999 2000 2001
3812 11 1999 2000 2002
3813 15 1999 2000 2003
3814 10 2001 2000 2002
3815 11 2001 2000 2003
3816 11 2002 2000 2003
3817 14 2000 2003 2004
3818 11 2003 2004 2005
3819 11 2003 2004 2006
3820 15 2003 2004 2007
3821 10 2005 2004 2006
3822 11 2005 2004 2007
3823 11 2006 2004 2007
3824 14 2004 2007 2008
3825 11 2007 2008 2009
3826 11 2007 2008 2010
3827 15 2007 2008 2011
3828 10 2009 2008 2010
3829 11 2009 2008 2011
3830 11 2010 2008 2011
3831 14 2008 2011 2012
3832 11 2011 2012 2013
3833 11 2011 2012 2014
3834 15 2011 2012 2015
3835 10 2013 2012 2014
3836 11 2013 2012 2015
3837 11 2014 2012 2015
3838 16 2012 2015 113
3839 17 108 2016 1996
3840 10 2018 2017 2019
3841 11 2018 2017 2020
3842 12 2018 2017 2037
3843 11 2019 2017 2020
3844 12 2019 2017 2037
3845 13 2020 2017 2037
3846 14 2017 2020 2021
3847 11 2020 2021 2022
3848 11 2020 2021 2023
3849 15 2020 2021 2024
3850 10 2022 2021 2023
3851 11 2022 2021 2024
3852 11 2023 2021 2024
3853 14 2021 2024 2025
3854 11 2024 2025 2026
3855 11 2024 2025 2027
3856 15 2024 2025 2028
3857 10 2026 2025 2027
3858 11 2026 2025 2028
3859 11 2027 2025 2028
3860 14 2025 2028 2029
3861 11 2028 2029 2030
3862 11 2028 2029 2031
3863 15 2028 2029 2032
3864 10 2030 2029 2031
3865 11 2030 2029 2032
3866 11 2031 2029 2032
3867 14 2029 2032 2033
3868 11 2032 2033 2034
3869 11 2032 2033 2035
3870 15 2032 2033 2036
3871 10 2034 2033 2035
3872 11 2034 2033 2036
3873 11 2035 2033 2036
3874 16 2033 2036 114
3875 17 109 2037 2017
3876 10 2039 2038 2040
3877 11 2039 2038 2041
3878 12 2039 2038 2058
3879 11 2040 2038 2041
3880 12 2040 2038 2058
3881 13 2041 2038 2058
3882 14 2038 2041 2042
3883 11 2041 2042 2043
3884 11 2041 2042 2044
3885 15 2041 2042 2045
3886 10 2043 2042 2044
3887 11 2043 2042 2045
3888 11 2044 2042 2045
3889 14 2042 2045 2046
3890 11 2045 2046 2047
3891 11 2045 2046 2048
3892 15 2045 2046 2049
3893 10 2047 2046 2048
3894 11 2047 2046 2049
3895 11 2048 2046 2049
3896 14 2046 2049 2050
3897 11 2049 2050 2051
3898 11 2049 2050 2052
3899 15 2049 2050 2053
3900 10 2051 2050 2052
3901 11 2051 2050 2053
3902 11 2052 2050 2053
3903 14 2050 2053 2054
3904 11 2053 2054 2055
3905 11 2053 2054 2056
3906 15 2053 2054 2057
3907 10 2055 2054 2056
3908 11 2055 2054 2057
3909 11 2056 2054 2057
3910 16 2054 2057 288
3911 17 109 2058 2038
3912 10 2060 2059 2061
3913 11 2060 2059 2062
3914 12 2060 2059 2079
3915 11 2061 2059 2062
3916 12 2061 2059 2079
3917 13 2062 2059 2079
3918 14 2059 2062 2063
3919 11 2062 2063 2064
3920 11 2062 2063 2065
3921 15 2062 2063 2066
3922 10 2064 2063 2065
3923 11 2064 2063 2066
3924 11 2065 2063 2066
3925 14 2063 2066 2067
3926 11 2066 2067 2068
3927 11 2066 2067 2069
3928 15 2066 2067 2070
3929 10 2068 2067 2069
3930 11 2068 2067 2070
3931 11 2069 2067 2070
3932 14 2067 2070 2071
3933 11 2070 2071 2072
3934 11 2070 2071 2073
3935 15 2070 2071 2074
3936 10 2072 2071 2073
3937 11 2072 2071 2074
3938 11 2073 2071 2074
3939 14 2071 2074 2075
3940 11 2074 2075 2076
3941 11 2074 2075 2077
3942 15 2074 2075 2078
3943 10 2076 2075 2077
3944 11 2076 2075 2078
3945 11 2077 2075 2078
3946 16 2075 2078 115
3947 17 110 2079 2059
3948 10 2081 2080 2082
3949 11 2081 2080 2083
3950 12 2081 2080 2100
3951 11 2082 2080 2083
3952 12 2082 2080 2100
3953 13 2083 2080 2100
3954 14 2080 2083 2084
3955 11 2083 2084 2085
3956 11 2083 2084 2086
3957 15 2083 2084 2087
3958 10 2085 2084 2086
3959 11 2085 2084 2087
3960 11 2086 2084 2087
3961 14 2084 2087 2088
3962 11 2087 2088 2089
3963 11 2087 2088 2090
3964 15 2087 2088 2091
3965 10 2089 2088 2090
3966 11 2089 2088 2091
3967 11 2090 2088 2091
3968 14 2088 2091 2092
3969 11 2091 2092 2093
3970 11 2091 2092 2094
3971 15 2091 2092 2095
3972 10 2093 2092 2094
3973 11 2093 2092 2095
3974 11 2094 2092 2095
3975 14 2092 2095 2096
3976 11 2095 2096 2097
3977 11 2095 2096 2098
3978 15 2095 2096 2099
3979 10 2097 2096 2098
3980 11 2097 2096 2099
3981 11 2098 2096 2099
3982 16 2096 2099 289
3983 17 110 2100 2080
3984 10 2102 2101 2103
3985 11 2102 2101 2104
3986 12 2102 2101 2121
3987 11 2103 2101 2104
3988 12 2103 2101 2121
3989 13 2104 2101 2121
3990 14 2101 2104 2105
3991 11 2104 2105 2106
3992 11 2104 2105 2107
3993 15 2104 2105 2108
3994 10 2106 2105 2107
3995 11 2106 2105 2108
3996 11 2107 2105 2108
3997 14 2105 2108 2109
3998 11 2108 2109 2110
3999 11 2108 2109 2111
4000 15 2108 2109 2112
4001 10 2110 2109 2111
4002 11 2110 2109 2112
4003 11 2111 2109 2112
4004 14 2109 2112 2113
4005 11 2112 2113 2114
4006 11 2112 2113 2115
4007 15 2112 2113 2116
4008 10 2114 2113 2115
4009 11 2114 2113 2116
4010 11 2115 2113 2116
4011 14 2113 2116 2117
4012 11 2116 2117 2118
4013 11 2116 2117 2119
4014 15 2116 2117 2120
4015 10 2118 2117 2119
4016 11 2118 2117 2120
4017 11 2119 2117 2120
4018 16 2117 2120 112
4019 17 111 2121 2101
4020 10 2123 2122 2124
4021 11 2123 2122 2125
4022 12 2123 2122 2142
4023 11 2124 2122 2125
4024 12 2124 2122 2142
4025 13 2125 2122 2142
4026 14 2122 2125 2126
4027 11 2125 2126 2127
4028 11 2125 2126 2128
4029 15 2125 2126 2129
4030 10 2127 2126 2128
4031 11 2127 2126 2129
4032 11 2128 2126 2129
4033 14 2126 2129 2130
4034 11 2129 2130 2131
4035 11 2129 2130 2132
4036 15 2129 2130 2133
4037 10 2131 2130 2132
4038 11 2131 2130 2133
4039 11 2132 2130 2133
4040 14 2130 2133 2134
4041 11 2133 2134 2135
4042 11 2133 2134 2136
4043 15 2133 2134 2137
4044 10 2135 2134 2136
4045 11 2135 2134 2137
4046 11 2136 2134 2137
4047 14 2134 2137 2138
4048 11 2137 2138 2139
4049 11 2137 2138 2140
4050 15 2137 2138 2141
4051 10 2139 2138 2140
4052 11 2139 2138 2141
4053 11 2140 2138 2141
4054 16 2138 2141 290
4055 17 111 2142 2122
4056 10 2144 2143 2145
4057 11 2144 2143 2146
4058 12 2144 2143 2163
4059 11 2145 2143 2146
4060 12 2145 2143 2163
4061 13 2146 2143 2163
4062 14 2143 2146 2147
4063 11 2146 2147 2148
4064 11 2146 2147 2149
4065 15 2146 2147 2150
4066 10 2148 2147 2149
4067 11 2148 2147 2150
4068 11 2149 2147 2150
4069 14 2147 2150 2151
4070 11 2150 2151 2152
4071 11 2150 2151 2153
4072 15 2150 2151 2154
4073 10 2152 2151 2153
4074 11 2152 2151 2154
4075 11 2153 2151 2154
4076 14 2151 2154 2155
4077 11 2154 2155 2156
4078 11 2154 2155 2157
4079 15 2154 2155 2158
4080 10 2156 2155 2157
4081 11 2156 2155 2158
4082 11 2157 2155 2158
4083 14 2155 2158 2159
4084 11 2158 2159 2160
4085 11 2158 2159 2161
4086 15 2158 2159 2162
4087 10 2160 2159 2161
4088 11 2160 2159 2162
4089 11 2161 2159 2162
4090 16 2159 2162 117
4091 17 112 2163 2143
4092 10 2165 2164 2166
4093 11 2165 2164 2167
4094 12 2165 2164 2184
4095 11 2166 2164 2167
4096 12 2166 2164 2184
4097 13 2167 2164 2184
4098 14 2164 2167 2168
4099 11 2167 2168 2169
4100 11 2167 2168 2170
4101 15 2167 2168 2171
4102 10 2169 2168 2170
4103 11 2169 2168 2171
4104 11 2170 2168 2171
4105 14 2168 2171 2172
4106 11 2171 2172 2173
4107 11 2171 2172 2174
4108 15 2171 2172 2175
4109 10 2173 2172 2174
4110 11 2173 2172 2175
4111 11 2174 2172 2175
4112 14 2172 2175 2176
4113 11 2175 2176 2177
4114 11 2175 2176 2178
4115 15 2175 2176 2179
4116 10 2177 2176 2178
4117 11 2177 2176 2179
4118 11 2178 2176 2179
4119 14 2176 2179 2180
4120 11 2179 2180 2181
4121 11 2179 2180 2182
4122 15 2179 2180 2183
4123 10 2181 2180 2182
4124 11 2181 2180 2183
4125 11 2182 2180 2183
4126 16 2180 2183 118
4127 17 113 2184 2164
4128 10 2186 2185 2187
4129 11 2186 2185 2188
4130 12 2186 2185 2205
4131 11 2187 2185 2188
4132 12 2187 2185 2205
4133 13 2188 2185 2205
4134 14 2185 2188 2189
4135 11 2188 2189 2190
4136 11 2188 2189 2191
4137 15 2188 2189 2192
4138 10 2190 2189 2191
4139 11 2190 2189 2192
4140 11 2191 2189 2192
4141 14 2189 2192 2193
4142 11 2192 2193 2194
4143 11 2192 2193 2195
4144 15 2192 2193 2196
4145 10 2194 2193 2195
4146 11 2194 2193 2196
4147 11 2195 2193 2196
4148 14 2193 2196 2197
4149 11 2196 2197 2198
4150 11 2196 2197 2199
4151 15 2196 2197 2200
4152 10 2198 2197 2199
4153 11 2198 2197 2200
4154 11 2199 2197 2200
4155 14 2197 2200 2201
4156 11 2200 2201 2202
4157 11 2200 2201 2203
4158 15 2200 2201 2204
4159 10 2202 2201 2203
4160 11 2202 2201 2204
4161 11 2203 2201 2204
4162 16 2201 2204 293
4163 17 114 2205 2185
4164 10 2207 2206 2208
4165 11 2207 2206 2209
4166 12 2207 2206 2226
4167 11 2208 2206 2209
4168 12 2208 2206 2226
4169 13 2209 2206 2226
4170 14 2206 2209 2210
4171 11 2209 2210 2211
4172 11 2209 2210 2212
4173 15 2209 2210 2213
4174 10 2211 2210 2212
4175 11 2211 2210 2213
4176 11 2212 2210 2213
4177 14 2210 2213 2214
4178 11 2213 2214 2215
4179 11 2213 2214 2216
4180 15 2213 2214 2217
4181 10 2215 2214 2216
4182 11 2215 2214 2217
4183 11 2216 2214 2217
4184 14 2214 2217 2218
4185 11 2217 2218 2219
4186 11 2217 2218 2220
4187 15 2217 2218 2221
4188 10 2219 2218 2220
4189 11 2219 2218 2221
4190 11 2220 2218 2221
4191 14 2218 2221 2222
4192 11 2221 2222 2223
4193 11 2221 2222 2224
4194 15 2221 2222 2225
4195 10 2223 2222 2224
4196 11 2223 2222 2225
4197 11 2224 2222 2225
4198 16 2222 2225 116
4199 17 115 2226 2206
4200 10 2228 2227 2229
4201 11 2228 2227 2230
4202 12 2228 2227 2247
4203 11 2229 2227 2230
4204 12 2229 2227 2247
4205 13 2230 2227 2247
4206 14 2227 2230 2231
4207 11 2230 2231 2232
4208 11 2230 2231 2233
4209 15 2230 2231 2234
4210 10 2232 2231 2233
4211 11 2232 2231 2234
4212 11 2233 2231 2234
4213 14 2231 2234 2235
4214 11 2234 2235 2236
4215 11 2234 2235 2237
4216 15 2234 2235 2238
4217 10 2236 2235 2237
4218 11 2236 2235 2238
4219 11 2237 2235 2238
4220 14 2235 2238 2239
4221 11 2238 2239 2240
4222 11 2238 2239 2241
4223 15 2238 2239 2242
4224 10 2240 2239 2241
4225 11 2240 2239 2242
4226 11 2241 2239 2242
4227 14 2239 2242 2243
4228 11 2242 2243 2244
4229 11 2242 2243 2245
4230 15 2242 2243 2246
4231 10 2244 2243 2245
4232 11 2244 2243 2246
4233 11 2245 2243 2246
4234 16 2243 2246 294
4235 17 115 2247 2227
4236 10 2249 2248 2250
4237 11 2249 2248 2251
4238 12 2249 2248 2268
4239 11 2250 2248 2251
4240 12 2250 2248 2268
4241 13 2251 2248 2268
4242 14 2248 2251 2252
4243 11 2251 2252 2253
4244 11 2251 2252 2254
4245 15 2251 2252 2255
4246 10 2253 2252 2254
4247 11 2253 2252 2255
4248 11 2254 2252 2255
4249 14 2252 2255 2256
4250 11 2255 2256 2257
4251 11 2255 2256 2258
4252 15 2255 2256 2259
4253 10 2257 2256 2258
4254 11 2257 2256 2259
4255 11 2258 2256 2259
4256 14 2256 2259 2260
4257 11 2259 2260 2261
4258 11 2259 2260 2262
4259 15 2259 2260 2263
4260 10 2261 2260 2262
4261 11 2261 2260 2263
4262 11 2262 2260 2263
4263 14 2260 2263 2264
4264 11 2263 2264 2265
4265 11 2263 2264 2266
4266 15 2263 2264 2267
4267 10 2265 2264 2266
4268 11 2265 2264 2267
4269 11 2266 2264 2267
4270 16 2264 2267 117
4271 17 116 2268 2248
4272 10 2270 2269 2271
4273 11 2270 2269 2272
4274 12 2270 2269 2289
4275 11 2271 2269 2272
4276 12 2271 2269 2289
4277 13 2272 2269 2289
4278 14 2269 2272 2273
4279 11 2272 2273 2274
4280 11 2272 2273 2275
4281 15 2272 2273 2276
4282 10 2274 2273 2275
4283 11 2274 2273 2276
4284 11 2275 2273 2276
4285 14 2273 2276 2277
4286 11 2276 2277 2278
4287 11 2276 2277 2279
4288 15 2276 2277 2280
4289 10 2278 2277 2279
4290 11 2278 2277 2280
4291 11 2279 2277 2280
4292 14 2277 2280 2281
4293 11 2280 2281 2282
4294 11 2280 2281 2283
4295 15 2280 2281 2284
4296 10 2282 2281 2283
4297 11 2282 2281 2284
4298 11 2283 2281 2284
4299 14 2281 2284 2285
4300 11 2284 2285 2286
4301 11 2284 2285 2287
4302 15 2284 2285 2288
4303 10 2286 2285 2287
4304 11 2286 2285 2288
4305 11 2287 2285 2288
4306 16 2285 2288 120
4307 17 116 2289 2269
4308 10 2291 2290 2292
4309 11 2291 2290 2293
4310 12 2291 2290 2310
4311 11 2292 2290 2293
4312 12 2292 2290 2310
4313 13 2293 2290 2310
4314 14 2290 2293 2294
4315 11 2293 2294 2295
4316 11 2293 2294 2296
4317 15 2293 2294 2297
4318 10 2295 2294 2296
4319 11 2295 2294 2297
4320 11 2296 2294 2297
4321 14 2294 2297 2298
4322 11 2297 2298 2299
4323 11 2297 2298 2300
4324 15 2297 2298 2301
4325 10 2299 2298 2300
4326 11 2299 2298 2301
4327 11 2300 2298 2301
4328 14 2298 2301 2302
4329 11 2301 2302 2303
4330 11 2301 2302 2304
4331 15 2301 2302 2305
4332 10 2303 2302 2304
4333 11 2303 2302 2305
4334 11 2304 2302 2305
4335 14 2302 2305 2306
4336 11 2305 2306 2307
4337 11 2305 2306 2308
4338 15 2305 2306 2309
4339 10 2307 2306 2308
4340 11 2307 2306 2309
4341 11 2308 2306 2309
4342 16 2306 2309 295
4343 17 116 2310 2290
4344 10 2312 2311 2313
4345 11 2312 2311 2314
4346 12 2312 2311 2331
4347 11 2313 2311 2314
4348 12 2313 2311 2331
4349 13 2314 2311 2331
4350 14 2311 2314 2315
4351 11 2314 2315 2316
4352 11 2314 2315 2317
4353 15 2314 2315 2318
4354 10 2316 2315 2317
4355 11 2316 2315 2318
4356 11 2317 2315 2318
4357 14 2315 2318 2319
4358 11 2318 2319 2320
4359 11 2318 2319 2321
4360 15 2318 2319 2322
4361 10 2320 2319 2321
4362 11 2320 2319 2322
4363 11 2321 2319 2322
4364 14 2319 2322 2323
4365 11 2322 2323 2324
4366 11 2322 2323 2325
4367 15 2322 2323 2326
4368 10 2324 2323 2325
4369 11 2324 2323 2326
4370 11 2325 2323 2326
4371 14 2323 2326 2327
4372 11 2326 2327 2328
4373 11 2326 2327 2329
4374 15 2326 2327 2330
4375 10 2328 2327 2329
4376 11 2328 2327 2330
4377 11 2329 2327 2330
4378 16 2327 2330 121
4379 17 117 2331 2311
4380 10 2333 2332 2334
4381 11 2333 2332 2335
4382 12 2333 2332 2352
4383 11 2334 2332 2335
4384 12 2334 2332 2352
4385 13 2335 2332 2352
4386 14 2332 2335 2336
4387 11 2335 2336 2337
4388 11 2335 2336 2338
4389 15 2335 2336 2339
4390 10 2337 2336 2338
4391 11 2337 2336 2339
4392 11 2338 2336 2339
4393 14 2336 2339 2340
4394 11 2339 2340 2341
4395 11 2339 2340 2342
4396 15 2339 2340 2343
4397 10 2341 2340 2342
4398 11 2341 2340 2343
4399 11 2342 2340 2343
4400 14 2340 2343 2344
4401 11 2343 2344 2345
4402 11 2343 2344 2346
4403 15 2343 2344 2347
4404 10 2345 2344 2346
4405 11 2345 2344 2347
4406 11 2346 2344 2347
4407 14 2344 2347 2348
4408 11 2347 2348 2349
4409 11 2347 2348 2350
4410 15 2347 2348 2351
4411 10 2349 2348 2350
4412 11 2349 2348 2351
4413 11 2350 2348 2351
4414 16 2348 2351 296
4415 17 117 2352 2332
4416 10 2354 2353 2355
4417 11 2354 2353 2356
4418 12 2354 2353 2373
4419 11 2355 2353 2356
4420 12 2355 2353 2373
4421 13 2356 2353 2373
4422 14 2353 2356 2357
4423 11 2356 2357 2358
4424 11 2356 2357 2359
4425 15 2356 2357 2360
4426 10 2358 2357 2359
4427 11 2358 2357 2360
4428 11 2359 2357 2360
4429 14 2357 2360 2361
4430 11 2360 2361 2362
4431 11 2360 2361 2363
4432 15 2360 2361 2364
4433 10 2362 2361 2363
4434 11 2362 2361 2364
4435 11 2363 2361 2364
4436 14 2361 2364 2365
4437 11 2364 2365 2366
4438 11 2364 2365 2367
4439 15 2364 2365 2368
4440 10 2366 2365 2367
4441 11 2366 2365 2368
4442 11 2367 2365 2368
4443 14 2365 2368 2369
4444 11 2368 2369 2370
4445 11 2368 2369 2371
4446 15 2368 2369 2372
4447 10 2370 2369 2371
4448 11 2370 2369 2372
4449 11 2371 2369 2372
4450 16 2369 2372 122
4451 17 118 2373 2353
4452 10 2375 2374 2376
4453 11 2375 2374 2377
4454 12 2375 2374 2394
4455 11 2376 2374 2377
4456 12 2376 2374 2394
4457 13 2377 2374 2394
4458 14 2374 2377 2378
4459 11 2377 2378 2379
4460 11 2377 2378 2380
4461 15 2377 2378 2381
4462 10 2379 2378 2380
4463 11 2379 2378 2381
4464 11 2380 2378 2381
4465 14 2378 2381 2382
4466 11 2381 2382 2383
4467 11 2381 2382 2384
4468 15 2381 2382 2385
4469 10 2383 2382 2384
4470 11 2383 2382 2385
4471 11 2384 2382 2385
4472 14 2382 2385 2386
4473 11 2385 2386 2387
4474 11 2385 2386 2388
4475 15 2385 2386 2389
4476 10 2387 2386 2388
4477 11 2387 2386 2389
4478 11 2388 2386 2389
4479 14 2386 2389 2390
4480 11 2389 2390 2391
4481 11 2389 2390 2392
4482 15 2389 2390 2393
4483 10 2391 2390 2392
4484 11 2391 2390 2393
4485 11 2392 2390 2393
4486 16 2390 2393 121
4487 17 118 2394 2374
4488 10 2396 2395 2397
4489 11 2396 2395 2398
4490 12 2396 2395 2415
4491 11 2397 2395 2398
4492 12 2397 2395 2415
4493 13 2398 2395 2415
4494 14 2395 2398 2399
4495 11 2398 2399 2400
4496 11 2398 2399 2401
4497 15 2398 2399 2402
4498 10 2400 2399 2401
4499 11 2400 2399 2402
4500 11 2401 2399 2402
4501 14 2399 2402 2403
4502 11 2402 2403 2404
4503 11 2402 2403 2405
4504 15 2402 2403 2406
4505 10 2404 2403 2405
4506 11 2404 2403 2406
4507 11 2405 2403 2406
4508 14 2403 2406 2407
4509 11 2406 2407 2408
4510 11 2406 2407 2409
4511 15 2406 2407 2410
4512 10 2408 2407 2409
4513 11 2408 2407 2410
4514 11 2409 2407 2410
4515 14 2407 2410 2411
4516 11 2410 2411 2412
4517 11 2410 2411 2413
4518 15 2410 2411 2414
4519 10 2412 2411 2413
4520 11 2412 2411 2414
4521 11 2413 2411 2414
4522 16 2411 2414 120
4523 17 119 2415 2395
4524 10 2417 2416 2418
4525 11 2417 2416 2419
4526 12 2417 2416 2436
4527 11 2418 2416 2419
4528 12 2418 2416 2436
4529 13 2419 2416 2436
4530 14 2416 2419 2420
4531 11 2419 2420 2421
4532 11 2419 2420 2422
4533 15 2419 2420 2423
4534 10 2421 2420 2422
4535 11 2421 2420 2423
4536 11 2422 2420 2423
4537 14 2420 2423 2424
4538 11 2423 2424 2425
4539 11 2423 2424 2426
4540 15 2423 2424 2427
4541 10 2425 2424 2426
4542 11 2425 2424 2427
4543 11 2426 2424 2427
4544 14 2424 2427 2428
4545 11 2427 2428 2429
4546 11 2427 2428 2430
4547 15 2427 2428 2431
4548 10 2429 2428 2430
4549 11 2429 2428 2431
4550 11 2430 2428 2431
4551 14 2428 2431 2432
4552 11 2431 2432 2433
4553 11 2431 2432 2434
4554 15 2431 2432 2435
4555 10 2433 2432 2434
4556 11 2433 2432 2435
4557 11 2434 2432 2435
4558 16 2432 2435 298
4559 17 119 2436 2416
4560 10 2438 2437 2439
4561 11 2438 2437 2440
4562 12 2438 2437 2457
4563 11 2439 2437 2440
4564 12 2439 2437 2457
4565 13 2440 2437 2457
4566 14 2437 2440 2441
4567 11 2440 2441 2442
4568 11 2440 2441 2443
4569 15 2440 2441 2444
4570 10 2442 2441 2443
4571 11 2442 2441 2444
4572 11 2443 2441 2444
4573 14 2441 2444 2445
4574 11 2444 2445 2446
4575 11 2444 2445 2447
4576 15 2444 2445 2448
4577 10 2446 2445 2447
4578 11 2446 2445 2448
4579 11 2447 2445 2448
4580 14 2445 2448 2449
4581 11 2448 2449 2450
4582 11 2448 2449 2451
4583 15 2448 2449 2452
4584 10 2450 2449 2451
4585 11 2450 2449 2452
4586 11 2451 2449 2452
4587 14 2449 2452 2453
4588 11 2452 2453 2454
4589 11 2452 2453 2455
4590 15 2452 2453 2456
4591 10 2454 2453 2455
4592 11 2454 2453 2456
4593 11 2455 2453 2456
4594 16 2453 2456 203
4595 17 120 2457 2437
4596 10 2459 2458 2460
4597 11 2459 2458 2461
4598 12 2459 2458 2478
4599 11 2460 2458 2461
4600 12 2460 2458 2478
4601 13 2461 2458 2478
4602 14 2458 2461 2462
4603 11 2461 2462 2463
4604 11 2461 2462 2464
4605 15 2461 2462 2465
4606 10 2463 2462 2464
4607 11 2463 2462 2465
4608 11 2464 2462 2465
4609 14 2462 2465 2466
4610 11 2465 2466 2467
4611 11 2465 2466 2468
4612 15 2465 2466 2469
4613 10 2467 2466 2468
4614 11 2467 2466 2469
4615 11 2468 2466 2469
4616 14 2466 2469 2470
4617 11 2469 2470 2471
4618 11 2469 2470 2472
4619 15 2469 2470 2473
4620 10 2471 2470 2472
4621 11 2471 2470 2473
4622 11 2472 2470 2473
4623 14 2470 2473 2474
4624 11 2473 2474 2475
4625 11 2473 2474 2476
4626 15 2473 2474 2477
4627 10 2475 2474 2476
4628 11 2475 2474 2477
4629 11 2476 2474 2477
4630 16 2474 2477 204
4631 17 121 2478 2458
4632 10 2480 2479 2481
4633 11 2480 2479 2482
4634 12 2480 2479 2499
4635 11 2481 2479 2482
4636 12 2481 2479 2499
4637 13 2482 2479 2499
4638 14 2479 2482 2483
4639 11 2482 2483 2484
4640 11 2482 2483 2485
4641 15 2482 2483 2486
4642 10 2484 2483 2485
4643 11 2484 2483 2486
4644 11 2485 2483 2486
4645 14 2483 2486 2487
4646 11 2486 2487 2488
4647 11 2486 2487 2489
4648 15 2486 2487 2490
4649 10 2488 2487 2489
4650 11 2488 2487 2490
4651 11 2489 2487 2490
4652 14 2487 2490 2491
4653 11 2490 2491 2492
4654 11 2490 2491 2493
4655 15 2490 2491 2494
4656 10 2492 2491 2493
4657 11 2492 2491 2494
4658 11 2493 2491 2494
4659 14 2491 2494 2495
4660 11 2494 2495 2496
4661 11 2494 2495 2497
4662 15 2494 2495 2498
4663 10 2496 2495 2497
4664 11 2496 2495 2498
4665 11 2497 2495 2498
4666 16 2495 2498 301
4667 17 122 2499 2479
4668 10 2501 2500 2502
4669 11 2501 2500 2503
4670 12 2501 2500 2520
4671 11 2502 2500 2503
4672 12 2502 2500 2520
4673 13 2503 2500 2520
4674 14 2500 2503 2504
4675 11 2503 2504 2505
4676 11 2503 2504 2506
4677 15 2503 2504 2507
4678 10 2505 2504 2506
4679 11 2505 2504 2507
4680 11 2506 2504 2507
4681 14 2504 2507 2508
4682 11 2507 2508 2509
4683 11 2507 2508 2510
4684 15 2507 2508 2511
4685 10 2509 2508 2510
4686 11 2509 2508 2511
4687 11 2510 2508 2511
4688 14 2508 2511 2512
4689 11 2511 2512 2513
4690 11 2511 2512 2514
4691 15 2511 2512 2515
4692 10 2513 2512 2514
4693 11 2513 2512 2515
4694 11 2514 2512 2515
4695 14 2512 2515 2516
4696 11 2515 2516 2517
4697 11 2515 2516 2518
4698 15 2515 2516 2519
4699 10 2517 2516 2518
4700 11 2517 2516 2519
4701 11 2518 2516 2519
4702 16 2516 2519 302
4703 17 123 2520 2500
4704 10 2522 2521 2523
4705 11 2522 2521 2524
4706 12 2522 2521 2541
4707 11 2523 2521 2524
4708 12 2523 2521 2541
4709 13 2524 2521 2541
4710 14 2521 2524 2525
4711 11 2524 2525 2526
4712 11 2524 2525 2527
4713 15 2524 2525 2528
4714 10 2526 2525 2527
4715 11 2526 2525 2528
4716 11 2527 2525 2528
4717 14 2525 2528 2529
4718 11 2528 2529 2530
4719 11 2528 2529 2531
4720 15 2528 2529 2532
4721 10 2530 2529 2531
4722 11 2530 2529 2532
4723 11 2531 2529 2532
4724 14 2529 2532 2533
4725 11 2532 2533 2534
4726 11 2532 2533 2535
4727 15 2532 2533 2536
4728 10 2534 2533 2535
4729 11 2534 2533 2536
4730 11 2535 2533 2536
4731 14 2533 2536 2537
4732 11 2536 2537 2538
4733 11 2536 2537 2539
4734 15 2536 2537 2540
4735 10 2538 2537 2539
4736 11 2538 2537 2540
4737 11 2539 2537 2540
4738 16 2537 2540 204
4739 17 203 2541 2521
4740 10 2543 2542 2544
4741 11 2543 2542 2545
4742 12 2543 2542 2562
4743 11 2544 2542 2545
4744 12 2544 2542 2562
4745 13 2545 2542 2562
4746 14 2542 2545 2546
4747 11 2545 2546 2547
4748 11 2545 2546 2548
4749 15 2545 2546 2549
4750 10 2547 2546 2548
4751 11 2547 2546 2549
4752 11 2548 2546 2549
4753 14 2546 2549 2550
4754 11 2549 2550 2551
4755 11 2549 2550 2552
4756 15 2549 2550 2553
4757 10 2551 2550 2552
4758 11 2551 2550 2553
4759 11 2552 2550 2553
4760 14 2550 2553 2554
4761 11 2553 2554 2555
4762 11 2553 2554 2556
4763 15 2553 2554 2557
4764 10 2555 2554 2556
4765 11 2555 2554 2557
4766 11 2556 2554 2557
4767 14 2554 2557 2558
4768 11 2557 2558 2559
4769 11 2557 2558 2560
4770 15 2557 2558 2561
4771 10 2559 2558 2560
4772 11 2559 2558 2561
4773 11 2560 2558 2561
4774 16 2558 2561 383
4775 17 204 2562 2542
4776 10 2564 2563 2565
4777 11 2564 2563 2566
4778 12 2564 2563 2583
4779 11 2565 2563 2566
4780 12 2565 2563 2583
4781 13 2566 2563 2583
4782 14 2563 2566 2567
4783 11 2566 2567 2568
4784 11 2566 2567 2569
4785 15 2566 2567 2570
4786 10 2568 2567 2569
4787 11 2568 2567 2570
4788 11 2569 2567 2570
4789 14 2567 2570 2571
4790 11 2570 2571 2572
4791 11 2570 2571 2573
4792 15 2570 2571 2574
4793 10 2572 2571 2573
4794 11 2572 2571 2574
4795 11 2573 2571 2574
4796 14 2571 2574 2575
4797 11 2574 2575 2576
4798 11 2574 2575 2577
4799 15 2574 2575 2578
4800 10 2576 2575 2577
4801 11 2576 2575 2578
4802 11 2577 2575 2578
4803 14 2575 2578 2579
4804 11 2578 2579 2580
4805 11 2578 2579 2581
4806 15 2578 2579 2582
4807 10 2580 2579 2581
4808 11 2580 2579 2582
4809 11 2581 2579 2582
4810 16 2579 2582 285
4811 17 284 2583 2563
4812 10 2585 2584 2586
4813 11 2585 2584 2587
4814 12 2585 2584 2604
4815 11 2586 2584 2587
4816 12 2586 2584 2604
4817 13 2587 2584 2604
4818 14 2584 2587 2588
4819 11 2587 2588 2589
4820 11 2587 2588 2590
4821 15 2587 2588 2591
4822 10 2589 2588 2590
4823 11 2589 2588 2591
4824 11 2590 2588 2591
4825 14 2588 2591 2592
4826 11 2591 2592 2593
4827 11 2591 2592 2594
4828 15 2591 2592 2595
4829 10 2593 2592 2594
4830 11 2593 2592 2595
4831 11 2594 2592 2595
4832 14 2592 2595 2596
4833 11 2595 2596 2597
4834 11 2595 2596 2598
4835 15 2595 2596 2599
4836 10 2597 2596 2598
4837 11 2597 2596 2599
4838 11 2598 2596 2599
4839 14 2596 2599 2600
4840 11 2599 2600 2601
4841 11 2599 2600 2602
4842 15 2599 2600 2603
4843 10 2601 2600 2602
4844 11 2601 2600 2603
4845 11 2602 2600 2603
4846 16 2600 2603 289
4847 17 284 2604 2584
4848 10 2606 2605 2607
4849 11 2606 2605 2608
4850 12 2606 2605 2625
4851 11 2607 2605 2608
4852 12 2607 2605 2625
4853 13 2608 2605 2625
4854 14 2605 2608 2609
4855 11 2608 2609 2610
4856 11 2608 2609 2611
4857 15 2608 2609 2612
4858 10 2610 2609 2611
4859 11 2610 2609 2612
4860 11 2611 2609 2612
4861 14 2609 2612 2613
4862 11 2612 2613 2614
4863 11 2612 2613 2615
4864 15 2612 2613 2616
4865 10 2614 2613 2615
4866 11 2614 2613 2616
4867 11 2615 2613 2616
4868 14 2613 2616 2617
4869 11 2616 2617 2618
4870 11 2616 2617 2619
4871 15 2616 2617 2620
4872 10 2618 2617 2619
4873 11 2618 2617 2620
4874 11 2619 2617 2620
4875 14 2617 2620 2621
4876 11 2620 2621 2622
4877 11 2620 2621 2623
4878 15 2620 2621 2624
4879 10 2622 2621 2623
4880 11 2622 2621 2624
4881 11 2623 2621 2624
4882 16 2621 2624 464
4883 17 284 2625 2605
4884 10 2627 2626 2628
4885 11 2627 2626 2629
4886 12 2627 2626 2646
4887 11 2628 2626 2629
4888 12 2628 2626 2646
4889 13 2629 2626 2646
4890 14 2626 2629 2630
4891 11 2629 2630 2631
4892 11 2629 2630 2632
4893 15 2629 2630 2633
4894 10 2631 2630 2632
4895 11 2631 2630 2633
4896 11 2632 2630 2633
4897 14 2630 2633 2634
4898 11 2633 2634 2635
4899 11 2633 2634 2636
4900 15 2633 2634 2637
4901 10 2635 2634 2636
4902 11 2635 2634 2637
4903 11 2636 2634 2637
4904 14 2634 2637 2638
4905 11 2637 2638 2639
4906 11 2637 2638 2640
4907 15 2637 2638 2641
4908 10 2639 2638 2640
4909 11 2639 2638 2641
4910 11 2640 2638 2641
4911 14 2638 2641 2642
4912 11 2641 2642 2643
4913 11 2641 2642 2644
4914 15 2641 2642 2645
4915 10 2643 2642 2644
4916 11 2643 2642 2645
4917 11 2644 2642 2645
4918 16 2642 2645 290
4919 17 285 2646 2626
4920 10 2648 2647 2649
4921 11 2648 2647 2650
4922 12 2648 2647 2667
4923 11 2649 2647 2650
4924 12 2649 2647 2667
4925 13 2650 2647 2667
4926 14 2647 2650 2651
4927 11 2650 2651 2652
4928 11 2650 2651 2653
4929 15 2650 2651 2654
4930 10 2652 2651 2653
4931 11 2652 2651 2654
4932 11 2653 2651 2654
4933 14 2651 2654 2655
4934 11 2654 2655 2656
4935 11 2654 2655 2657
4936 15 2654 2655 2658
4937 10 2656 2655 2657
4938 11 2656 2655 2658
4939 11 2657 2655 2658
4940 14 2655 2658 2659
4941 11 2658 2659 2660
4942 11 2658 2659 2661
4943 15 2658 2659 2662
4944 10 2660 2659 2661
4945 11 2660 2659 2662
4946 11 2661 2659 2662
4947 14 2659 2662 2663
4948 11 2662 2663 2664
4949 11 2662 2663 2665
4950 15 2662 2663 2666
4951 10 2664 2663 2665
4952 11 2664 2663 2666
4953 11 2665 2663 2666
4954 16 2663 2666 465
4955 17 285 2667 2647
4956 10 2669 2668 2670
4957 11 2669 2668 2671
4958 12 2669 2668 2688
4959 11 2670 2668 2671
4960 12 2670 2668 2688
4961 13 2671 2668 2688
4962 14 2668 2671 2672
4963 11 2671 2672 2673
4964 11 2671 2672 2674
4965 15 2671 2672 2675
4966 10 2673 2672 2674
4967 11 2673 2672 2675
4968 11 2674 2672 2675
4969 14 2672 2675 2676
4970 11 2675 2676 2677
4971 11 2675 2676 2678
4972 15 2675 2676 2679
4973 10 2677 2676 2678
4974 11 2677 2676 2679
4975 11 2678 2676 2679
4976 14 2676 2679 2680
4977 11 2679 2680 2681
4978 11 2679 2680 2682
4979 15 2679 2680 2683
4980 10 2681 2680 2682
4981 11 2681 2680 2683
4982 11 2682 2680 2683
4983 14 2680 2683 2684
4984 11 2683 2684 2685
4985 11 2683 2684 2686
4986 15 2683 2684 2687
4987 10 2685 2684 2686
4988 11 2685 2684 2687
4989 11 2686 2684 2687
4990 16 2684 2687 382
4991 17 285 2688 2668
4992 10 2690 2689 2691
4993 11 2690 2689 2692
4994 12 2690 2689 2709
4995 11 2691 2689 2692
4996 12 2691 2689 2709
4997 13 2692 2689 2709
4998 14 2689 2692 2693
4999 11 2692 2693 2694
5000 11 2692 2693 2695
5001 15 2692 2693 2696
5002 10 2694 2693 2695
5003 11 2694 2693 2696
5004 11 2695 2693 2696
5005 14 2693 2696 2697
5006 11 2696 2697 2698
5007 11 2696 2697 2699
5008 15 2696 2697 2700
5009 10 2698 2697 2699
5010 11 2698 2697 2700
5011 11 2699 2697 2700
5012 14 2697 2700 2701
5013 11 2700 2701 2702
5014 11 2700 2701 2703
5015 15 2700 2701 2704
5016 10 2702 2701 2703
5017 11 2702 2701 2704
5018 11 2703 2701 2704
5019 14 2701 2704 2705
5020 11 2704 2705 2706
5021 11 2704 2705 2707
5022 15 2704 2705 2708
5023 10 2706 2705 2707
5024 11 2706 2705 2708
5025 11 2707 2705 2708
5026 16 2705 2708 291
5027 17 286 2709 2689
5028 10 2711 2710 2712
5029 11 2711 2710 2713
5030 12 2711 2710 2730
5031 11 2712 2710 2713
5032 12 2712 2710 2730
5033 13 2713 2710 2730
5034 14 2710 2713 2714
5035 11 2713 2714 2715
5036 11 2713 2714 2716
5037 15 2713 2714 2717
5038 10 2715 2714 2716
5039 11 2715 2714 2717
5040 11 2716 2714 2717
5041 14 2714 2717 2718
5042 11 2717 2718 2719
5043 11 2717 2718 2720
5044 15 2717 2718 2721
5045 10 2719 2718 2720
5046 11 2719 2718 2721
5047 11 2720 2718 2721
5048 14 2718 2721 2722
5049 11 2721 2722 2723
5050 11 2721 2722 2724
5051 15 2721 2722 2725
5052 10 2723 2722 2724
5053 11 2723 2722 2725
5054 11 2724 2722 2725
5055 14 2722 2725 2726
5056 11 2725 2726 2727
5057 11 2725 2726 2728
5058 15 2725 2726 2729
5059 10 2727 2726 2728
5060 11 2727 2726 2729
5061 11 2728 2726 2729
5062 16 2726 2729 466
5063 17 286 2730 2710
5064 10 2732 2731 2733
5065 11 2732 2731 2734
5066 12 2732 2731 2751
5067 11 2733 2731 2734
5068 12 2733 2731 2751
5069 13 2734 2731 2751
5070 14 2731 2734 2735
5071 11 2734 2735 2736
5072 11 2734 2735 2737
5073 15 2734 2735 2738
5074 10 2736 2735 2737
5075 11 2736 2735 2738
5076 11 2737 2735 2738
5077 14 2735 2738 2739
5078 11 2738 2739 2740
5079 11 2738 2739 2741
5080 15 2738 2739 2742
5081 10 2740 2739 2741
5082 11 2740 2739 2742
5083 11 2741 2739 2742
5084 14 2739 2742 2743
5085 11 2742 2743 2744
5086 11 2742 2743 2745
5087 15 2742 2743 2746
5088 10 2744 2743 2745
5089 11 2744 2743 2746
5090 11 2745 2743 2746
5091 14 2743 2746 2747
5092 11 2746 2747 2748
5093 11 2746 2747 2749
5094 15 2746 2747 2750
5095 10 2748 2747 2749
5096 11 2748 2747 2750
5097 11 2749 2747 2750
5098 16 2747 2750 383
5099 17 286 2751 2731
5100 10 2753 2752 2754
5101 11 2753 2752 2755
5102 12 2753 2752 2772
5103 11 2754 2752 2755
5104 12 2754 2752 2772
5105 13 2755 2752 2772
5106 14 2752 2755 2756
5107 11 2755 2756 2757
5108 11 2755 2756 2758
5109 15 2755 2756 2759
5110 10 2757 2756 2758
5111 11 2757 2756 2759
5112 11 2758 2756 2759
5113 14 2756 2759 2760
5114 11 2759 2760 2761
5115 11 2759 2760 2762
5116 15 2759 2760 2763
5117 10 2761 2760 2762
5118 11 2761 2760 2763
5119 11 2762 2760 2763
5120 14 2760 2763 2764
5121 11 2763 2764 2765
5122 11 2763 2764 2766
5123 15 2763 2764 2767
5124 10 2765 2764 2766
5125 11 2765 2764 2767
5126 11 2766 2764 2767
5127 14 2764 2767 2768
5128 11 2767 2768 2769
5129 11 2767 2768 2770
5130 15 2767 2768 2771
5131 10 2769 2768 2770
5132 11 2769 2768 2771
5133 11 2770 2768 2771
5134 16 2768 2771 288
5135 17 287 2772 2752
5136 10 2774 2773 2775
5137 11 2774 2773 2776
5138 12 2774 2773 2793
5139 11 2775 2773 2776
5140 12 2775 2773 2793
5141 13 2776 2773 2793
5142 14 2773 2776 2777
5143 11 2776 2777 2778
5144 11 2776 2777 2779
5145 15 2776 2777 2780
5146 10 2778 2777 2779
5147 11 2778 2777 2780
5148 11 2779 2777 2780
5149 14 2777 2780 2781
5150 11 2780 2781 2782
5151 11 2780 2781 2783
5152 15 2780 2781 2784
5153 10 2782 2781 2783
5154 11 2782 2781 2784
5155 11 2783 2781 2784
5156 14 2781 2784 2785
5157 11 2784 2785 2786
5158 11 2784 2785 2787
5159 15 2784 2785 2788
5160 10 2786 2785 2787
5161 11 2786 2785 2788
5162 11 2787 2785 2788
5163 14 2785 2788 2789
5164 11 2788 2789 2790
5165 11 2788 2789 2791
5166 15 2788 2789 2792
5167 10 2790 2789 2791
5168 11 2790 2789 2792
5169 11 2791 2789 2792
5170 16 2789 2792 292
5171 17 287 2793 2773
5172 10 2795 2794 2796
5173 11 2795 2794 2797
5174 12 2795 2794 2814
5175 11 2796 2794 2797
5176 12 2796 2794 2814
5177 13 2797 2794 2814
5178 14 2794 2797 2798
5179 11 2797 2798 2799
5180 11 2797 2798 2800
5181 15 2797 2798 2801
5182 10 2799 2798 2800
5183 11 2799 2798 2801
5184 11 2800 2798 2801
5185 14 2798 2801 2802
5186 11 2801 2802 2803
5187 11 2801 2802 2804
5188 15 2801 2802 2805
5189 10 2803 2802 2804
5190 11 2803 2802 2805
5191 11 2804 2802 2805
5192 14 2802 2805 2806
5193 11 2805 2806 2807
5194 11 2805 2806 2808
5195 15 2805 2806 2809
5196 10 2807 2806 2808
5197 11 2807 2806 2809
5198 11 2808 2806 2809
5199 14 2806 2809 2810
5200 11 2809 2810 2811
5201 11 2809 2810 2812
5202 15 2809 2810 2813
5203 10 2811 2810 2812
5204 11 2811 2810 2813
5205 11 2812 2810 2813
5206 16 2810 2813 467
5207 17 287 2814 2794
5208 10 2816 2815 2817
5209 11 2816 2815 2818
5210 12 2816 2815 2835
5211 11 2817 2815 2818
5212 12 2817 2815 2835
5213 13 2818 2815 2835
5214 14 2815 2818 2819
5215 11 2818 2819 2820
5216 11 2818 2819 2821
5217 15 2818 2819 2822
5218 10 2820 2819 2821
5219 11 2820 2819 2822
5220 11 2821 2819 2822
5221 14 2819 2822 2823
5222 11 2822 2823 2824
5223 11 2822 2823 2825
5224 15 2822 2823 2826
5225 10 2824 2823 2825
5226 11 2824 2823 2826
5227 11 2825 2823 2826
5228 14 2823 2826 2827
5229 11 2826 2827 2828
5230 11 2826 2827 2829
5231 15 2826 2827 2830
5232 10 2828 2827 2829
5233 11 2828 2827 2830
5234 11 2829 2827 2830
5235 14 2827 2830 2831
5236 11 2830 2831 2832
5237 11 2830 2831 2833
5238 15 2830 2831 2834
5239 10 2832 2831 2833
5240 11 2832 2831 2834
5241 11 2833 2831 2834
5242 16 2831 2834 291
5243 17 287 2835 2815
5244 10 2837 2836 2838
5245 11 2837 2836 2839
5246 12 2837 2836 2856
5247 11 2838 2836 2839
5248 12 2838 2836 2856
5249 13 2839 2836 2856
5250 14 2836 2839 2840
5251 11 2839 2840 2841
5252 11 2839 2840 2842
5253 15 2839 2840 2843
5254 10 2841 2840 2842
5255 11 2841 2840 2843
5256 11 2842 2840 2843
5257 14 2840 2843 2844
5258 11 2843 2844 2845
5259 11 2843 2844 2846
5260 15 2843 2844 2847
5261 10 2845 2844 2846
5262 11 2845 2844 2847
5263 11 2846 2844 2847
5264 14 2844 2847 2848
5265 11 2847 2848 2849
5266 11 2847 2848 2850
5267 15 2847 2848 2851
5268 10 2849 2848 2850
5269 11 2849 2848 2851
5270 11 2850 2848 2851
5271 14 2848 2851 2852
5272 11 2851 2852 2853
5273 11 2851 2852 2854
5274 15 2851 2852 2855
5275 10 2853 2852 2854
5276 11 2853 2852 2855
5277 11 2854 2852 2855
5278 16 2852 2855 293
5279 17 288 2856 2836
5280 10 2858 2857 2859
5281 11 2858 2857 2860
5282 12 2858 2857 2877
5283 11 2859 2857 2860
5284 12 2859 2857 2877
5285 13 2860 2857 2877
5286 14 2857 2860 2861
5287 11 2860 2861 2862
5288 11 2860 2861 2863
5289 15 2860 2861 2864
5290 10 2862 2861 2863
5291 11 2862 2861 2864
5292 11 2863 2861 2864
5293 14 2861 2864 2865
5294 11 2864 2865 2866
5295 11 2864 2865 2867
5296 15 2864 2865 2868
5297 10 2866 2865 2867
5298 11 2866 2865 2868
5299 11 2867 2865 2868
5300 14 2865 2868 2869
5301 11 2868 2869 2870
5302 11 2868 2869 2871
5303 15 2868 2869 2872
5304 10 2870 2869 2871
5305 11 2870 2869 2872
5306 11 2871 2869 2872
5307 14 2869 2872 2873
5308 11 2872 2873 2874
5309 11 2872 2873 2875
5310 15 2872 2873 2876
5311 10 2874 2873 2875
5312 11 2874 2873 2876
5313 11 2875 2873 2876
5314 16 2873 2876 468
5315 17 288 2877 2857
5316 10 2879 2878 2880
5317 11 2879 2878 2881
5318 12 2879 2878 2898
5319 11 2880 2878 2881
5320 12 2880 2878 2898
5321 13 2881 2878 2898
5322 14 2878 2881 2882
5323 11 2881 2882 2883
5324 11 2881 2882 2884
5325 15 2881 2882 2885
5326 10 2883 2882 2884
5327 11 2883 2882 2885
5328 11 2884 2882 2885
5329 14 2882 2885 2886
5330 11 2885 2886 2887
5331 11 2885 2886 2888
5332 15 2885 2886 2889
5333 10 2887 2886 2888
5334 11 2887 2886 2889
5335 11 2888 2886 2889
5336 14 2886 2889 2890
5337 11 2889 2890 2891
5338 11 2889 2890 2892
5339 15 2889 2890 2893
5340 10 2891 2890 2892
5341 11 2891 2890 2893
5342 11 2892 2890 2893
5343 14 2890 2893 2894
5344 11 2893 2894 2895
5345 11 2893 2894 2896
5346 15 2893 2894 2897
5347 10 2895 2894 2896
5348 11 2895 2894 2897
5349 11 2896 2894 2897
5350 16 2894 2897 290
5351 17 289 2898 2878
5352 10 2900 2899 2901
5353 11 2900 2899 2902
5354 12 2900 2899 2919
5355 11 2901 2899 2902
5356 12 2901 2899 2919
5357 13 2902 2899 2919
5358 14 2899 2902 2903
5359 11 2902 2903 2904
5360 11 2902 2903 2905
5361 15 2902 2903 2906
5362 10 2904 2903 2905
5363 11 2904 2903 2906
5364 11 2905 2903 2906
5365 14 2903 2906 2907
5366 11 2906 2907 2908
5367 11 2906 2907 2909
5368 15 2906 2907 2910
5369 10 2908 2907 2909
5370 11 2908 2907 2910
5371 11 2909 2907 2910
5372 14 2907 2910 2911
5373 11 2910 2911 2912
5374 11 2910 2911 2913
5375 15 2910 2911 2914
5376 10 2912 2911 2913
5377 11 2912 2911 2914
5378 11 2913 2911 2914
5379 14 2911 2914 2915
5380 11 2914 2915 2916
5381 11 2914 2915 2917
5382 15 2914 2915 2918
5383 10 2916 2915 2917
5384 11 2916 2915 2918
5385 11 2917 2915 2918
5386 16 2915 2918 296
5387 17 291 2919 2899
5388 10 2921 2920 2922
5389 11 2921 2920 2923
5390 12 2921 2920 2940
5391 11 2922 2920 2923
5392 12 2922 2920 2940
5393 13 2923 2920 2940
5394 14 2920 2923 2924
5395 11 2923 2924 2925
5396 11 2923 2924 2926
5397 15 2923 2924 2927
5398 10 2925 2924 2926
5399 11 2925 2924 2927
5400 11 2926 2924 2927
5401 14 2924 2927 2928
5402 11 2927 2928 2929
5403 11 2927 2928 2930
5404 15 2927 2928 2931
5405 10 2929 2928 2930
5406 11 2929 2928 2931
5407 11 2930 2928 2931
5408 14 2928 2931 2932
5409 11 2931 2932 2933
5410 11 2931 2932 2934
5411 15 2931 2932 2935
5412 10 2933 2932 2934
5413 11 2933 2932 2935
5414 11 2934 2932 2935
5415 14 2932 2935 2936
5416 11 2935 2936 2937
5417 11 2935 2936 2938
5418 15 2935 2936 2939
5419 10 2937 2936 2938
5420 11 2937 2936 2939
5421 11 2938 2936 2939
5422 16 2936 2939 471
5423 17 291 2940 2920
5424 10 2942 2941 2943
5425 11 2942 2941 2944
5426 12 2942 2941 2961
5427 11 2943 2941 2944
5428 12 2943 2941 2961
5429 13 2944 2941 2961
5430 14 2941 2944 2945
5431 11 2944 2945 2946
5432 11 2944 2945 2947
5433 15 2944 2945 2948
5434 10 2946 2945 2947
5435 11 2946 2945 2948
5436 11 2947 2945 2948
5437 14 2945 2948 2949
5438 11 2948 2949 2950
5439 11 2948 2949 2951
5440 15 2948 2949 2952
5441 10 2950 2949 2951
5442 11 2950 2949 2952
5443 11 2951 2949 2952
5444 14 2949 2952 2953
5445 11 2952 2953 2954
5446 11 2952 2953 2955
5447 15 2952 2953 2956
5448 10 2954 2953 2955
5449 11 2954 2953 2956
5450 11 2955 2953 2956
5451 14 2953 2956 2957
5452 11 2956 2957 2958
5453 11 2956 2957 2959
5454 15 2956 2957 2960
5455 10 2958 2957 2959
5456 11 2958 2957 2960
5457 11 2959 2957 2960
5458 16 2957 2960 472
5459 17 292 2961 2941
5460 10 2963 2962 2964
5461 11 2963 2962 2965
5462 12 2963 2962 2982
5463 11 2964 2962 2965
5464 12 2964 2962 2982
5465 13 2965 2962 2982
5466 14 2962 2965 2966
5467 11 2965 2966 2967
5468 11 2965 2966 2968
5469 15 2965 2966 2969
5470 10 2967 2966 2968
5471 11 2967 2966 2969
5472 11 2968 2966 2969
5473 14 2966 2969 2970
5474 11 2969 2970 2971
5475 11 2969 2970 2972
5476 15 2969 2970 2973
5477 10 2971 2970 2972
5478 11 2971 2970 2973
5479 11 2972 2970 2973
5480 14 2970 2973 2974
5481 11 2973 2974 2975
5482 11 2973 2974 2976
5483 15 2973 2974 2977
5484 10 2975 2974 2976
5485 11 2975 2974 2977
5486 11 2976 2974 2977
5487 14 2974 2977 2978
5488 11 2977 2978 2979
5489 11 2977 2978 2980
5490 15 2977 2978 2981
5491 10 2979 2978 2980
5492 11 2979 2978 2981
5493 11 2980 2978 2981
5494 16 2978 2981 296
5495 17 292 2982 2962
5496 10 2984 2983 2985
5497 11 2984 2983 2986
5498 12 2984 2983 3003
5499 11 2985 2983 2986
5500 12 2985 2983 3003
5501 13 2986 2983 3003
5502 14 2983 2986 2987
5503 11 2986 2987 2988
5504 11 2986 2987 2989
5505 15 2986 2987 2990
5506 10 2988 2987 2989
5507 11 2988 2987 2990
5508 11 2989 2987 2990
5509 14 2987 2990 2991
5510 11 2990 2991 2992
5511 11 2990 2991 2993
5512 15 2990 2991 2994
5513 10 2992 2991 2993
5514 11 2992 2991 2994
5515 11 2993 2991 2994
5516 14 2991 2994 2995
5517 11 2994 2995 2996
5518 11 2994 2995 2997
5519 15 2994 2995 2998
5520 10 2996 2995 2997
5521 11 2996 2995 2998
5522 11 2997 2995 2998
5523 14 2995 2998 2999
5524 11 2998 2999 3000
5525 11 2998 2999 3001
5526 15 2998 2999 3002
5527 10 3000 2999 3001
5528 11 3000 2999 3002
5529 11 3001 2999 3002
5530 16 2999 3002 297
5531 17 293 3003 2983
5532 10 3005 3004 3006
5533 11 3005 3004 3007
5534 12 3005 3004 3024
5535 11 3006 3004 3007
5536 12 3006 3004 3024
5537 13 3007 3004 3024
5538 14 3004 3007 3008
5539 11 3007 3008 3009
5540 11 3007 3008 3010
5541 15 3007 3008 3011
5542 10 3009 3008 3010
5543 11 3009 3008 3011
5544 11 3010 3008 3011
5545 14 3008 3011 3012
5546 11 3011 3012 3013
5547 11 3011 3012 3014
5548 15 3011 3012 3015
5549 10 3013 3012 3014
5550 11 3013 3012 3015
5551 11 3014 3012 3015
5552 14 3012 3015 3016
5553 11 3015 3016 3017
5554 11 3015 3016 3018
5555 15 3015 3016 3019
5556 10 3017 3016 3018
5557 11 3017 3016 3019
5558 11 3018 3016 3019
5559 14 3016 3019 3020
5560 11 3019 3020 3021
5561 11 3019 3020 3022
5562 15 3019 3020 3023
5563 10 3021 3020 3022
5564 11 3021 3020 3023
5565 11 3022 3020 3023
5566 16 3020 3023 473
5567 17 293 3024 3004
5568 10 3026 3025 3027
5569 11 3026 3025 3028
5570 12 3026 3025 3045
5571 11 3027 3025 3028
5572 12 3027 3025 3045
5573 13 3028 3025 3045
5574 14 3025 3028 3029
5575 11 3028 3029 3030
5576 11 3028 3029 3031
5577 15 3028 3029 3032
5578 10 3030 3029 3031
5579 11 3030 3029 3032
5580 11 3031 3029 3032
5581 14 3029 3032 3033
5582 11 3032 3033 3034
5583 11 3032 3033 3035
5584 15 3032 3033 3036
5585 10 3034 3033 3035
5586 11 3034 3033 3036
5587 11 3035 3033 3036
5588 14 3033 3036 3037
5589 11 3036 3037 3038
5590 11 3036 3037 3039
5591 15 3036 3037 3040
5592 10 3038 3037 3039
5593 11 3038 3037 3040
5594 11 3039 3037 3040
5595 14 3037 3040 3041
5596 11 3040 3041 3042
5597 11 3040 3041 3043
5598 15 3040 3041 3044
5599 10 3042 3041 3043
5600 11 3042 3041 3044
5601 11 3043 3041 3044
5602 16 3041 3044 295
5603 17 294 3045 3025
5604 10 3047 3046 3048
5605 11 3047 3046 3049
5606 12 3047 3046 3066
5607 11 3048 3046 3049
5608 12 3048 3046 3066
5609 13 3049 3046 3066
5610 14 3046 3049 3050
5611 11 3049 3050 3051
5612 11 3049 3050 3052
5613 15 3049 3050 3053
5614 10 3051 3050 3052
5615 11 3051 3050 3053
5616 11 3052 3050 3053
5617 14 3050 3053 3054
5618 11 3053 3054 3055
5619 11 3053 3054 3056
5620 15 3053 3054 3057
5621 10 3055 3054 3056
5622 11 3055 3054 3057
5623 11 3056 3054 3057
5624 14 3054 3057 3058
5625 11 3057 3058 3059
5626 11 3057 3058 3060
5627 15 3057 3058 3061
5628 10 3059 3058 3060
5629 11 3059 3058 3061
5630 11 3060 3058 3061
5631 14 3058 3061 3062
5632 11 3061 3062 3063
5633 11 3061 3062 3064
5634 15 3061 3062 3065
5635 10 3063 3062 3064
5636 11 3063 3062 3065
5637 11 3064 3062 3065
5638 16 3062 3065 298
5639 17 294 3066 3046
5640 10 3068 3067 3069
5641 11 3068 3067 3070
5642 12 3068 3067 3087
5643 11 3069 3067 3070
5644 12 3069 3067 3087
5645 13 3070 3067 3087
5646 14 3067 3070 3071
5647 11 3070 3071 3072
5648 11 3070 3071 3073
5649 15 3070 3071 3074
5650 10 3072 3071 3073
5651 11 3072 3071 3074
5652 11 3073 3071 3074
5653 14 3071 3074 3075
5654 11 3074 3075 3076
5655 11 3074 3075 3077
5656 15 3074 3075 3078
5657 10 3076 3075 3077
5658 11 3076 3075 3078
5659 11 3077 3075 3078
5660 14 3075 3078 3079
5661 11 3078 3079 3080
5662 11 3078 3079 3081
5663 15 3078 3079 3082
5664 10 3080 3079 3081
5665 11 3080 3079 3082
5666 11 3081 3079 3082
5667 14 3079 3082 3083
5668 11 3082 3083 3084
5669 11 3082 3083 3085
5670 15 3082 3083 3086
5671 10 3084 3083 3085
5672 11 3084 3083 3086
5673 11 3085 3083 3086
5674 16 3083 3086 474
5675 17 294 3087 3067
5676 10 3089 3088 3090
5677 11 3089 3088 3091
5678 12 3089 3088 3108
5679 11 3090 3088 3091
5680 12 3090 3088 3108
5681 13 3091 3088 3108
5682 14 3088 3091 3092
5683 11 3091 3092 3093
5684 11 3091 3092 3094
5685 15 3091 3092 3095
5686 10 3093 3092 3094
5687 11 3093 3092 3095
5688 11 3094 3092 3095
5689 14 3092 3095 3096
5690 11 3095 3096 3097
5691 11 3095 3096 3098
5692 15 3095 3096 3099
5693 10 3097 3096 3098
5694 11 3097 3096 3099
5695 11 3098 3096 3099
5696 14 3096 3099 3100
5697 11 3099 3100 3101
5698 11 3099 3100 3102
5699 15 3099 3100 3103
5700 10 3101 3100 3102
5701 11 3101 3100 3103
5702 11 3102 3100 3103
5703 14 3100 3103 3104
5704 11 3103 3104 3105
5705 11 3103 3104 3106
5706 15 3103 3104 3107
5707 10 3105 3104 3106
5708 11 3105 3104 3107
5709 11 3106 3104 3107
5710 16 3104 3107 299
5711 17 295 3108 3088
5712 10 3110 3109 3111
5713 11 3110 3109 3112
5714 12 3110 3109 3129
5715 11 3111 3109 3112
5716 12 3111 3109 3129
5717 13 3112 3109 3129
5718 14 3109 3112 3113
5719 11 3112 3113 3114
5720 11 3112 3113 3115
5721 15 3112 3113 3116
5722 10 3114 3113 3115
5723 11 3114 3113 3116
5724 11 3115 3113 3116
5725 14 3113 3116 3117
5726 11 3116 3117 3118
5727 11 3116 3117 3119
5728 15 3116 3117 3120
5729 10 3118 3117 3119
5730 11 3118 3117 3120
5731 11 3119 3117 3120
5732 14 3117 3120 3121
5733 11 3120 3121 3122
5734 11 3120 3121 3123
5735 15 3120 3121 3124
5736 10 3122 3121 3123
5737 11 3122 3121 3124
5738 11 3123 3121 3124
5739 14 3121 3124 3125
5740 11 3124 3125 3126
5741 11 3124 3125 3127
5742 15 3124 3125 3128
5743 10 3126 3125 3127
5744 11 3126 3125 3128
5745 11 3127 3125 3128
5746 16 3125 3128 475
5747 17 295 3129 3109
5748 10 3131 3130 3132
5749 11 3131 3130 3133
5750 12 3131 3130 3150
5751 11 3132 3130 3133
5752 12 3132 3130 3150
5753 13 3133 3130 3150
5754 14 3130 3133 3134
5755 11 3133 3134 3135
5756 11 3133 3134 3136
5757 15 3133 3134 3137
5758 10 3135 3134 3136
5759 11 3135 3134 3137
5760 11 3136 3134 3137
5761 14 3134 3137 3138
5762 11 3137 3138 3139
5763 11 3137 3138 3140
5764 15 3137 3138 3141
5765 10 3139 3138 3140
5766 11 3139 3138 3141
5767 11 3140 3138 3141
5768 14 3138 3141 3142
5769 11 3141 3142 3143
5770 11 3141 3142 3144
5771 15 3141 3142 3145
5772 10 3143 3142 3144
5773 11 3143 3142 3145
5774 11 3144 3142 3145
5775 14 3142 3145 3146
5776 11 3145 3146 3147
5777 11 3145 3146 3148
5778 15 3145 3146 3149
5779 10 3147 3146 3148
5780 11 3147 3146 3149
5781 11 3148 3146 3149
5782 16 3146 3149 300
5783 17 296 3150 3130
5784 10 3152 3151 3153
5785 11 3152 3151 3154
5786 12 3152 3151 3171
5787 11 3153 3151 3154
5788 12 3153 3151 3171
5789 13 3154 3151 3171
5790 14 3151 3154 3155
5791 11 3154 3155 3156
5792 11 3154 3155 3157
5793 15 3154 3155 3158
5794 10 3156 3155 3157
5795 11 3156 3155 3158
5796 11 3157 3155 3158
5797 14 3155 3158 3159
5798 11 3158 3159 3160
5799 11 3158 3159 3161
5800 15 3158 3159 3162
5801 10 3160 3159 3161
5802 11 3160 3159 3162
5803 11 3161 3159 3162
5804 14 3159 3162 3163
5805 11 3162 3163 3164
5806 11 3162 3163 3165
5807 15 3162 3163 3166
5808 10 3164 3163 3165
5809 11 3164 3163 3166
5810 11 3165 3163 3166
5811 14 3163 3166 3167
5812 11 3166 3167 3168
5813 11 3166 3167 3169
5814 15 3166 3167 3170
5815 10 3168 3167 3169
5816 11 3168 3167 3170
5817 11 3169 3167 3170
5818 16 3167 3170 302
5819 17 297 3171 3151
5820 10 3173 3172 3174
5821 11 3173 3172 3175
5822 12 3173 3172 3192
5823 11 3174 3172 3175
5824 12 3174 3172 3192
5825 13 3175 3172 3192
5826 14 3172 3175 3176
5827 11 3175 3176 3177
5828 11 3175 3176 3178
5829 15 3175 3176 3179
5830 10 3177 3176 3178
5831 11 3177 3176 3179
5832 11 3178 3176 3179
5833 14 3176 3179 3180
5834 11 3179 3180 3181
5835 11 3179 3180 3182
5836 15 3179 3180 3183
5837 10 3181 3180 3182
5838 11 3181 3180 3183
5839 11 3182 3180 3183
5840 14 3180 3183 3184
5841 11 3183 3184 3185
5842 11 3183 3184 3186
5843 15 3183 3184 3187
5844 10 3185 3184 3186
5845 11 3185 3184 3187
5846 11 3186 3184 3187
5847 14 3184 3187 3188
5848 11 3187 3188 3189
5849 11 3187 3188 3190
5850 15 3187 3188 3191
5851 10 3189 3188 3190
5852 11 3189 3188 3191
5853 11 3190 3188 3191
5854 16 3188 3191 478
5855 17 297 3192 3172
5856 10 3194 3193 3195
5857 11 3194 3193 3196
5858 12 3194 3193 3213
5859 11 3195 3193 3196
5860 12 3195 3193 3213
5861 13 3196 3193 3213
5862 14 3193 3196 3197
5863 11 3196 3197 3198
5864 11 3196 3197 3199
5865 15 3196 3197 3200
5866 10 3198 3197 3199
5867 11 3198 3197 3200
5868 11 3199 3197 3200
5869 14 3197 3200 3201
5870 11 3200 3201 3202
5871 11 3200 3201 3203
5872 15 3200 3201 3204
5873 10 3202 3201 3203
5874 11 3202 3201 3204
5875 11 3203 3201 3204
5876 14 3201 3204 3205
5877 11 3204 3205 3206
5878 11 3204 3205 3207
5879 15 3204 3205 3208
5880 10 3206 3205 3207
5881 11 3206 3205 3208
5882 11 3207 3205 3208
5883 14 3205 3208 3209
5884 11 3208 3209 3210
5885 11 3208 3209 3211
5886 15 3208 3209 3212
5887 10 3210 3209 3211
5888 11 3210 3209 3212
5889 11 3211 3209 3212
5890 16 3209 3212 299
5891 17 298 3213 3193
5892 10 3215 3214 3216
5893 11 3215 3214 3217
5894 12 3215 3214 3234
5895 11 3216 3214 3217
5896 12 3216 3214 3234
5897 13 3217 3214 3234
5898 14 3214 3217 3218
5899 11 3217 3218 3219
5900 11 3217 3218 3220
5901 15 3217 3218 3221
5902 10 3219 3218 3220
5903 11 3219 3218 3221
5904 11 3220 3218 3221
5905 14 3218 3221 3222
5906 11 3221 3222 3223
5907 11 3221 3222 3224
5908 15 3221 3222 3225
5909 10 3223 3222 3224
5910 11 3223 3222 3225
5911 11 3224 3222 3225
5912 14 3222 3225 3226
5913 11 3225 3226 3227
5914 11 3225 3226 3228
5915 15 3225 3226 3229
5916 10 3227 3226 3228
5917 11 3227 3226 3229
5918 11 3228 3226 3229
5919 14 3226 3229 3230
5920 11 3229 3230 3231
5921 11 3229 3230 3232
5922 15 3229 3230 3233
5923 10 3231 3230 3232
5924 11 3231 3230 3233
5925 11 3232 3230 3233
5926 16 3230 3233 479
5927 17 298 3234 3214
5928 10 3236 3235 3237
5929 11 3236 3235 3238
5930 12 3236 3235 3255
5931 11 3237 3235 3238
5932 12 3237 3235 3255
5933 13 3238 3235 3255
5934 14 3235 3238 3239
5935 11 3238 3239 3240
5936 11 3238 3239 3241
5937 15 3238 3239 3242
5938 10 3240 3239 3241
5939 11 3240 3239 3242
5940 11 3241 3239 3242
5941 14 3239 3242 3243
5942 11 3242 3243 3244
5943 11 3242 3243 3245
5944 15 3242 3243 3246
5945 10 3244 3243 3245
5946 11 3244 3243 3246
5947 11 3245 3243 3246
5948 14 3243 3246 3247
5949 11 3246 3247 3248
5950 11 3246 3247 3249
5951 15 3246 3247 3250
5952 10 3248 3247 3249
5953 11 3248 3247 3250
5954 11 3249 3247 3250
5955 14 3247 3250 3251
5956 11 3250 3251 3252
5957 11 3250 3251 3253
5958 15 3250 3251 3254
5959 10 3252 3251 3253
5960 11 3252 3251 3254
5961 11 3253 3251 3254
5962 16 3251 3254 300
5963 17 299 3255 3235
5964 10 3257 3256 3258
5965 11 3257 3256 3259
5966 12 3257 3256 3276
5967 11 3258 3256 3259
5968 12 3258 3256 3276
5969 13 3259 3256 3276
5970 14 3256 3259 3260
5971 11 3259 3260 3261
5972 11 3259 3260 3262
5973 15 3259 3260 3263
5974 10 3261 3260 3262
5975 11 3261 3260 3263
5976 11 3262 3260 3263
5977 14 3260 3263 3264
5978 11 3263 3264 3265
5979 11 3263 3264 3266
5980 15 3263 3264 3267
5981 10 3265 3264 3266
5982 11 3265 3264 3267
5983 11 3266 3264 3267
5984 14 3264 3267 3268
5985 11 3267 3268 3269
5986 11 3267 3268 3270
5987 15 3267 3268 3271
5988 10 3269 3268 3270
5989 11 3269 3268 3271
5990 11 3270 3268 3271
5991 14 3268 3271 3272
5992 11 3271 3272 3273
5993 11 3271 3272 3274
5994 15 3271 3272 3275
5995 10 3273 3272 3274
5996 11 3273 3272 3275
5997 11 3274 3272 3275
5998 16 3272 3275 382
5999 17 299 3276 3256
6000 10 3278 3277 3279
6001 11 3278 3277 3280
6002 12 3278 3277 3297
6003 11 3279 3277 3280
6004 12 3279 3277 3297
6005 13 3280 3277 3297
6006 14 3277 3280 3281
6007 11 3280 3281 3282
6008 11 3280 3281 3283
6009 15 3280 3281 3284
6010 10 3282 3281 3283
6011 11 3282 3281 3284
6012 11 3283 3281 3284
6013 14 3281 3284 3285
6014 11 3284 3285 3286
6015 11 3284 3285 3287
6016 15 3284 3285 3288
6017 10 3286 3285 3287
6018 11 3286 3285 3288
6019 11 3287 3285 3288
6020 14 3285 3288 3289
6021 11 3288 3289 3290
6022 11 3288 3289 3291
6023 15 3288 3289 3292
6024 10 3290 3289 3291
6025 11 3290 3289 3292
6026 11 3291 3289 3292
6027 14 3289 3292 3293
6028 11 3292 3293 3294
6029 11 3292 3293 3295
6030 15 3292 3293 3296
6031 10 3294 3293 3295
6032 11 3294 3293 3296
6033 11 3295 3293 3296
6034 16 3293 3296 481
6035 17 300 3297 3277
6036 10 3299 3298 3300
6037 11 3299 3298 3301
6038 12 3299 3298 3318
6039 11 3300 3298 3301
6040 12 3300 3298 3318
6041 13 3301 3298 3318
6042 14 3298 3301 3302
6043 11 3301 3302 3303
6044 11 3301 3302 3304
6045 15 3301 3302 3305
6046 10 3303 3302 3304
6047 11 3303 3302 3305
6048 11 3304 3302 3305
6049 14 3302 3305 3306
6050 11 3305 3306 3307
6051 11 3305 3306 3308
6052 15 3305 3306 3309
6053 10 3307 3306 3308
6054 11 3307 3306 3309
6055 11 3308 3306 3309
6056 14 3306 3309 3310
6057 11 3309 3310 3311
6058 11 3309 3310 3312
6059 15 3309 3310 3313
6060 10 3311 3310 3312
6061 11 3311 3310 3313
6062 11 3312 3310 3313
6063 14 3310 3313 3314
6064 11 3313 3314 3315
6065 11 3313 3314 3316
6066 15 3313 3314 3317
6067 10 3315 3314 3316
6068 11 3315 3314 3317
6069 11 3316 3314 3317
6070 16 3314 3317 302
6071 17 301 3318 3298
6072 10 3320 3319 3321
6073 11 3320 3319 3322
6074 12 3320 3319 3339
6075 11 3321 3319 3322
6076 12 3321 3319 3339
6077 13 3322 3319 3339
6078 14 3319 3322 3323
6079 11 3322 3323 3324
6080 11 3322 3323 3325
6081 15 3322 3323 3326
6082 10 3324 3323 3325
6083 11 3324 3323 3326
6084 11 3325 3323 3326
6085 14 3323 3326 3327
6086 11 3326 3327 3328
6087 11 3326 3327 3329
6088 15 3326 3327 3330
6089 10 3328 3327 3329
6090 11 3328 3327 3330
6091 11 3329 3327 3330
6092 14 3327 3330 3331
6093 11 3330 3331 3332
6094 11 3330 3331 3333
6095 15 3330 3331 3334
6096 10 3332 3331 3333
6097 11 3332 3331 3334
6098 11 3333 3331 3334
6099 14 3331 3334 3335
6100 11 3334 3335 3336
6101 11 3334 3335 3337
6102 15 3334 3335 3338
6103 10 3336 3335 3337
6104 11 3336 3335 3338
6105 11 3337 3335 3338
6106 16 3335 3338 482
6107 17 301 3339 3319
6108 10 3341 3340 3342
6109 11 3341 3340 3343
6110 12 3341 3340 3360
6111 11 3342 3340 3343
6112 12 3342 3340 3360
6113 13 3343 3340 3360
6114 14 3340 3343 3344
6115 11 3343 3344 3345
6116 11 3343 3344 3346
6117 15 3343 3344 3347
6118 10 3345 3344 3346
6119 11 3345 3344 3347
6120 11 3346 3344 3347
6121 14 3344 3347 3348
6122 11 3347 3348 3349
6123 11 3347 3348 3350
6124 15 3347 3348 3351
6125 10 3349 3348 3350
6126 11 3349 3348 3351
6127 11 3350 3348 3351
6128 14 3348 3351 3352
6129 11 3351 3352 3353
6130 11 3351 3352 3354
6131 15 3351 3352 3355
6132 10 3353 3352 3354
6133 11 3353 3352 3355
6134 11 3354 3352 3355
6135 14 3352 3355 3356
6136 11 3355 3356 3357
6137 11 3355 3356 3358
6138 15 3355 3356 3359
6139 10 3357 3356 3358
6140 11 3357 3356 3359
6141 11 3358 3356 3359
6142 18 3356 3359 325
6143 17 302 3360 3340
6144 10 3362 3361 3363
6145 11 3362 3361 3364
6146 12 3362 3361 3381
6147 11 3363 3361 3364
6148 12 3363 3361 3381
6149 13 3364 3361 3381
6150 14 3361 3364 3365
6151 11 3364 3365 3366
6152 11 3364 3365 3367
6153 15 3364 3365 3368
6154 10 3366 3365 3367
6155 11 3366 3365 3368
6156 11 3367 3365 3368
6157 14 3365 3368 3369
6158 11 3368 3369 3370
6159 11 3368 3369 3371
6160 15 3368 3369 3372
6161 10 3370 3369 3371
6162 11 3370 3369 3372
6163 11 3371 3369 3372
6164 14 3369 3372 3373
6165 11 3372 3373 3374
6166 11 3372 3373 3375
6167 15 3372 3373 3376
6168 10 3374 3373 3375
6169 11 3374 3373 3376
6170 11 3375 3373 3376
6171 14 3373 3376 3377
6172 11 3376 3377 3378
6173 11 3376 3377 3379
6174 15 3376 3377 3380
6175 10 3378 3377 3379
6176 11 3378 3377 3380
6177 11 3379 3377 3380
6178 16 3377 3380 383
6179 17 382 3381 3361
6180 10 3383 3382 3384
6181 11 3383 3382 3385
6182 12 3383 3382 3402
6183 11 3384 3382 3385
6184 12 3384 3382 3402
6185 13 3385 3382 3402
6186 14 3382 3385 3386
6187 11 3385 3386 3387
6188 11 3385 3386 3388
6189 15 3385 3386 3389
6190 10 3387 3386 3388
6191 11 3387 3386 3389
6192 11 3388 3386 3389
6193 14 3386 3389 3390
6194 11 3389 3390 3391
6195 11 3389 3390 3392
6196 15 3389 3390 3393
6197 10 3391 3390 3392
6198 11 3391 3390 3393
6199 11 3392 3390 3393
6200 14 3390 3393 3394
6201 11 3393 3394 3395
6202 11 3393 3394 3396
6203 15 3393 3394 3397
6204 10 3395 3394 3396
6205 11 3395 3394 3397
6206 11 3396 3394 3397
6207 14 3394 3397 3398
6208 11 3397 3398 3399
6209 11 3397 3398 3400
6210 15 3397 3398 3401
6211 10 3399 3398 3400
6212 11 3399 3398 3401
6213 11 3400 3398 3401
6214 16 3398 3401 485
6215 17 382 3402 3382
6216 10 3404 3403 3405
6217 11 3404 3403 3406
6218 12 3404 3403 3423
6219 11 3405 3403 3406
6220 12 3405 3403 3423
6221 13 3406 3403 3423
6222 14 3403 3406 3407
6223 11 3406 3407 3408
6224 11 3406 3407 3409
6225 15 3406 3407 3410
6226 10 3408 3407 3409
6227 11 3408 3407 3410
6228 11 3409 3407 3410
6229 14 3407 3410 3411
6230 11 3410 3411 3412
6231 11 3410 3411 3413
6232 15 3410 3411 3414
6233 10 3412 3411 3413
6234 11 3412 3411 3414
6235 11 3413 3411 3414
6236 14 3411 3414 3415
6237 11 3414 3415 3416
6238 11 3414 3415 3417
6239 15 3414 3415 3418
6240 10 3416 3415 3417
6241 11 3416 3415 3418
6242 11 3417 3415 3418
6243 14 3415 3418 3419
6244 11 3418 3419 3420
6245 11 3418 3419 3421
6246 15 3418 3419 3422
6247 10 3420 3419 3421
6248 11 3420 3419 3422
6249 11 3421 3419 3422
6250 16 3419 3422 486
6251 17 383 3423 3403
6252 10 3425 3424 3426
6253 11 3425 3424 3427
6254 10 3425 3424 406
6255 11 3426 3424 3427
6256 10 3426 3424 406
6257 11 3427 3424 406
6258 14 3424 3427 3428
6259 11 3427 3428 3429
6260 11 3427 3428 3430
6261 15 3427 3428 3431
6262 10 3429 3428 3430
6263 11 3429 3428 3431
6264 11 3430 3428 3431
6265 14 3428 3431 3432
6266 11 3431 3432 3433
6267 11 3431 3432 3434
6268 15 3431 3432 3435
6269 10 3433 3432 3434
6270 11 3433 3432 3435
6271 11 3434 3432 3435
6272 14 3432 3435 3436
6273 11 3435 3436 3437
6274 11 3435 3436 3438
6275 15 3435 3436 3439
6276 10 3437 3436 3438
6277 11 3437 3436 3439
6278 11 3438 3436 3439
6279 14 3436 3439 3440
6280 11 3439 3440 3441
6281 11 3439 3440 3442
6282 15 3439 3440 3443
6283 10 3441 3440 3442
6284 11 3441 3440 3443
6285 11 3442 3440 3443
6286 16 3440 3443 463
6287 10 3445 3444 3446
6288 11 3445 3444 3447
6289 12 3445 3444 3464
6290 11 3446 3444 3447
6291 12 3446 3444 3464
6292 13 3447 3444 3464
6293 14 3444 3447 3448
6294 11 3447 3448 3449
6295 11 3447 3448 3450
6296 15 3447 3448 3451
6297 10 3449 3448 3450
6298 11 3449 3448 3451
6299 11 3450 3448 3451
6300 14 3448 3451 3452
6301 11 3451 3452 3453
6302 11 3451 3452 3454
6303 15 3451 3452 3455
6304 10 3453 3452 3454
6305 11 3453 3452 3455
6306 11 3454 3452 3455
6307 14 3452 3455 3456
6308 11 3455 3456 3457
6309 11 3455 3456 3458
6310 15 3455 3456 3459
6311 10 3457 3456 3458
6312 11 3457 3456 3459
6313 11 3458 3456 3459
6314 14 3456 3459 3460
6315 11 3459 3460 3461
6316 11 3459 3460 3462
6317 15 3459 3460 3463
6318 10 3461 3460 3462
6319 11 3461 3460 3463
6320 11 3462 3460 3463
6321 16 3460 3463 488
6322 17 463 3464 3444
6323 10 3466 3465 3467
6324 11 3466 3465 3468
6325 12 3466 3465 3485
6326 11 3467 3465 3468
6327 12 3467 3465 3485
6328 13 3468 3465 3485
6329 14 3465 3468 3469
6330 11 3468 3469 3470
6331 11 3468 3469 3471
6332 15 3468 3469 3472
6333 10 3470 3469 3471
6334 11 3470 3469 3472
6335 11 3471 3469 3472
6336 14 3469 3472 3473
6337 11 3472 3473 3474
6338 11 3472 3473 3475
6339 15 3472 3473 3476
6340 10 3474 3473 3475
6341 11 3474 3473 3476
6342 11 3475 3473 3476
6343 14 3473 3476 3477
6344 11 3476 3477 3478
6345 11 3476 3477 3479
6346 15 3476 3477 3480
6347 10 3478 3477 3479
6348 11 3478 3477 3480
6349 11 3479 3477 3480
6350 14 3477 3480 3481
6351 11 3480 3481 3482
6352 11 3480 3481 3483
6353 15 3480 3481 3484
6354 10 3482 3481 3483
6355 11 3482 3481 3484
6356 11 3483 3481 3484
6357 16 3481 3484 483
6358 17 463 3485 3465
6359 10 3487 3486 3488
6360 11 3487 3486 3489
6361 12 3487 3486 3506
6362 11 3488 3486 3489
6363 12 3488 3486 3506
6364 13 3489 3486 3506
6365 14 3486 3489 3490
6366 11 3489 3490 3491
6367 11 3489 3490 3492
6368 15 3489 3490 3493
6369 10 3491 3490 3492
6370 11 3491 3490 3493
6371 11 3492 3490 3493
6372 14 3490 3493 3494
6373 11 3493 3494 3495
6374 11 3493 3494 3496
6375 15 3493 3494 3497
6376 10 3495 3494 3496
6377 11 3495 3494 3497
6378 11 3496 3494 3497
6379 14 3494 3497 3498
6380 11 3497 3498 3499
6381 11 3497 3498 3500
6382 15 3497 3498 3501
6383 10 3499 3498 3500
6384 11 3499 3498 3501
6385 11 3500 3498 3501
6386 14 3498 3501 3502
6387 11 3501 3502 3503
6388 11 3501 3502 3504
6389 15 3501 3502 3505
6390 10 3503 3502 3504
6391 11 3503 3502 3505
6392 11 3504 3502 3505
6393 16 3502 3505 465
6394 17 464 3506 3486
6395 10 3508 3507 3509
6396 11 3508 3507 3510
6397 12 3508 3507 3527
6398 11 3509 3507 3510
6399 12 3509 3507 3527
6400 13 3510 3507 3527
6401 14 3507 3510 3511
6402 11 3510 3511 3512
6403 11 3510 3511 3513
6404 15 3510 3511 3514
6405 10 3512 3511 3513
6406 11 3512 3511 3514
6407 11 3513 3511 3514
6408 14 3511 3514 3515
6409 11 3514 3515 3516
6410 11 3514 3515 3517
6411 15 3514 3515 3518
6412 10 3516 3515 3517
6413 11 3516 3515 3518
6414 11 3517 3515 3518
6415 14 3515 3518 3519
6416 11 3518 3519 3520
6417 11 3518 3519 3521
6418 15 3518 3519 3522
6419 10 3520 3519 3521
6420 11 3520 3519 3522
6421 11 3521 3519 3522
6422 14 3519 3522 3523
6423 11 3522 3523 3524
6424 11 3522 3523 3525
6425 15 3522 3523 3526
6426 10 3524 3523 3525
6427 11 3524 3523 3526
6428 11 3525 3523 3526
6429 16 3523 3526 489
6430 17 464 3527 3507
6431 10 3529 3528 3530
6432 11 3529 3528 3531
6433 12 3529 3528 3548
6434 11 3530 3528 3531
6435 12 3530 3528 3548
6436 13 3531 3528 3548
6437 14 3528 3531 3532
6438 11 3531 3532 3533
6439 11 3531 3532 3534
6440 15 3531 3532 3535
6441 10 3533 3532 3534
6442 11 3533 3532 3535
6443 11 3534 3532 3535
6444 14 3532 3535 3536
6445 11 3535 3536 3537
6446 11 3535 3536 3538
6447 15 3535 3536 3539
6448 10 3537 3536 3538
6449 11 3537 3536 3539
6450 11 3538 3536 3539
6451 14 3536 3539 3540
6452 11 3539 3540 3541
6453 11 3539 3540 3542
6454 15 3539 3540 3543
6455 10 3541 3540 3542
6456 11 3541 3540 3543
6457 11 3542 3540 3543
6458 14 3540 3543 3544
6459 11 3543 3544 3545
6460 11 3543 3544 3546
6461 15 3543 3544 3547
6462 10 3545 3544 3546
6463 11 3545 3544 3547
6464 11 3546 3544 3547
6465 16 3544 3547 484
6466 17 464 3548 3528
6467 10 3550 3549 3551
6468 11 3550 3549 3552
6469 12 3550 3549 3569
6470 11 3551 3549 3552
6471 12 3551 3549 3569
6472 13 3552 3549 3569
6473 14 3549 3552 3553
6474 11 3552 3553 3554
6475 11 3552 3553 3555
6476 15 3552 3553 3556
6477 10 3554 3553 3555
6478 11 3554 3553 3556
6479 11 3555 3553 3556
6480 14 3553 3556 3557
6481 11 3556 3557 3558
6482 11 3556 3557 3559
6483 15 3556 3557 3560
6484 10 3558 3557 3559
6485 11 3558 3557 3560
6486 11 3559 3557 3560
6487 14 3557 3560 3561
6488 11 3560 3561 3562
6489 11 3560 3561 3563
6490 15 3560 3561 3564
6491 10 3562 3561 3563
6492 11 3562 3561 3564
6493 11 3563 3561 3564
6494 14 3561 3564 3565
6495 11 3564 3565 3566
6496 11 3564 3565 3567
6497 15 3564 3565 3568
6498 10 3566 3565 3567
6499 11 3566 3565 3568
6500 11 3567 3565 3568
6501 16 3565 3568 470
6502 17 465 3569 3549
6503 10 3571 3570 3572
6504 11 3571 3570 3573
6505 12 3571 3570 3590
6506 11 3572 3570 3573
6507 12 3572 3570 3590
6508 13 3573 3570 3590
6509 14 3570 3573 3574
6510 11 3573 3574 3575
6511 11 3573 3574 3576
6512 15 3573 3574 3577
6513 10 3575 3574 3576
6514 11 3575 3574 3577
6515 11 3576 3574 3577
6516 14 3574 3577 3578
6517 11 3577 3578 3579
6518 11 3577 3578 3580
6519 15 3577 3578 3581
6520 10 3579 3578 3580
6521 11 3579 3578 3581
6522 11 3580 3578 3581
6523 14 3578 3581 3582
6524 11 3581 3582 3583
6525 11 3581 3582 3584
6526 15 3581 3582 3585
6527 10 3583 3582 3584
6528 11 3583 3582 3585
6529 11 3584 3582 3585
6530 14 3582 3585 3586
6531 11 3585 3586 3587
6532 11 3585 3586 3588
6533 15 3585 3586 3589
6534 10 3587 3586 3588
6535 11 3587 3586 3589
6536 11 3588 3586 3589
6537 16 3586 3589 490
6538 17 465 3590 3570
6539 10 3592 3591 3593
6540 11 3592 3591 3594
6541 12 3592 3591 3611
6542 11 3593 3591 3594
6543 12 3593 3591 3611
6544 13 3594 3591 3611
6545 14 3591 3594 3595
6546 11 3594 3595 3596
6547 11 3594 3595 3597
6548 15 3594 3595 3598
6549 10 3596 3595 3597
6550 11 3596 3595 3598
6551 11 3597 3595 3598
6552 14 3595 3598 3599
6553 11 3598 3599 3600
6554 11 3598 3599 3601
6555 15 3598 3599 3602
6556 10 3600 3599 3601
6557 11 3600 3599 3602
6558 11 3601 3599 3602
6559 14 3599 3602 3603
6560 11 3602 3603 3604
6561 11 3602 3603 3605
6562 15 3602 3603 3606
6563 10 3604 3603 3605
6564 11 3604 3603 3606
6565 11 3605 3603 3606
6566 14 3603 3606 3607
6567 11 3606 3607 3608
6568 11 3606 3607 3609
6569 15 3606 3607 3610
6570 10 3608 3607 3609
6571 11 3608 3607 3610
6572 11 3609 3607 3610
6573 16 3607 3610 491
6574 17 466 3611 3591
6575 10 3613 3612 3614
6576 11 3613 3612 3615
6577 12 3613 3612 3632
6578 11 3614 3612 3615
6579 12 3614 3612 3632
6580 13 3615 3612 3632
6581 14 3612 3615 3616
6582 11 3615 3616 3617
6583 11 3615 3616 3618
6584 15 3615 3616 3619
6585 10 3617 3616 3618
6586 11 3617 3616 3619
6587 11 3618 3616 3619
6588 14 3616 3619 3620
6589 11 3619 3620 3621
6590 11 3619 3620 3622
6591 15 3619 3620 3623
6592 10 3621 3620 3622
6593 11 3621 3620 3623
6594 11 3622 3620 3623
6595 14 3620 3623 3624
6596 11 3623 3624 3625
6597 11 3623 3624 3626
6598 15 3623 3624 3627
6599 10 3625 3624 3626
6600 11 3625 3624 3627
6601 11 3626 3624 3627
6602 14 3624 3627 3628
6603 11 3627 3628 3629
6604 11 3627 3628 3630
6605 15 3627 3628 3631
6606 10 3629 3628 3630
6607 11 3629 3628 3631
6608 11 3630 3628 3631
6609 16 3628 3631 486
6610 17 466 3632 3612
6611 10 3634 3633 3635
6612 11 3634 3633 3636
6613 12 3634 3633 3653
6614 11 3635 3633 3636
6615 12 3635 3633 3653
6616 13 3636 3633 3653
6617 14 3633 3636 3637
6618 11 3636 3637 3638
6619 11 3636 3637 3639
6620 15 3636 3637 3640
6621 10 3638 3637 3639
6622 11 3638 3637 3640
6623 11 3639 3637 3640
6624 14 3637 3640 3641
6625 11 3640 3641 3642
6626 11 3640 3641 3643
6627 15 3640 3641 3644
6628 10 3642 3641 3643
6629 11 3642 3641 3644
6630 11 3643 3641 3644
6631 14 3641 3644 3645
6632 11 3644 3645 3646
6633 11 3644 3645 3647
6634 15 3644 3645 3648
6635 10 3646 3645 3647
6636 11 3646 3645 3648
6637 11 3647 3645 3648
6638 14 3645 3648 3649
6639 11 3648 3649 3650
6640 11 3648 3649 3651
6641 15 3648 3649 3652
6642 10 3650 3649 3651
6643 11 3650 3649 3652
6644 11 3651 3649 3652
6645 16 3649 3652 468
6646 17 467 3653 3633
6647 10 3655 3654 3656
6648 11 3655 3654 3657
6649 12 3655 3654 3674
6650 11 3656 3654 3657
6651 12 3656 3654 3674
6652 13 3657 3654 3674
6653 14 3654 3657 3658
6654 11 3657 3658 3659
6655 11 3657 3658 3660
6656 15 3657 3658 3661
6657 10 3659 3658 3660
6658 11 3659 3658 3661
6659 11 3660 3658 3661
6660 14 3658 3661 3662
6661 11 3661 3662 3663
6662 11 3661 3662 3664
6663 15 3661 3662 3665
6664 10 3663 3662 3664
6665 11 3663 3662 3665
6666 11 3664 3662 3665
6667 14 3662 3665 3666
6668 11 3665 3666 3667
6669 11 3665 3666 3668
6670 15 3665 3666 3669
6671 10 3667 3666 3668
6672 11 3667 3666 3669
6673 11 3668 3666 3669
6674 14 3666 3669 3670
6675 11 3669 3670 3671
6676 11 3669 3670 3672
6677 15 3669 3670 3673
6678 10 3671 3670 3672
6679 11 3671 3670 3673
6680 11 3672 3670 3673
6681 16 3670 3673 492
6682 17 467 3674 3654
6683 10 3676 3675 3677
6684 11 3676 3675 3678
6685 12 3676 3675 3695
6686 11 3677 3675 3678
6687 12 3677 3675 3695
6688 13 3678 3675 3695
6689 14 3675 3678 3679
6690 11 3678 3679 3680
6691 11 3678 3679 3681
6692 15 3678 3679 3682
6693 10 3680 3679 3681
6694 11 3680 3679 3682
6695 11 3681 3679 3682
6696 14 3679 3682 3683
6697 11 3682 3683 3684
6698 11 3682 3683 3685
6699 15 3682 3683 3686
6700 10 3684 3683 3685
6701 11 3684 3683 3686
6702 11 3685 3683 3686
6703 14 3683 3686 3687
6704 11 3686 3687 3688
6705 11 3686 3687 3689
6706 15 3686 3687 3690
6707 10 3688 3687 3689
6708 11 3688 3687 3690
6709 11 3689 3687 3690
6710 14 3687 3690 3691
6711 11 3690 3691 3692
6712 11 3690 3691 3693
6713 15 3690 3691 3694
6714 10 3692 3691 3693
6715 11 3692 3691 3694
6716 11 3693 3691 3694
6717 16 3691 3694 469
6718 17 468 3695 3675
6719 10 3697 3696 3698
6720 11 3697 3696 3699
6721 12 3697 3696 3716
6722 11 3698 3696 3699
6723 12 3698 3696 3716
6724 13 3699 3696 3716
6725 14 3696 3699 3700
6726 11 3699 3700 3701
6727 11 3699 3700 3702
6728 15 3699 3700 3703
6729 10 3701 3700 3702
6730 11 3701 3700 3703
6731 11 3702 3700 3703
6732 14 3700 3703 3704
6733 11 3703 3704 3705
6734 11 3703 3704 3706
6735 15 3703 3704 3707
6736 10 3705 3704 3706
6737 11 3705 3704 3707
6738 11 3706 3704 3707
6739 14 3704 3707 3708
6740 11 3707 3708 3709
6741 11 3707 3708 3710
6742 15 3707 3708 3711
6743 10 3709 3708 3710
6744 11 3709 3708 3711
6745 11 3710 3708 3711
6746 14 3708 3711 3712
6747 11 3711 3712 3713
6748 11 3711 3712 3714
6749 15 3711 3712 3715
6750 10 3713 3712 3714
6751 11 3713 3712 3715
6752 11 3714 3712 3715
6753 16 3712 3715 493
6754 17 468 3716 3696
6755 10 3718 3717 3719
6756 11 3718 3717 3720
6757 12 3718 3717 3737
6758 11 3719 3717 3720
6759 12 3719 3717 3737
6760 13 3720 3717 3737
6761 14 3717 3720 3721
6762 11 3720 3721 3722
6763 11 3720 3721 3723
6764 15 3720 3721 3724
6765 10 3722 3721 3723
6766 11 3722 3721 3724
6767 11 3723 3721 3724
6768 14 3721 3724 3725
6769 11 3724 3725 3726
6770 11 3724 3725 3727
6771 15 3724 3725 3728
6772 10 3726 3725 3727
6773 11 3726 3725 3728
6774 11 3727 3725 3728
6775 14 3725 3728 3729
6776 11 3728 3729 3730
6777 11 3728 3729 3731
6778 15 3728 3729 3732
6779 10 3730 3729 3731
6780 11 3730 3729 3732
6781 11 3731 3729 3732
6782 14 3729 3732 3733
6783 11 3732 3733 3734
6784 11 3732 3733 3735
6785 15 3732 3733 3736
6786 10 3734 3733 3735
6787 11 3734 3733 3736
6788 11 3735 3733 3736
6789 16 3733 3736 470
6790 17 469 3737 3717
6791 10 3739 3738 3740
6792 11 3739 3738 3741
6793 12 3739 3738 3758
6794 11 3740 3738 3741
6795 12 3740 3738 3758
6796 13 3741 3738 3758
6797 14 3738 3741 3742
6798 11 3741 3742 3743
6799 11 3741 3742 3744
6800 15 3741 3742 3745
6801 10 3743 3742 3744
6802 11 3743 3742 3745
6803 11 3744 3742 3745
6804 14 3742 3745 3746
6805 11 3745 3746 3747
6806 11 3745 3746 3748
6807 15 3745 3746 3749
6808 10 3747 3746 3748
6809 11 3747 3746 3749
6810 11 3748 3746 3749
6811 14 3746 3749 3750
6812 11 3749 3750 3751
6813 11 3749 3750 3752
6814 15 3749 3750 3753
6815 10 3751 3750 3752
6816 11 3751 3750 3753
6817 11 3752 3750 3753
6818 14 3750 3753 3754
6819 11 3753 3754 3755
6820 11 3753 3754 3756
6821 15 3753 3754 3757
6822 10 3755 3754 3756
6823 11 3755 3754 3757
6824 11 3756 3754 3757
6825 16 3754 3757 474
6826 17 469 3758 3738
6827 10 3760 3759 3761
6828 11 3760 3759 3762
6829 12 3760 3759 3779
6830 11 3761 3759 3762
6831 12 3761 3759 3779
6832 13 3762 3759 3779
6833 14 3759 3762 3763
6834 11 3762 3763 3764
6835 11 3762 3763 3765
6836 15 3762 3763 3766
6837 10 3764 3763 3765
6838 11 3764 3763 3766
6839 11 3765 3763 3766
6840 14 3763 3766 3767
6841 11 3766 3767 3768
6842 11 3766 3767 3769
6843 15 3766 3767 3770
6844 10 3768 3767 3769
6845 11 3768 3767 3770
6846 11 3769 3767 3770
6847 14 3767 3770 3771
6848 11 3770 3771 3772
6849 11 3770 3771 3773
6850 15 3770 3771 3774
6851 10 3772 3771 3773
6852 11 3772 3771 3774
6853 11 3773 3771 3774
6854 14 3771 3774 3775
6855 11 3774 3775 3776
6856 11 3774 3775 3777
6857 15 3774 3775 3778
6858 10 3776 3775 3777
6859 11 3776 3775 3778
6860 11 3777 3775 3778
6861 16 3775 3778 494
6862 17 469 3779 3759
6863 10 3781 3780 3782
6864 11 3781 3780 3783
6865 12 3781 3780 3800
6866 11 3782 3780 3783
6867 12 3782 3780 3800
6868 13 3783 3780 3800
6869 14 3780 3783 3784
6870 11 3783 3784 3785
6871 11 3783 3784 3786
6872 15 3783 3784 3787
6873 10 3785 3784 3786
6874 11 3785 3784 3787
6875 11 3786 3784 3787
6876 14 3784 3787 3788
6877 11 3787 3788 3789
6878 11 3787 3788 3790
6879 15 3787 3788 3791
6880 10 3789 3788 3790
6881 11 3789 3788 3791
6882 11 3790 3788 3791
6883 14 3788 3791 3792
6884 11 3791 3792 3793
6885 11 3791 3792 3794
6886 15 3791 3792 3795
6887 10 3793 3792 3794
6888 11 3793 3792 3795
6889 11 3794 3792 3795
6890 14 3792 3795 3796
6891 11 3795 3796 3797
6892 11 3795 3796 3798
6893 15 3795 3796 3799
6894 10 3797 3796 3798
6895 11 3797 3796 3799
6896 11 3798 3796 3799
6897 16 3796 3799 475
6898 17 470 3800 3780
6899 10 3802 3801 3803
6900 11 3802 3801 3804
6901 12 3802 3801 3821
6902 11 3803 3801 3804
6903 12 3803 3801 3821
6904 13 3804 3801 3821
6905 14 3801 3804 3805
6906 11 3804 3805 3806
6907 11 3804 3805 3807
6908 15 3804 3805 3808
6909 10 3806 3805 3807
6910 11 3806 3805 3808
6911 11 3807 3805 3808
6912 14 3805 3808 3809
6913 11 3808 3809 3810
6914 11 3808 3809 3811
6915 15 3808 3809 3812
6916 10 3810 3809 3811
6917 11 3810 3809 3812
6918 11 3811 3809 3812
6919 14 3809 3812 3813
6920 11 3812 3813 3814
6921 11 3812 3813 3815
6922 15 3812 3813 3816
6923 10 3814 3813 3815
6924 11 3814 3813 3816
6925 11 3815 3813 3816
6926 14 3813 3816 3817
6927 11 3816 3817 3818
6928 11 3816 3817 3819
6929 15 3816 3817 3820
6930 10 3818 3817 3819
6931 11 3818 3817 3820
6932 11 3819 3817 3820
6933 16 3817 3820 476
6934 17 471 3821 3801
6935 10 3823 3822 3824
6936 11 3823 3822 3825
6937 12 3823 3822 3842
6938 11 3824 3822 3825
6939 12 3824 3822 3842
6940 13 3825 3822 3842
6941 14 3822 3825 3826
6942 11 3825 3826 3827
6943 11 3825 3826 3828
6944 15 3825 3826 3829
6945 10 3827 3826 3828
6946 11 3827 3826 3829
6947 11 3828 3826 3829
6948 14 3826 3829 3830
6949 11 3829 3830 3831
6950 11 3829 3830 3832
6951 15 3829 3830 3833
6952 10 3831 3830 3832
6953 11 3831 3830 3833
6954 11 3832 3830 3833
6955 14 3830 3833 3834
6956 11 3833 3834 3835
6957 11 3833 3834 3836
6958 15 3833 3834 3837
6959 10 3835 3834 3836
6960 11 3835 3834 3837
6961 11 3836 3834 3837
6962 14 3834 3837 3838
6963 11 3837 3838 3839
6964 11 3837 3838 3840
6965 15 3837 3838 3841
6966 10 3839 3838 3840
6967 11 3839 3838 3841
6968 11 3840 3838 3841
6969 16 3838 3841 496
6970 17 471 3842 3822
6971 10 3844 3843 3845
6972 11 3844 3843 3846
6973 12 3844 3843 3863
6974 11 3845 3843 3846
6975 12 3845 3843 3863
6976 13 3846 3843 3863
6977 14 3843 3846 3847
6978 11 3846 3847 3848
6979 11 3846 3847 3849
6980 15 3846 3847 3850
6981 10 3848 3847 3849
6982 11 3848 3847 3850
6983 11 3849 3847 3850
6984 14 3847 3850 3851
6985 11 3850 3851 3852
6986 11 3850 3851 3853
6987 15 3850 3851 3854
6988 10 3852 3851 3853
6989 11 3852 3851 3854
6990 11 3853 3851 3854
6991 14 3851 3854 3855
6992 11 3854 3855 3856
6993 11 3854 3855 3857
6994 15 3854 3855 3858
6995 10 3856 3855 3857
6996 11 3856 3855 3858
6997 11 3857 3855 3858
6998 14 3855 3858 3859
6999 11 3858 3859 3860
7000 11 3858 3859 3861
7001 15 3858 3859 3862
7002 10 3860 3859 3861
7003 11 3860 3859 3862
7004 11 3861 3859 3862
7005 16 3859 3862 477
7006 17 472 3863 3843
7007 10 3865 3864 3866
7008 11 3865 3864 3867
7009 12 3865 3864 3884
7010 11 3866 3864 3867
7011 12 3866 3864 3884
7012 13 3867 3864 3884
7013 14 3864 3867 3868
7014 11 3867 3868 3869
7015 11 3867 3868 3870
7016 15 3867 3868 3871
7017 10 3869 3868 3870
7018 11 3869 3868 3871
7019 11 3870 3868 3871
7020 14 3868 3871 3872
7021 11 3871 3872 3873
7022 11 3871 3872 3874
7023 15 3871 3872 3875
7024 10 3873 3872 3874
7025 11 3873 3872 3875
7026 11 3874 3872 3875
7027 14 3872 3875 3876
7028 11 3875 3876 3877
7029 11 3875 3876 3878
7030 15 3875 3876 3879
7031 10 3877 3876 3878
7032 11 3877 3876 3879
7033 11 3878 3876 3879
7034 14 3876 3879 3880
7035 11 3879 3880 3881
7036 11 3879 3880 3882
7037 15 3879 3880 3883
7038 10 3881 3880 3882
7039 11 3881 3880 3883
7040 11 3882 3880 3883
7041 16 3880 3883 497
7042 17 472 3884 3864
7043 10 3886 3885 3887
7044 11 3886 3885 3888
7045 12 3886 3885 3905
7046 11 3887 3885 3888
7047 12 3887 3885 3905
7048 13 3888 3885 3905
7049 14 3885 3888 3889
7050 11 3888 3889 3890
7051 11 3888 3889 3891
7052 15 3888 3889 3892
7053 10 3890 3889 3891
7054 11 3890 3889 3892
7055 11 3891 3889 3892
7056 14 3889 3892 3893
7057 11 3892 3893 3894
7058 11 3892 3893 3895
7059 15 3892 3893 3896
7060 10 3894 3893 3895
7061 11 3894 3893 3896
7062 11 3895 3893 3896
7063 14 3893 3896 3897
7064 11 3896 3897 3898
7065 11 3896 3897 3899
7066 15 3896 3897 3900
7067 10 3898 3897 3899
7068 11 3898 3897 3900
7069 11 3899 3897 3900
7070 14 3897 3900 3901
7071 11 3900 3901 3902
7072 11 3900 3901 3903
7073 15 3900 3901 3904
7074 10 3902 3901 3903
7075 11 3902 3901 3904
7076 11 3903 3901 3904
7077 16 3901 3904 476
7078 17 472 3905 3885
7079 10 3907 3906 3908
7080 11 3907 3906 3909
7081 12 3907 3906 3926
7082 11 3908 3906 3909
7083 12 3908 3906 3926
7084 13 3909 3906 3926
7085 14 3906 3909 3910
7086 11 3909 3910 3911
7087 11 3909 3910 3912
7088 15 3909 3910 3913
7089 10 3911 3910 3912
7090 11 3911 3910 3913
7091 11 3912 3910 3913
7092 14 3910 3913 3914
7093 11 3913 3914 3915
7094 11 3913 3914 3916
7095 15 3913 3914 3917
7096 10 3915 3914 3916
7097 11 3915 3914 3917
7098 11 3916 3914 3917
7099 14 3914 3917 3918
7100 11 3917 3918 3919
7101 11 3917 3918 3920
7102 15 3917 3918 3921
7103 10 3919 3918 3920
7104 11 3919 3918 3921
7105 11 3920 3918 3921
7106 14 3918 3921 3922
7107 11 3921 3922 3923
7108 11 3921 3922 3924
7109 15 3921 3922 3925
7110 10 3923 3922 3924
7111 11 3923 3922 3925
7112 11 3924 3922 3925
7113 16 3922 3925 474
7114 17 473 3926 3906
7115 10 3928 3927 3929
7116 11 3928 3927 3930
7117 12 3928 3927 3947
7118 11 3929 3927 3930
7119 12 3929 3927 3947
7120 13 3930 3927 3947
7121 14 3927 3930 3931
7122 11 3930 3931 3932
7123 11 3930 3931 3933
7124 15 3930 3931 3934
7125 10 3932 3931 3933
7126 11 3932 3931 3934
7127 11 3933 3931 3934
7128 14 3931 3934 3935
7129 11 3934 3935 3936
7130 11 3934 3935 3937
7131 15 3934 3935 3938
7132 10 3936 3935 3937
7133 11 3936 3935 3938
7134 11 3937 3935 3938
7135 14 3935 3938 3939
7136 11 3938 3939 3940
7137 11 3938 3939 3941
7138 15 3938 3939 3942
7139 10 3940 3939 3941
7140 11 3940 3939 3942
7141 11 3941 3939 3942
7142 14 3939 3942 3943
7143 11 3942 3943 3944
7144 11 3942 3943 3945
7145 15 3942 3943 3946
7146 10 3944 3943 3945
7147 11 3944 3943 3946
7148 11 3945 3943 3946
7149 16 3943 3946 498
7150 17 473 3947 3927
7151 10 3949 3948 3950
7152 11 3949 3948 3951
7153 12 3949 3948 3968
7154 11 3950 3948 3951
7155 12 3950 3948 3968
7156 13 3951 3948 3968
7157 14 3948 3951 3952
7158 11 3951 3952 3953
7159 11 3951 3952 3954
7160 15 3951 3952 3955
7161 10 3953 3952 3954
7162 11 3953 3952 3955
7163 11 3954 3952 3955
7164 14 3952 3955 3956
7165 11 3955 3956 3957
7166 11 3955 3956 3958
7167 15 3955 3956 3959
7168 10 3957 3956 3958
7169 11 3957 3956 3959
7170 11 3958 3956 3959
7171 14 3956 3959 3960
7172 11 3959 3960 3961
7173 11 3959 3960 3962
7174 15 3959 3960 3963
7175 10 3961 3960 3962
7176 11 3961 3960 3963
7177 11 3962 3960 3963
7178 14 3960 3963 3964
7179 11 3963 3964 3965
7180 11 3963 3964 3966
7181 15 3963 3964 3967
7182 10 3965 3964 3966
7183 11 3965 3964 3967
7184 11 3966 3964 3967
7185 16 3964 3967 479
7186 17 474 3968 3948
7187 10 3970 3969 3971
7188 11 3970 3969 3972
7189 12 3970 3969 3989
7190 11 3971 3969 3972
7191 12 3971 3969 3989
7192 13 3972 3969 3989
7193 14 3969 3972 3973
7194 11 3972 3973 3974
7195 11 3972 3973 3975
7196 15 3972 3973 3976
7197 10 3974 3973 3975
7198 11 3974 3973 3976
7199 11 3975 3973 3976
7200 14 3973 3976 3977
7201 11 3976 3977 3978
7202 11 3976 3977 3979
7203 15 3976 3977 3980
7204 10 3978 3977 3979
7205 11 3978 3977 3980
7206 11 3979 3977 3980
7207 14 3977 3980 3981
7208 11 3980 3981 3982
7209 11 3980 3981 3983
7210 15 3980 3981 3984
7211 10 3982 3981 3983
7212 11 3982 3981 3984
7213 11 3983 3981 3984
7214 14 3981 3984 3985
7215 11 3984 3985 3986
7216 11 3984 3985 3987
7217 15 3984 3985 3988
7218 10 3986 3985 3987
7219 11 3986 3985 3988
7220 11 3987 3985 3988
7221 16 3985 3988 476
7222 17 475 3989 3969
7223 10 3991 3990 3992
7224 11 3991 3990 3993
7225 12 3991 3990 4010
7226 11 3992 3990 3993
7227 12 3992 3990 4010
7228 13 3993 3990 4010
7229 14 3990 3993 3994
7230 11 3993 3994 3995
7231 11 3993 3994 3996
7232 15 3993 3994 3997
7233 10 3995 3994 3996
7234 11 3995 3994 3997
7235 11 3996 3994 3997
7236 14 3994 3997 3998
7237 11 3997 3998 3999
7238 11 3997 3998 4000
7239 15 3997 3998 4001
7240 10 3999 3998 4000
7241 11 3999 3998 4001
7242 11 4000 3998 4001
7243 14 3998 4001 4002
7244 11 4001 4002 4003
7245 11 4001 4002 4004
7246 15 4001 4002 4005
7247 10 4003 4002 4004
7248 11 4003 4002 4005
7249 11 4004 4002 4005
7250 14 4002 4005 4006
7251 11 4005 4006 4007
7252 11 4005 4006 4008
7253 15 4005 4006 4009
7254 10 4007 4006 4008
7255 11 4007 4006 4009
7256 11 4008 4006 4009
7257 16 4006 4009 480
7258 17 475 4010 3990
7259 10 4012 4011 4013
7260 11 4012 4011 4014
7261 12 4012 4011 4031
7262 11 4013 4011 4014
7263 12 4013 4011 4031
7264 13 4014 4011 4031
7265 14 4011 4014 4015
7266 11 4014 4015 4016
7267 11 4014 4015 4017
7268 15 4014 4015 4018
7269 10 4016 4015 4017
7270 11 4016 4015 4018
7271 11 4017 4015 4018
7272 14 4015 4018 4019
7273 11 4018 4019 4020
7274 11 4018 4019 4021
7275 15 4018 4019 4022
7276 10 4020 4019 4021
7277 11 4020 4019 4022
7278 11 4021 4019 4022
7279 14 4019 4022 4023
7280 11 4022 4023 4024
7281 11 4022 4023 4025
7282 15 4022 4023 4026
7283 10 4024 4023 4025
7284 11 4024 4023 4026
7285 11 4025 4023 4026
7286 14 4023 4026 4027
7287 11 4026 4027 4028
7288 11 4026 4027 4029
7289 15 4026 4027 4030
7290 10 4028 4027 4029
7291 11 4028 4027 4030
7292 11 4029 4027 4030
7293 16 4027 4030 501
7294 17 476 4031 4011
7295 10 4033 4032 4034
7296 11 4033 4032 4035
7297 12 4033 4032 4052
7298 11 4034 4032 4035
7299 12 4034 4032 4052
7300 13 4035 4032 4052
7301 14 4032 4035 4036
7302 11 4035 4036 4037
7303 11 4035 4036 4038
7304 15 4035 4036 4039
7305 10 4037 4036 4038
7306 11 4037 4036 4039
7307 11 4038 4036 4039
7308 14 4036 4039 4040
7309 11 4039 4040 4041
7310 11 4039 4040 4042
7311 15 4039 4040 4043
7312 10 4041 4040 4042
7313 11 4041 4040 4043
7314 11 4042 4040 4043
7315 14 4040 4043 4044
7316 11 4043 4044 4045
7317 11 4043 4044 4046
7318 15 4043 4044 4047
7319 10 4045 4044 4046
7320 11 4045 4044 4047
7321 11 4046 4044 4047
7322 14 4044 4047 4048
7323 11 4047 4048 4049
7324 11 4047 4048 4050
7325 15 4047 4048 4051
7326 10 4049 4048 4050
7327 11 4049 4048 4051
7328 11 4050 4048 4051
7329 16 4048 4051 478
7330 17 477 4052 4032
7331 10 4054 4053 4055
7332 11 4054 4053 4056
7333 12 4054 4053 4073
7334 11 4055 4053 4056
7335 12 4055 4053 4073
7336 13 4056 4053 4073
7337 14 4053 4056 4057
7338 11 4056 4057 4058
7339 11 4056 4057 4059
7340 15 4056 4057 4060
7341 10 4058 4057 4059
7342 11 4058 4057 4060
7343 11 4059 4057 4060
7344 14 4057 4060 4061
7345 11 4060 4061 4062
7346 11 4060 4061 4063
7347 15 4060 4061 4064
7348 10 4062 4061 4063
7349 11 4062 4061 4064
7350 11 4063 4061 4064
7351 14 4061 4064 4065
7352 11 4064 4065 4066
7353 11 4064 4065 4067
7354 15 4064 4065 4068
7355 10 4066 4065 4067
7356 11 4066 4065 4068
7357 11 4067 4065 4068
7358 14 4065 4068 4069
7359 11 4068 4069 4070
7360 11 4068 4069 4071
7361 15 4068 4069 4072
7362 10 4070 4069 4071
7363 11 4070 4069 4072
7364 11 4071 4069 4072
7365 16 4069 4072 481
7366 17 477 4073 4053
7367 10 4075 4074 4076
7368 11 4075 4074 4077
7369 12 4075 4074 4094
7370 11 4076 4074 4077
7371 12 4076 4074 4094
7372 13 4077 4074 4094
7373 14 4074 4077 4078
7374 11 4077 4078 4079
7375 11 4077 4078 4080
7376 15 4077 4078 4081
7377 10 4079 4078 4080
7378 11 4079 4078 4081
7379 11 4080 4078 4081
7380 14 4078 4081 4082
7381 11 4081 4082 4083
7382 11 4081 4082 4084
7383 15 4081 4082 4085
7384 10 4083 4082 4084
7385 11 4083 4082 4085
7386 11 4084 4082 4085
7387 14 4082 4085 4086
7388 11 4085 4086 4087
7389 11 4085 4086 4088
7390 15 4085 4086 4089
7391 10 4087 4086 4088
7392 11 4087 4086 4089
7393 11 4088 4086 4089
7394 14 4086 4089 4090
7395 11 4089 4090 4091
7396 11 4089 4090 4092
7397 15 4089 4090 4093
7398 10 4091 4090 4092
7399 11 4091 4090 4093
7400 11 4092 4090 4093
7401 16 4090 4093 483
7402 17 478 4094 4074
7403 10 4096 4095 4097
7404 11 4096 4095 4098
7405 12 4096 4095 4115
7406 11 4097 4095 4098
7407 12 4097 4095 4115
7408 13 4098 4095 4115
7409 14 4095 4098 4099
7410 11 4098 4099 4100
7411 11 4098 4099 4101
7412 15 4098 4099 4102
7413 10 4100 4099 4101
7414 11 4100 4099 4102
7415 11 4101 4099 4102
7416 14 4099 4102 4103
7417 11 4102 4103 4104
7418 11 4102 4103 4105
7419 15 4102 4103 4106
7420 10 4104 4103 4105
7421 11 4104 4103 4106
7422 11 4105 4103 4106
7423 14 4103 4106 4107
7424 11 4106 4107 4108
7425 11 4106 4107 4109
7426 15 4106 4107 4110
7427 10 4108 4107 4109
7428 11 4108 4107 4110
7429 11 4109 4107 4110
7430 14 4107 4110 4111
7431 11 4110 4111 4112
7432 11 4110 4111 4113
7433 15 4110 4111 4114
7434 10 4112 4111 4113
7435 11 4112 4111 4114
7436 11 4113 4111 4114
7437 16 4111 4114 581
7438 17 478 4115 4095
7439 10 4117 4116 4118
7440 11 4117 4116 4119
7441 12 4117 4116 4136
7442 11 4118 4116 4119
7443 12 4118 4116 4136
7444 13 4119 4116 4136
7445 14 4116 4119 4120
7446 11 4119 4120 4121
7447 11 4119 4120 4122
7448 15 4119 4120 4123
7449 10 4121 4120 4122
7450 11 4121 4120 4123
7451 11 4122 4120 4123
7452 14 4120 4123 4124
7453 11 4123 4124 4125
7454 11 4123 4124 4126
7455 15 4123 4124 4127
7456 10 4125 4124 4126
7457 11 4125 4124 4127
7458 11 4126 4124 4127
7459 14 4124 4127 4128
7460 11 4127 4128 4129
7461 11 4127 4128 4130
7462 15 4127 4128 4131
7463 10 4129 4128 4130
7464 11 4129 4128 4131
7465 11 4130 4128 4131
7466 14 4128 4131 4132
7467 11 4131 4132 4133
7468 11 4131 4132 4134
7469 15 4131 4132 4135
7470 10 4133 4132 4134
7471 11 4133 4132 4135
7472 11 4134 4132 4135
7473 16 4132 4135 582
7474 17 479 4136 4116
7475 10 4138 4137 4139
7476 11 4138 4137 4140
7477 12 4138 4137 4157
7478 11 4139 4137 4140
7479 12 4139 4137 4157
7480 13 4140 4137 4157
7481 14 4137 4140 4141
7482 11 4140 4141 4142
7483 11 4140 4141 4143
7484 15 4140 4141 4144
7485 10 4142 4141 4143
7486 11 4142 4141 4144
7487 11 4143 4141 4144
7488 14 4141 4144 4145
7489 11 4144 4145 4146
7490 11 4144 4145 4147
7491 15 4144 4145 4148
7492 10 4146 4145 4147
7493 11 4146 4145 4148
7494 11 4147 4145 4148
7495 14 4145 4148 4149
7496 11 4148 4149 4150
7497 11 4148 4149 4151
7498 15 4148 4149 4152
7499 10 4150 4149 4151
7500 11 4150 4149 4152
7501 11 4151 4149 4152
7502 14 4149 4152 4153
7503 11 4152 4153 4154
7504 11 4152 4153 4155
7505 15 4152 4153 4156
7506 10 4154 4153 4155
7507 11 4154 4153 4156
7508 11 4155 4153 4156
7509 16 4153 4156 481
7510 17 480 4157 4137
7511 10 4159 4158 4160
7512 11 4159 4158 4161
7513 12 4159 4158 4178
7514 11 4160 4158 4161
7515 12 4160 4158 4178
7516 13 4161 4158 4178
7517 14 4158 4161 4162
7518 11 4161 4162 4163
7519 11 4161 4162 4164
7520 15 4161 4162 4165
7521 10 4163 4162 4164
7522 11 4163 4162 4165
7523 11 4164 4162 4165
7524 14 4162 4165 4166
7525 11 4165 4166 4167
7526 11 4165 4166 4168
7527 15 4165 4166 4169
7528 10 4167 4166 4168
7529 11 4167 4166 4169
7530 11 4168 4166 4169
7531 14 4166 4169 4170
7532 11 4169 4170 4171
7533 11 4169 4170 4172
7534 15 4169 4170 4173
7535 10 4171 4170 4172
7536 11 4171 4170 4173
7537 11 4172 4170 4173
7538 14 4170 4173 4174
7539 11 4173 4174 4175
7540 11 4173 4174 4176
7541 15 4173 4174 4177
7542 10 4175 4174 4176
7543 11 4175 4174 4177
7544 11 4176 4174 4177
7545 16 4174 4177 485
7546 17 480 4178 4158
7547 10 4180 4179 4181
7548 11 4180 4179 4182
7549 12 4180 4179 4199
7550 11 4181 4179 4182
7551 12 4181 4179 4199
7552 13 4182 4179 4199
7553 14 4179 4182 4183
7554 11 4182 4183 4184
7555 11 4182 4183 4185
7556 15 4182 4183 4186
7557 10 4184 4183 4185
7558 11 4184 4183 4186
7559 11 4185 4183 4186
7560 14 4183 4186 4187
7561 11 4186 4187 4188
7562 11 4186 4187 4189
7563 15 4186 4187 4190
7564 10 4188 4187 4189
7565 11 4188 4187 4190
7566 11 4189 4187 4190
7567 14 4187 4190 4191
7568 11 4190 4191 4192
7569 11 4190 4191 4193
7570 15 4190 4191 4194
7571 10 4192 4191 4193
7572 11 4192 4191 4194
7573 11 4193 4191 4194
7574 14 4191 4194 4195
7575 11 4194 4195 4196
7576 11 4194 4195 4197
7577 15 4194 4195 4198
7578 10 4196 4195 4197
7579 11 4196 4195 4198
7580 11 4197 4195 4198
7581 16 4195 4198 583
7582 17 480 4199 4179
7583 10 4201 4200 4202
7584 11 4201 4200 4203
7585 12 4201 4200 4220
7586 11 4202 4200 4203
7587 12 4202 4200 4220
7588 13 4203 4200 4220
7589 14 4200 4203 4204
7590 11 4203 4204 4205
7591 11 4203 4204 4206
7592 15 4203 4204 4207
7593 10 4205 4204 4206
7594 11 4205 4204 4207
7595 11 4206 4204 4207
7596 14 4204 4207 4208
7597 11 4207 4208 4209
7598 11 4207 4208 4210
7599 15 4207 4208 4211
7600 10 4209 4208 4210
7601 11 4209 4208 4211
7602 11 4210 4208 4211
7603 14 4208 4211 4212
7604 11 4211 4212 4213
7605 11 4211 4212 4214
7606 15 4211 4212 4215
7607 10 4213 4212 4214
7608 11 4213 4212 4215
7609 11 4214 4212 4215
7610 14 4212 4215 4216
7611 11 4215 4216 4217
7612 11 4215 4216 4218
7613 15 4215 4216 4219
7614 10 4217 4216 4218
7615 11 4217 4216 4219
7616 11 4218 4216 4219
7617 16 4216 4219 584
7618 17 481 4220 4200
7619 10 4222 4221 4223
7620 11 4222 4221 4224
7621 12 4222 4221 4241
7622 11 4223 4221 4224
7623 12 4223 4221 4241
7624 13 4224 4221 4241
7625 14 4221 4224 4225
7626 11 4224 4225 4226
7627 11 4224 4225 4227
7628 15 4224 4225 4228
7629 10 4226 4225 4227
7630 11 4226 4225 4228
7631 11 4227 4225 4228
7632 14 4225 4228 4229
7633 11 4228 4229 4230
7634 11 4228 4229 4231
7635 15 4228 4229 4232
7636 10 4230 4229 4231
7637 11 4230 4229 4232
7638 11 4231 4229 4232
7639 14 4229 4232 4233
7640 11 4232 4233 4234
7641 11 4232 4233 4235
7642 15 4232 4233 4236
7643 10 4234 4233 4235
7644 11 4234 4233 4236
7645 11 4235 4233 4236
7646 14 4233 4236 4237
7647 11 4236 4237 4238
7648 11 4236 4237 4239
7649 15 4236 4237 4240
7650 10 4238 4237 4239
7651 11 4238 4237 4240
7652 11 4239 4237 4240
7653 16 4237 4240 483
7654 17 482 4241 4221
7655 10 4243 4242 4244
7656 11 4243 4242 4245
7657 12 4243 4242 4262
7658 11 4244 4242 4245
7659 12 4244 4242 4262
7660 13 4245 4242 4262
7661 14 4242 4245 4246
7662 11 4245 4246 4247
7663 11 4245 4246 4248
7664 15 4245 4246 4249
7665 10 4247 4246 4248
7666 11 4247 4246 4249
7667 11 4248 4246 4249
7668 14 4246 4249 4250
7669 11 4249 4250 4251
7670 11 4249 4250 4252
7671 15 4249 4250 4253
7672 10 4251 4250 4252
7673 11 4251 4250 4253
7674 11 4252 4250 4253
7675 14 4250 4253 4254
7676 11 4253 4254 4255
7677 11 4253 4254 4256
7678 15 4253 4254 4257
7679 10 4255 4254 4256
7680 11 4255 4254 4257
7681 11 4256 4254 4257
7682 14 4254 4257 4258
7683 11 4257 4258 4259
7684 11 4257 4258 4260
7685 15 4257 4258 4261
7686 10 4259 4258 4260
7687 11 4259 4258 4261
7688 11 4260 4258 4261
7689 16 4258 4261 585
7690 17 482 4262 4242
7691 10 4264 4263 4265
7692 11 4264 4263 4266
7693 12 4264 4263 4283
7694 11 4265 4263 4266
7695 12 4265 4263 4283
7696 13 4266 4263 4283
7697 14 4263 4266 4267
7698 11 4266 4267 4268
7699 11 4266 4267 4269
7700 15 4266 4267 4270
7701 10 4268 4267 4269
7702 11 4268 4267 4270
7703 11 4269 4267 4270
7704 14 4267 4270 4271
7705 11 4270 4271 4272
7706 11 4270 4271 4273
7707 15 4270 4271 4274
7708 10 4272 4271 4273
7709 11 4272 4271 4274
7710 11 4273 4271 4274
7711 14 4271 4274 4275
7712 11 4274 4275 4276
7713 11 4274 4275 4277
7714 15 4274 4275 4278
7715 10 4276 4275 4277
7716 11 4276 4275 4278
7717 11 4277 4275 4278
7718 14 4275 4278 4279
7719 11 4278 4279 4280
7720 11 4278 4279 4281
7721 15 4278 4279 4282
7722 10 4280 4279 4281
7723 11 4280 4279 4282
7724 11 4281 4279 4282
7725 16 4279 4282 486
7726 17 482 4283 4263
7727 10 4285 4284 4286
7728 11 4285 4284 4287
7729 12 4285 4284 4304
7730 11 4286 4284 4287
7731 12 4286 4284 4304
7732 13 4287 4284 4304
7733 14 4284 4287 4288
7734 11 4287 4288 4289
7735 11 4287 4288 4290
7736 15 4287 4288 4291
7737 10 4289 4288 4290
7738 11 4289 4288 4291
7739 11 4290 4288 4291
7740 14 4288 4291 4292
7741 11 4291 4292 4293
7742 11 4291 4292 4294
7743 15 4291 4292 4295
7744 10 4293 4292 4294
7745 11 4293 4292 4295
7746 11 4294 4292 4295
7747 14 4292 4295 4296
7748 11 4295 4296 4297
7749 11 4295 4296 4298
7750 15 4295 4296 4299
7751 10 4297 4296 4298
7752 11 4297 4296 4299
7753 11 4298 4296 4299
7754 14 4296 4299 4300
7755 11 4299 4300 4301
7756 11 4299 4300 4302
7757 15 4299 4300 4303
7758 10 4301 4300 4302
7759 11 4301 4300 4303
7760 11 4302 4300 4303
7761 16 4300 4303 586
7762 17 483 4304 4284
7763 10 4306 4305 4307
7764 11 4306 4305 4308
7765 12 4306 4305 4325
7766 11 4307 4305 4308
7767 12 4307 4305 4325
7768 13 4308 4305 4325
7769 14 4305 4308 4309
7770 11 4308 4309 4310
7771 11 4308 4309 4311
7772 15 4308 4309 4312
7773 10 4310 4309 4311
7774 11 4310 4309 4312
7775 11 4311 4309 4312
7776 14 4309 4312 4313
7777 11 4312 4313 4314
7778 11 4312 4313 4315
7779 15 4312 4313 4316
7780 10 4314 4313 4315
7781 11 4314 4313 4316
7782 11 4315 4313 4316
7783 14 4313 4316 4317
7784 11 4316 4317 4318
7785 11 4316 4317 4319
7786 15 4316 4317 4320
7787 10 4318 4317 4319
7788 11 4318 4317 4320
7789 11 4319 4317 4320
7790 14 4317 4320 4321
7791 11 4320 4321 4322
7792 11 4320 4321 4323
7793 15 4320 4321 4324
7794 10 4322 4321 4323
7795 11 4322 4321 4324
7796 11 4323 4321 4324
7797 16 4321 4324 485
7798 17 484 4325 4305
7799 10 4327 4326 4328
7800 11 4327 4326 4329
7801 12 4327 4326 4346
7802 11 4328 4326 4329
7803 12 4328 4326 4346
7804 13 4329 4326 4346
7805 14 4326 4329 4330
7806 11 4329 4330 4331
7807 11 4329 4330 4332
7808 15 4329 4330 4333
7809 10 4331 4330 4332
7810 11 4331 4330 4333
7811 11 4332 4330 4333
7812 14 4330 4333 4334
7813 11 4333 4334 4335
7814 11 4333 4334 4336
7815 15 4333 4334 4337
7816 10 4335 4334 4336
7817 11 4335 4334 4337
7818 11 4336 4334 4337
7819 14 4334 4337 4338
7820 11 4337 4338 4339
7821 11 4337 4338 4340
7822 15 4337 4338 4341
7823 10 4339 4338 4340
7824 11 4339 4338 4341
7825 11 4340 4338 4341
7826 14 4338 4341 4342
7827 11 4341 4342 4343
7828 11 4341 4342 4344
7829 15 4341 4342 4345
7830 10 4343 4342 4344
7831 11 4343 4342 4345
7832 11 4344 4342 4345
7833 16 4342 4345 587
7834 17 484 4346 4326
7835 10 4348 4347 4349
7836 11 4348 4347 4350
7837 12 4348 4347 4367
7838 11 4349 4347 4350
7839 12 4349 4347 4367
7840 13 4350 4347 4367
7841 14 4347 4350 4351
7842 11 4350 4351 4352
7843 11 4350 4351 4353
7844 15 4350 4351 4354
7845 10 4352 4351 4353
7846 11 4352 4351 4354
7847 11 4353 4351 4354
7848 14 4351 4354 4355
7849 11 4354 4355 4356
7850 11 4354 4355 4357
7851 15 4354 4355 4358
7852 10 4356 4355 4357
7853 11 4356 4355 4358
7854 11 4357 4355 4358
7855 14 4355 4358 4359
7856 11 4358 4359 4360
7857 11 4358 4359 4361
7858 15 4358 4359 4362
7859 10 4360 4359 4361
7860 11 4360 4359 4362
7861 11 4361 4359 4362
7862 14 4359 4362 4363
7863 11 4362 4363 4364
7864 11 4362 4363 4365
7865 15 4362 4363 4366
7866 10 4364 4363 4365
7867 11 4364 4363 4366
7868 11 4365 4363 4366
7869 16 4363 4366 588
7870 17 485 4367 4347
7871 10 4369 4368 4370
7872 11 4369 4368 4371
7873 12 4369 4368 4388
7874 11 4370 4368 4371
7875 12 4370 4368 4388
7876 13 4371 4368 4388
7877 14 4368 4371 4372
7878 11 4371 4372 4373
7879 11 4371 4372 4374
7880 15 4371 4372 4375
7881 10 4373 4372 4374
7882 11 4373 4372 4375
7883 11 4374 4372 4375
7884 14 4372 4375 4376
7885 11 4375 4376 4377
7886 11 4375 4376 4378
7887 15 4375 4376 4379
7888 10 4377 4376 4378
7889 11 4377 4376 4379
7890 11 4378 4376 4379
7891 14 4376 4379 4380
7892 11 4379 4380 4381
7893 11 4379 4380 4382
7894 15 4379 4380 4383
7895 10 4381 4380 4382
7896 11 4381 4380 4383
7897 11 4382 4380 4383
7898 14 4380 4383 4384
7899 11 4383 4384 4385
7900 11 4383 4384 4386
7901 15 4383 4384 4387
7902 10 4385 4384 4386
7903 11 4385 4384 4387
7904 11 4386 4384 4387
7905 16 4384 4387 488
7906 17 487 4388 4368
7907 10 4390 4389 4391
7908 11 4390 4389 4392
7909 12 4390 4389 4409
7910 11 4391 4389 4392
7911 12 4391 4389 4409
7912 13 4392 4389 4409
7913 14 4389 4392 4393
7914 11 4392 4393 4394
7915 11 4392 4393 4395
7916 15 4392 4393 4396
7917 10 4394 4393 4395
7918 11 4394 4393 4396
7919 11 4395 4393 4396
7920 14 4393 4396 4397
7921 11 4396 4397 4398
7922 11 4396 4397 4399
7923 15 4396 4397 4400
7924 10 4398 4397 4399
7925 11 4398 4397 4400
7926 11 4399 4397 4400
7927 14 4397 4400 4401
7928 11 4400 4401 4402
7929 11 4400 4401 4403
7930 15 4400 4401 4404
7931 10 4402 4401 4403
7932 11 4402 4401 4404
7933 11 4403 4401 4404
7934 14 4401 4404 4405
7935 11 4404 4405 4406
7936 11 4404 4405 4407
7937 15 4404 4405 4408
7938 10 4406 4405 4407
7939 11 4406 4405 4408
7940 11 4407 4405 4408
7941 16 4405 4408 491
7942 17 487 4409 4389
7943 10 4411 4410 4412
7944 11 4411 4410 4413
7945 12 4411 4410 4430
7946 11 4412 4410 4413
7947 12 4412 4410 4430
7948 13 4413 4410 4430
7949 14 4410 4413 4414
7950 11 4413 4414 4415
7951 11 4413 4414 4416
7952 15 4413 4414 4417
7953 10 4415 4414 4416
7954 11 4415 4414 4417
7955 11 4416 4414 4417
7956 14 4414 4417 4418
7957 11 4417 4418 4419
7958 11 4417 4418 4420
7959 15 4417 4418 4421
7960 10 4419 4418 4420
7961 11 4419 4418 4421
7962 11 4420 4418 4421
7963 14 4418 4421 4422
7964 11 4421 4422 4423
7965 11 4421 4422 4424
7966 15 4421 4422 4425
7967 10 4423 4422 4424
7968 11 4423 4422 4425
7969 11 4424 4422 4425
7970 14 4422 4425 4426
7971 11 4425 4426 4427
7972 11 4425 4426 4428
7973 15 4425 4426 4429
7974 10 4427 4426 4428
7975 11 4427 4426 4429
7976 11 4428 4426 4429
7977 16 4426 4429 585
7978 17 487 4430 4410
7979 10 4432 4431 4433
7980 11 4432 4431 4434
7981 12 4432 4431 4451
7982 11 4433 4431 4434
7983 12 4433 4431 4451
7984 13 4434 4431 4451
7985 14 4431 4434 4435
7986 11 4434 4435 4436
7987 11 4434 4435 4437
7988 15 4434 4435 4438
7989 10 4436 4435 4437
7990 11 4436 4435 4438
7991 11 4437 4435 4438
7992 14 4435 4438 4439
7993 11 4438 4439 4440
7994 11 4438 4439 4441
7995 15 4438 4439 4442
7996 10 4440 4439 4441
7997 11 4440 4439 4442
7998 11 4441 4439 4442
7999 14 4439 4442 4443
8000 11 4442 4443 4444
8001 11 4442 4443 4445
8002 15 4442 4443 4446
8003 10 4444 4443 4445
8004 11 4444 4443 4446
8005 11 4445 4443 4446
8006 14 4443 4446 4447
8007 11 4446 4447 4448
8008 11 4446 4447 4449
8009 15 4446 4447 4450
8010 10 4448 4447 4449
8011 11 4448 4447 4450
8012 11 4449 4447 4450
8013 16 4447 4450 493
8014 17 488 4451 4431
8015 10 4453 4452 4454
8016 11 4453 4452 4455
8017 12 4453 4452 4472
8018 11 4454 4452 4455
8019 12 4454 4452 4472
8020 13 4455 4452 4472
8021 14 4452 4455 4456
8022 11 4455 4456 4457
8023 11 4455 4456 4458
8024 15 4455 4456 4459
8025 10 4457 4456 4458
8026 11 4457 4456 4459
8027 11 4458 4456 4459
8028 14 4456 4459 4460
8029 11 4459 4460 4461
8030 11 4459 4460 4462
8031 15 4459 4460 4463
8032 10 4461 4460 4462
8033 11 4461 4460 4463
8034 11 4462 4460 4463
8035 14 4460 4463 4464
8036 11 4463 4464 4465
8037 11 4463 4464 4466
8038 15 4463 4464 4467
8039 10 4465 4464 4466
8040 11 4465 4464 4467
8041 11 4466 4464 4467
8042 14 4464 4467 4468
8043 11 4467 4468 4469
8044 11 4467 4468 4470
8045 15 4467 4468 4471
8046 10 4469 4468 4470
8047 11 4469 4468 4471
8048 11 4470 4468 4471
8049 16 4468 4471 586
8050 17 488 4472 4452
8051 10 4474 4473 4475
8052 11 4474 4473 4476
8053 12 4474 4473 4493
8054 11 4475 4473 4476
8055 12 4475 4473 4493
8056 13 4476 4473 4493
8057 14 4473 4476 4477
8058 11 4476 4477 4478
8059 11 4476 4477 4479
8060 15 4476 4477 4480
8061 10 4478 4477 4479
8062 11 4478 4477 4480
8063 11 4479 4477 4480
8064 14 4477 4480 4481
8065 11 4480 4481 4482
8066 11 4480 4481 4483
8067 15 4480 4481 4484
8068 10 4482 4481 4483
8069 11 4482 4481 4484
8070 11 4483 4481 4484
8071 14 4481 4484 4485
8072 11 4484 4485 4486
8073 11 4484 4485 4487
8074 15 4484 4485 4488
8075 10 4486 4485 4487
8076 11 4486 4485 4488
8077 11 4487 4485 4488
8078 14 4485 4488 4489
8079 11 4488 4489 4490
8080 11 4488 4489 4491
8081 15 4488 4489 4492
8082 10 4490 4489 4491
8083 11 4490 4489 4492
8084 11 4491 4489 4492
8085 16 4489 4492 490
8086 17 489 4493 4473
8087 10 4495 4494 4496
8088 11 4495 4494 4497
8089 12 4495 4494 4514
8090 11 4496 4494 4497
8091 12 4496 4494 4514
8092 13 4497 4494 4514
8093 14 4494 4497 4498
8094 11 4497 4498 4499
8095 11 4497 4498 4500
8096 15 4497 4498 4501
8097 10 4499 4498 4500
8098 11 4499 4498 4501
8099 11 4500 4498 4501
8100 14 4498 4501 4502
8101 11 4501 4502 4503
8102 11 4501 4502 4504
8103 15 4501 4502 4505
8104 10 4503 4502 4504
8105 11 4503 4502 4505
8106 11 4504 4502 4505
8107 14 4502 4505 4506
8108 11 4505 4506 4507
8109 11 4505 4506 4508
8110 15 4505 4506 4509
8111 10 4507 4506 4508
8112 11 4507 4506 4509
8113 11 4508 4506 4509
8114 14 4506 4509 4510
8115 11 4509 4510 4511
8116 11 4509 4510 4512
8117 15 4509 4510 4513
8118 10 4511 4510 4512
8119 11 4511 4510 4513
8120 11 4512 4510 4513
8121 16 4510 4513 494
8122 17 489 4514 4494
8123 10 4516 4515 4517
8124 11 4516 4515 4518
8125 12 4516 4515 4535
8126 11 4517 4515 4518
8127 12 4517 4515 4535
8128 13 4518 4515 4535
8129 14 4515 4518 4519
8130 11 4518 4519 4520
8131 11 4518 4519 4521
8132 15 4518 4519 4522
8133 10 4520 4519 4521
8134 11 4520 4519 4522
8135 11 4521 4519 4522
8136 14 4519 4522 4523
8137 11 4522 4523 4524
8138 11 4522 4523 4525
8139 15 4522 4523 4526
8140 10 4524 4523 4525
8141 11 4524 4523 4526
8142 11 4525 4523 4526
8143 14 4523 4526 4527
8144 11 4526 4527 4528
8145 11 4526 4527 4529
8146 15 4526 4527 4530
8147 10 4528 4527 4529
8148 11 4528 4527 4530
8149 11 4529 4527 4530
8150 14 4527 4530 4531
8151 11 4530 4531 4532
8152 11 4530 4531 4533
8153 15 4530 4531 4534
8154 10 4532 4531 4533
8155 11 4532 4531 4534
8156 11 4533 4531 4534
8157 16 4531 4534 491
8158 17 490 4535 4515
8159 10 4537 4536 4538
8160 11 4537 4536 4539
8161 12 4537 4536 4556
8162 11 4538 4536 4539
8163 12 4538 4536 4556
8164 13 4539 4536 4556
8165 14 4536 4539 4540
8166 11 4539 4540 4541
8167 11 4539 4540 4542
8168 15 4539 4540 4543
8169 10 4541 4540 4542
8170 11 4541 4540 4543
8171 11 4542 4540 4543
8172 14 4540 4543 4544
8173 11 4543 4544 4545
8174 11 4543 4544 4546
8175 15 4543 4544 4547
8176 10 4545 4544 4546
8177 11 4545 4544 4547
8178 11 4546 4544 4547
8179 14 4544 4547 4548
8180 11 4547 4548 4549
8181 11 4547 4548 4550
8182 15 4547 4548 4551
8183 10 4549 4548 4550
8184 11 4549 4548 4551
8185 11 4550 4548 4551
8186 14 4548 4551 4552
8187 11 4551 4552 4553
8188 11 4551 4552 4554
8189 15 4551 4552 4555
8190 10 4553 4552 4554
8191 11 4553 4552 4555
8192 11 4554 4552 4555
8193 16 4552 4555 495
8194 17 490 4556 4536
8195 10 4558 4557 4559
8196 11 4558 4557 4560
8197 12 4558 4557 4577
8198 11 4559 4557 4560
8199 12 4559 4557 4577
8200 13 4560 4557 4577
8201 14 4557 4560 4561
8202 11 4560 4561 4562
8203 11 4560 4561 4563
8204 15 4560 4561 4564
8205 10 4562 4561 4563
8206 11 4562 4561 4564
8207 11 4563 4561 4564
8208 14 4561 4564 4565
8209 11 4564 4565 4566
8210 11 4564 4565 4567
8211 15 4564 4565 4568
8212 10 4566 4565 4567
8213 11 4566 4565 4568
8214 11 4567 4565 4568
8215 14 4565 4568 4569
8216 11 4568 4569 4570
8217 11 4568 4569 4571
8218 15 4568 4569 4572
8219 10 4570 4569 4571
8220 11 4570 4569 4572
8221 11 4571 4569 4572
8222 14 4569 4572 4573
8223 11 4572 4573 4574
8224 11 4572 4573 4575
8225 15 4572 4573 4576
8226 10 4574 4573 4575
8227 11 4574 4573 4576
8228 11 4575 4573 4576
8229 16 4573 4576 589
8230 17 491 4577 4557
8231 10 4579 4578 4580
8232 11 4579 4578 4581
8233 12 4579 4578 4598
8234 11 4580 4578 4581
8235 12 4580 4578 4598
8236 13 4581 4578 4598
8237 14 4578 4581 4582
8238 11 4581 4582 4583
8239 11 4581 4582 4584
8240 15 4581 4582 4585
8241 10 4583 4582 4584
8242 11 4583 4582 4585
8243 11 4584 4582 4585
8244 14 4582 4585 4586
8245 11 4585 4586 4587
8246 11 4585 4586 4588
8247 15 4585 4586 4589
8248 10 4587 4586 4588
8249 11 4587 4586 4589
8250 11 4588 4586 4589
8251 14 4586 4589 4590
8252 11 4589 4590 4591
8253 11 4589 4590 4592
8254 15 4589 4590 4593
8255 10 4591 4590 4592
8256 11 4591 4590 4593
8257 11 4592 4590 4593
8258 14 4590 4593 4594
8259 11 4593 4594 4595
8260 11 4593 4594 4596
8261 15 4593 4594 4597
8262 10 4595 4594 4596
8263 11 4595 4594 4597
8264 11 4596 4594 4597
8265 16 4594 4597 497
8266 17 492 4598 4578
8267 10 4600 4599 4601
8268 11 4600 4599 4602
8269 12 4600 4599 4619
8270 11 4601 4599 4602
8271 12 4601 4599 4619
8272 13 4602 4599 4619
8273 14 4599 4602 4603
8274 11 4602 4603 4604
8275 11 4602 4603 4605
8276 15 4602 4603 4606
8277 10 4604 4603 4605
8278 11 4604 4603 4606
8279 11 4605 4603 4606
8280 14 4603 4606 4607
8281 11 4606 4607 4608
8282 11 4606 4607 4609
8283 15 4606 4607 4610
8284 10 4608 4607 4609
8285 11 4608 4607 4610
8286 11 4609 4607 4610
8287 14 4607 4610 4611
8288 11 4610 4611 4612
8289 11 4610 4611 4613
8290 15 4610 4611 4614
8291 10 4612 4611 4613
8292 11 4612 4611 4614
8293 11 4613 4611 4614
8294 14 4611 4614 4615
8295 11 4614 4615 4616
8296 11 4614 4615 4617
8297 15 4614 4615 4618
8298 10 4616 4615 4617
8299 11 4616 4615 4618
8300 11 4617 4615 4618
8301 16 4615 4618 496
8302 17 492 4619 4599
8303 10 4621 4620 4622
8304 11 4621 4620 4623
8305 12 4621 4620 4640
8306 11 4622 4620 4623
8307 12 4622 4620 4640
8308 13 4623 4620 4640
8309 14 4620 4623 4624
8310 11 4623 4624 4625
8311 11 4623 4624 4626
8312 15 4623 4624 4627
8313 10 4625 4624 4626
8314 11 4625 4624 4627
8315 11 4626 4624 4627
8316 14 4624 4627 4628
8317 11 4627 4628 4629
8318 11 4627 4628 4630
8319 15 4627 4628 4631
8320 10 4629 4628 4630
8321 11 4629 4628 4631
8322 11 4630 4628 4631
8323 14 4628 4631 4632
8324 11 4631 4632 4633
8325 11 4631 4632 4634
8326 15 4631 4632 4635
8327 10 4633 4632 4634
8328 11 4633 4632 4635
8329 11 4634 4632 4635
8330 14 4632 4635 4636
8331 11 4635 4636 4637
8332 11 4635 4636 4638
8333 15 4635 4636 4639
8334 10 4637 4636 4638
8335 11 4637 4636 4639
8336 11 4638 4636 4639
8337 16 4636 4639 498
8338 17 493 4640 4620
8339 10 4642 4641 4643
8340 11 4642 4641 4644
8341 12 4642 4641 4661
8342 11 4643 4641 4644
8343 12 4643 4641 4661
8344 13 4644 4641 4661
8345 14 4641 4644 4645
8346 11 4644 4645 4646
8347 11 4644 4645 4647
8348 15 4644 4645 4648
8349 10 4646 4645 4647
8350 11 4646 4645 4648
8351 11 4647 4645 4648
8352 14 4645 4648 4649
8353 11 4648 4649 4650
8354 11 4648 4649 4651
8355 15 4648 4649 4652
8356 10 4650 4649 4651
8357 11 4650 4649 4652
8358 11 4651 4649 4652
8359 14 4649 4652 4653
8360 11 4652 4653 4654
8361 11 4652 4653 4655
8362 15 4652 4653 4656
8363 10 4654 4653 4655
8364 11 4654 4653 4656
8365 11 4655 4653 4656
8366 14 4653 4656 4657
8367 11 4656 4657 4658
8368 11 4656 4657 4659
8369 15 4656 4657 4660
8370 10 4658 4657 4659
8371 11 4658 4657 4660
8372 11 4659 4657 4660
8373 16 4657 4660 499
8374 17 494 4661 4641
8375 10 4663 4662 4664
8376 11 4663 4662 4665
8377 12 4663 4662 4682
8378 11 4664 4662 4665
8379 12 4664 4662 4682
8380 13 4665 4662 4682
8381 14 4662 4665 4666
8382 11 4665 4666 4667
8383 11 4665 4666 4668
8384 15 4665 4666 4669
8385 10 4667 4666 4668
8386 11 4667 4666 4669
8387 11 4668 4666 4669
8388 14 4666 4669 4670
8389 11 4669 4670 4671
8390 11 4669 4670 4672
8391 15 4669 4670 4673
8392 10 4671 4670 4672
8393 11 4671 4670 4673
8394 11 4672 4670 4673
8395 14 4670 4673 4674
8396 11 4673 4674 4675
8397 11 4673 4674 4676
8398 15 4673 4674 4677
8399 10 4675 4674 4676
8400 11 4675 4674 4677
8401 11 4676 4674 4677
8402 14 4674 4677 4678
8403 11 4677 4678 4679
8404 11 4677 4678 4680
8405 15 4677 4678 4681
8406 10 4679 4678 4680
8407 11 4679 4678 4681
8408 11 4680 4678 4681
8409 16 4678 4681 500
8410 17 495 4682 4662
8411 10 4684 4683 4685
8412 11 4684 4683 4686
8413 12 4684 4683 4703
8414 11 4685 4683 4686
8415 12 4685 4683 4703
8416 13 4686 4683 4703
8417 14 4683 4686 4687
8418 11 4686 4687 4688
8419 11 4686 4687 4689
8420 15 4686 4687 4690
8421 10 4688 4687 4689
8422 11 4688 4687 4690
8423 11 4689 4687 4690
8424 14 4687 4690 4691
8425 11 4690 4691 4692
8426 11 4690 4691 4693
8427 15 4690 4691 4694
8428 10 4692 4691 4693
8429 11 4692 4691 4694
8430 11 4693 4691 4694
8431 14 4691 4694 4695
8432 11 4694 4695 4696
8433 11 4694 4695 4697
8434 15 4694 4695 4698
8435 10 4696 4695 4697
8436 11 4696 4695 4698
8437 11 4697 4695 4698
8438 14 4695 4698 4699
8439 11 4698 4699 4700
8440 11 4698 4699 4701
8441 15 4698 4699 4702
8442 10 4700 4699 4701
8443 11 4700 4699 4702
8444 11 4701 4699 4702
8445 16 4699 4702 501
8446 17 496 4703 4683
8447 10 4705 4704 4706
8448 11 4705 4704 4707
8449 12 4705 4704 4724
8450 11 4706 4704 4707
8451 12 4706 4704 4724
8452 13 4707 4704 4724
8453 14 4704 4707 4708
8454 11 4707 4708 4709
8455 11 4707 4708 4710
8456 15 4707 4708 4711
8457 10 4709 4708 4710
8458 11 4709 4708 4711
8459 11 4710 4708 4711
8460 14 4708 4711 4712
8461 11 4711 4712 4713
8462 11 4711 4712 4714
8463 15 4711 4712 4715
8464 10 4713 4712 4714
8465 11 4713 4712 4715
8466 11 4714 4712 4715
8467 14 4712 4715 4716
8468 11 4715 4716 4717
8469 11 4715 4716 4718
8470 15 4715 4716 4719
8471 10 4717 4716 4718
8472 11 4717 4716 4719
8473 11 4718 4716 4719
8474 14 4716 4719 4720
8475 11 4719 4720 4721
8476 11 4719 4720 4722
8477 15 4719 4720 4723
8478 10 4721 4720 4722
8479 11 4721 4720 4723
8480 11 4722 4720 4723
8481 16 4720 4723 498
8482 17 497 4724 4704
8483 10 4726 4725 4727
8484 11 4726 4725 4728
8485 12 4726 4725 4745
8486 11 4727 4725 4728
8487 12 4727 4725 4745
8488 13 4728 4725 4745
8489 14 4725 4728 4729
8490 11 4728 4729 4730
8491 11 4728 4729 4731
8492 15 4728 4729 4732
8493 10 4730 4729 4731
8494 11 4730 4729 4732
8495 11 4731 4729 4732
8496 14 4729 4732 4733
8497 11 4732 4733 4734
8498 11 4732 4733 4735
8499 15 4732 4733 4736
8500 10 4734 4733 4735
8501 11 4734 4733 4736
8502 11 4735 4733 4736
8503 14 4733 4736 4737
8504 11 4736 4737 4738
8505 11 4736 4737 4739
8506 15 4736 4737 4740
8507 10 4738 4737 4739
8508 11 4738 4737 4740
8509 11 4739 4737 4740
8510 14 4737 4740 4741
8511 11 4740 4741 4742
8512 11 4740 4741 4743
8513 15 4740 4741 4744
8514 10 4742 4741 4743
8515 11 4742 4741 4744
8516 11 4743 4741 4744
8517 18 4741 4744 524
8518 17 497 4745 4725
8519 10 4747 4746 4748
8520 11 4747 4746 4749
8521 12 4747 4746 4766
8522 11 4748 4746 4749
8523 12 4748 4746 4766
8524 13 4749 4746 4766
8525 14 4746 4749 4750
8526 11 4749 4750 4751
8527 11 4749 4750 4752
8528 15 4749 4750 4753
8529 10 4751 4750 4752
8530 11 4751 4750 4753
8531 11 4752 4750 4753
8532 14 4750 4753 4754
8533 11 4753 4754 4755
8534 11 4753 4754 4756
8535 15 4753 4754 4757
8536 10 4755 4754 4756
8537 11 4755 4754 4757
8538 11 4756 4754 4757
8539 14 4754 4757 4758
8540 11 4757 4758 4759
8541 11 4757 4758 4760
8542 15 4757 4758 4761
8543 10 4759 4758 4760
8544 11 4759 4758 4761
8545 11 4760 4758 4761
8546 14 4758 4761 4762
8547 11 4761 4762 4763
8548 11 4761 4762 4764
8549 15 4761 4762 4765
8550 10 4763 4762 4764
8551 11 4763 4762 4765
8552 11 4764 4762 4765
8553 16 4762 4765 499
8554 17 498 4766 4746
8555 10 4768 4767 4769
8556 11 4768 4767 4770
8557 12 4768 4767 4787
8558 11 4769 4767 4770
8559 12 4769 4767 4787
8560 13 4770 4767 4787
8561 14 4767 4770 4771
8562 11 4770 4771 4772
8563 11 4770 4771 4773
8564 15 4770 4771 4774
8565 10 4772 4771 4773
8566 11 4772 4771 4774
8567 11 4773 4771 4774
8568 14 4771 4774 4775
8569 11 4774 4775 4776
8570 11 4774 4775 4777
8571 15 4774 4775 4778
8572 10 4776 4775 4777
8573 11 4776 4775 4778
8574 11 4777 4775 4778
8575 14 4775 4778 4779
8576 11 4778 4779 4780
8577 11 4778 4779 4781
8578 15 4778 4779 4782
8579 10 4780 4779 4781
8580 11 4780 4779 4782
8581 11 4781 4779 4782
8582 14 4779 4782 4783
8583 11 4782 4783 4784
8584 11 4782 4783 4785
8585 15 4782 4783 4786
8586 10 4784 4783 4785
8587 11 4784 4783 4786
8588 11 4785 4783 4786
8589 16 4783 4786 582
8590 17 499 4787 4767
8591 10 4789 4788 4790
8592 11 4789 4788 4791
8593 12 4789 4788 4808
8594 11 4790 4788 4791
8595 12 4790 4788 4808
8596 13 4791 4788 4808
8597 14 4788 4791 4792
8598 11 4791 4792 4793
8599 11 4791 4792 4794
8600 15 4791 4792 4795
8601 10 4793 4792 4794
8602 11 4793 4792 4795
8603 11 4794 4792 4795
8604 14 4792 4795 4796
8605 11 4795 4796 4797
8606 11 4795 4796 4798
8607 15 4795 4796 4799
8608 10 4797 4796 4798
8609 11 4797 4796 4799
8610 11 4798 4796 4799
8611 14 4796 4799 4800
8612 11 4799 4800 4801
8613 11 4799 4800 4802
8614 15 4799 4800 4803
8615 10 4801 4800 4802
8616 11 4801 4800 4803
8617 11 4802 4800 4803
8618 14 4800 4803 4804
8619 11 4803 4804 4805
8620 11 4803 4804 4806
8621 15 4803 4804 4807
8622 10 4805 4804 4806
8623 11 4805 4804 4807
8624 11 4806 4804 4807
8625 16 4804 4807 501
8626 17 500 4808 4788
8627 10 4810 4809 4811
8628 11 4810 4809 4812
8629 12 4810 4809 4829
8630 11 4811 4809 4812
8631 12 4811 4809 4829
8632 13 4812 4809 4829
8633 14 4809 4812 4813
8634 11 4812 4813 4814
8635 11 4812 4813 4815
8636 15 4812 4813 4816
8637 10 4814 4813 4815
8638 11 4814 4813 4816
8639 11 4815 4813 4816
8640 14 4813 4816 4817
8641 11 4816 4817 4818
8642 11 4816 4817 4819
8643 15 4816 4817 4820
8644 10 4818 4817 4819
8645 11 4818 4817 4820
8646 11 4819 4817 4820
8647 14 4817 4820 4821
8648 11 4820 4821 4822
8649 11 4820 4821 4823
8650 15 4820 4821 4824
8651 10 4822 4821 4823
8652 11 4822 4821 4824
8653 11 4823 4821 4824
8654 14 4821 4824 4825
8655 11 4824 4825 4826
8656 11 4824 4825 4827
8657 15 4824 4825 4828
8658 10 4826 4825 4827
8659 11 4826 4825 4828
8660 11 4827 4825 4828
8661 16 4825 4828 583
8662 17 500 4829 4809
8663 10 4831 4830 4832
8664 11 4831 4830 4833
8665 12 4831 4830 4850
8666 11 4832 4830 4833
8667 12 4832 4830 4850
8668 13 4833 4830 4850
8669 14 4830 4833 4834
8670 11 4833 4834 4835
8671 11 4833 4834 4836
8672 15 4833 4834 4837
8673 10 4835 4834 4836
8674 11 4835 4834 4837
8675 11 4836 4834 4837
8676 14 4834 4837 4838
8677 11 4837 4838 4839
8678 11 4837 4838 4840
8679 15 4837 4838 4841
8680 10 4839 4838 4840
8681 11 4839 4838 4841
8682 11 4840 4838 4841
8683 14 4838 4841 4842
8684 11 4841 4842 4843
8685 11 4841 4842 4844
8686 15 4841 4842 4845
8687 10 4843 4842 4844
8688 11 4843 4842 4845
8689 11 4844 4842 4845
8690 14 4842 4845 4846
8691 11 4845 4846 4847
8692 11 4845 4846 4848
8693 15 4845 4846 4849
8694 10 4847 4846 4848
8695 11 4847 4846 4849
8696 11 4848 4846 4849
8697 16 4846 4849 584
8698 17 501 4850 4830
8699 10 4852 4851 4853
8700 11 4852 4851 4854
8701 12 4852 4851 4871
8702 11 4853 4851 4854
8703 12 4853 4851 4871
8704 13 4854 4851 4871
8705 14 4851 4854 4855
8706 11 4854 4855 4856
8707 11 4854 4855 4857
8708 15 4854 4855 4858
8709 10 4856 4855 4857
8710 11 4856 4855 4858
8711 11 4857 4855 4858
8712 14 4855 4858 4859
8713 11 4858 4859 4860
8714 11 4858 4859 4861
8715 15 4858 4859 4862
8716 10 4860 4859 4861
8717 11 4860 4859 4862
8718 11 4861 4859 4862
8719 14 4859 4862 4863
8720 11 4862 4863 4864
8721 11 4862 4863 4865
8722 15 4862 4863 4866
8723 10 4864 4863 4865
8724 11 4864 4863 4866
8725 11 4865 4863 4866
8726 14 4863 4866 4867
8727 11 4866 4867 4868
8728 11 4866 4867 4869
8729 15 4866 4867 4870
8730 10 4868 4867 4869
8731 11 4868 4867 4870
8732 11 4869 4867 4870
8733 16 4867 4870 582
8734 17 581 4871 4851
8735 10 4873 4872 4874
8736 11 4873 4872 4875
8737 12 4873 4872 4892
8738 11 4874 4872 4875
8739 12 4874 4872 4892
8740 13 4875 4872 4892
8741 14 4872 4875 4876
8742 11 4875 4876 4877
8743 11 4875 4876 4878
8744 15 4875 4876 4879
8745 10 4877 4876 4878
8746 11 4877 4876 4879
8747 11 4878 4876 4879
8748 14 4876 4879 4880
8749 11 4879 4880 4881
8750 11 4879 4880 4882
8751 15 4879 4880 4883
8752 10 4881 4880 4882
8753 11 4881 4880 4883
8754 11 4882 4880 4883
8755 14 4880 4883 4884
8756 11 4883 4884 4885
8757 11 4883 4884 4886
8758 15 4883 4884 4887
8759 10 4885 4884 4886
8760 11 4885 4884 4887
8761 11 4886 4884 4887
8762 14 4884 4887 4888
8763 11 4887 4888 4889
8764 11 4887 4888 4890
8765 15 4887 4888 4891
8766 10 4889 4888 4890
8767 11 4889 4888 4891
8768 11 4890 4888 4891
8769 16 4888 4891 586
8770 17 581 4892 4872
8771 10 4894 4893 4895
8772 11 4894 4893 4896
8773 12 4894 4893 4913
8774 11 4895 4893 4896
8775 12 4895 4893 4913
8776 13 4896 4893 4913
8777 14 4893 4896 4897
8778 11 4896 4897 4898
8779 11 4896 4897 4899
8780 15 4896 4897 4900
8781 10 4898 4897 4899
8782 11 4898 4897 4900
8783 11 4899 4897 4900
8784 14 4897 4900 4901
8785 11 4900 4901 4902
8786 11 4900 4901 4903
8787 15 4900 4901 4904
8788 10 4902 4901 4903
8789 11 4902 4901 4904
8790 11 4903 4901 4904
8791 14 4901 4904 4905
8792 11 4904 4905 4906
8793 11 4904 4905 4907
8794 15 4904 4905 4908
8795 10 4906 4905 4907
8796 11 4906 4905 4908
8797 11 4907 4905 4908
8798 14 4905 4908 4909
8799 11 4908 4909 4910
8800 11 4908 4909 4911
8801 15 4908 4909 4912
8802 10 4910 4909 4911
8803 11 4910 4909 4912
8804 11 4911 4909 4912
8805 16 4909 4912 587
8806 17 582 4913 4893
8807 10 4915 4914 4916
8808 11 4915 4914 4917
8809 12 4915 4914 4934
8810 11 4916 4914 4917
8811 12 4916 4914 4934
8812 13 4917 4914 4934
8813 14 4914 4917 4918
8814 11 4917 4918 4919
8815 11 4917 4918 4920
8816 15 4917 4918 4921
8817 10 4919 4918 4920
8818 11 4919 4918 4921
8819 11 4920 4918 4921
8820 14 4918 4921 4922
8821 11 4921 4922 4923
8822 11 4921 4922 4924
8823 15 4921 4922 4925
8824 10 4923 4922 4924
8825 11 4923 4922 4925
8826 11 4924 4922 4925
8827 14 4922 4925 4926
8828 11 4925 4926 4927
8829 11 4925 4926 4928
8830 15 4925 4926 4929
8831 10 4927 4926 4928
8832 11 4927 4926 4929
8833 11 4928 4926 4929
8834 14 4926 4929 4930
8835 11 4929 4930 4931
8836 11 4929 4930 4932
8837 15 4929 4930 4933
8838 10 4931 4930 4932
8839 11 4931 4930 4933
8840 11 4932 4930 4933
8841 16 4930 4933 588
8842 17 583 4934 4914
8843 10 4936 4935 4937
8844 11 4936 4935 4938
8845 12 4936 4935 4955
8846 11 4937 4935 4938
8847 12 4937 4935 4955
8848 13 4938 4935 4955
8849 14 4935 4938 4939
8850 11 4938 4939 4940
8851 11 4938 4939 4941
8852 15 4938 4939 4942
8853 10 4940 4939 4941
8854 11 4940 4939 4942
8855 11 4941 4939 4942
8856 14 4939 4942 4943
8857 11 4942 4943 4944
8858 11 4942 4943 4945
8859 15 4942 4943 4946
8860 10 4944 4943 4945
8861 11 4944 4943 4946
8862 11 4945 4943 4946
8863 14 4943 4946 4947
8864 11 4946 4947 4948
8865 11 4946 4947 4949
8866 15 4946 4947 4950
8867 10 4948 4947 4949
8868 11 4948 4947 4950
8869 11 4949 4947 4950
8870 14 4947 4950 4951
8871 11 4950 4951 4952
8872 11 4950 4951 4953
8873 15 4950 4951 4954
8874 10 4952 4951 4953
8875 11 4952 4951 4954
8876 11 4953 4951 4954
8877 16 4951 4954 586
8878 17 585 4955 4935
8879 10 4957 4956 4958
8880 11 4957 4956 4959
8881 12 4957 4956 4976
8882 11 4958 4956 4959
8883 12 4958 4956 4976
8884 13 4959 4956 4976
8885 14 4956 4959 4960
8886 11 4959 4960 4961
8887 11 4959 4960 4962
8888 15 4959 4960 4963
8889 10 4961 4960 4962
8890 11 4961 4960 4963
8891 11 4962 4960 4963
8892 14 4960 4963 4964
8893 11 4963 4964 4965
8894 11 4963 4964 4966
8895 15 4963 4964 4967
8896 10 4965 4964 4966
8897 11 4965 4964 4967
8898 11 4966 4964 4967
8899 14 4964 4967 4968
8900 11 4967 4968 4969
8901 11 4967 4968 4970
8902 15 4967 4968 4971
8903 10 4969 4968 4970
8904 11 4969 4968 4971
8905 11 4970 4968 4971
8906 14 4968 4971 4972
8907 11 4971 4972 4973
8908 11 4971 4972 4974
8909 15 4971 4972 4975
8910 10 4973 4972 4974
8911 11 4973 4972 4975
8912 11 4974 4972 4975
8913 16 4972 4975 588
8914 17 587 4976 4956
8915 10 4978 4977 4979
8916 11 4978 4977 4980
8917 12 4978 4977 4997
8918 11 4979 4977 4980
8919 12 4979 4977 4997
8920 13 4980 4977 4997
8921 14 4977 4980 4981
8922 11 4980 4981 4982
8923 11 4980 4981 4983
8924 15 4980 4981 4984
8925 10 4982 4981 4983
8926 11 4982 4981 4984
8927 11 4983 4981 4984
8928 14 4981 4984 4985
8929 11 4984 4985 4986
8930 11 4984 4985 4987
8931 15 4984 4985 4988
8932 10 4986 4985 4987
8933 11 4986 4985 4988
8934 11 4987 4985 4988
8935 14 4985 4988 4989
8936 11 4988 4989 4990
8937 11 4988 4989 4991
8938 15 4988 4989 4992
8939 10 4990 4989 4991
8940 11 4990 4989 4992
8941 11 4991 4989 4992
8942 14 4989 4992 4993
8943 11 4992 4993 4994
8944 11 4992 4993 4995
8945 15 4992 4993 4996
8946 10 4994 4993 4995
8947 11 4994 4993 4996
8948 11 4995 4993 4996
8949 16 4993 4996 589
8950 17 588 4997 4977

Dihedrals

1 1 26 17 25 18
2 1 27 17 25 18
3 2 37 17 25 18
4 1 17 25 18 28
5 1 17 25 18 29
6 2 17 25 18 40
7 1 25 17 26 19
8 1 27 17 26 19
9 2 37 17 26 19
10 1 17 26 19 30
11 1 17 26 19 31
12 2 17 26 19 48
13 1 25 17 27 21
14 1 26 17 27 21
15 2 37 17 27 21
16 1 17 27 21 33
17 1 17 27 21 34
18 2 17 27 21 64
19 1 25 18 28 20
20 1 29 18 28 20
21 2 40 18 28 20
22 1 18 28 20 30
23 1 18 28 20 32
24 2 18 28 20 56
25 1 25 18 29 22
26 1 28 18 29 22
27 2 40 18 29 22
28 1 18 29 22 33
29 1 18 29 22 35
30 2 18 29 22 72
31 1 26 19 30 20
32 1 31 19 30 20
33 2 48 19 30 20
34 1 19 30 20 28
35 1 19 30 20 32
36 2 19 30 20 56
37 1 26 19 31 23
38 1 30 19 31 23
39 2 48 19 31 23
40 1 19 31 23 34
41 1 19 31 23 36
42 2 19 31 23 80
43 1 28 20 32 24
44 1 30 20 32 24
45 2 56 20 32 24
46 1 20 32 24 35
47 1 20 32 24 36
48 2 20 32 24 88
49 1 27 21 33 22
50 1 34 21 33 22
51 2 64 21 33 22
52 1 21 33 22 29
53 1 21 33 22 35
54 2 21 33 22 72
55 1 27 21 34 23
56 1 33 21 34 23
57 2 64 21 34 23
58 1 21 34 23 31
59 1 21 34 23 36
60 2 21 34 23 80
61 1 29 22 35 24
62 1 33 22 35 24
63 2 72 22 35 24
64 1 22 35 24 32
65 1 22 35 24 36
66 2 22 35 24 88
67 1 31 23 36 24
68 1 34 23 36 24
69 2 80 23 36 24
70 1 23 36 24 32
71 1 23 36 24 35
72 2 23 36 24 88
73 3 17 37 38 39
74 4 37 38 39 1451
75 5 25 17 37 38
76 5 26 17 37 38
77 5 27 17 37 38
78 6 18 40 41 42
79 6 18 40 41 43
80 7 40 41 43 44
81 7 42 41 43 44
82 8 41 43 44 45
83 8 41 43 44 46
84 8 41 43 44 47
85 5 25 18 40 41
86 5 28 18 40 41
87 5 29 18 40 41
88 6 19 48 49 50
89 6 19 48 49 51
90 7 48 49 51 52
91 7 50 49 51 52
92 8 49 51 52 53
93 8 49 51 52 54
94 8 49 51 52 55
95 5 26 19 48 49
96 5 30 19 48 49
97 5 31 19 48 49
98 6 20 56 57 58
99 6 20 56 57 59
100 7 56 57 59 60
101 7 58 57 59 60
102 8 57 59 60 61
103 8 57 59 60 62
104 8 57 59 60 63
105 5 28 20 56 57
106 5 30 20 56 57
107 5 32 20 56 57
108 6 21 64 65 66
109 6 21 64 65 67
110 7 64 65 67 68
111 7 66 65 67 68
112 8 65 67 68 69
113 8 65 67 68 70
114 8 65 67 68 71
115 5 27 21 64 65
116 5 33 21 64 65
117 5 34 21 64 65
118 6 22 72 73 74
119 6 22 72 73 75
120 7 72 73 75 76
121 7 74 73 75 76
122 8 73 75 76 77
123 8 73 75 76 78
124 8 73 75 76 79
125 5 29 22 72 73
126 5 33 22 72 73
127 5 35 22 72 73
128 6 23 80 81 82
129 6 23 80 81 83
130 7 80 81 83 84
131 7 82 81 83 84
132 8 81 83 84 85
133 8 81 83 84 86
134 8 81 83 84 87
135 5 31 23 80 81
136 5 34 23 80 81
137 5 36 23 80 81
138 6 24 88 89 90
139 6 24 88 89 91
140 7 88 89 91 92
141 7 90 89 91 92
142 8 89 91 92 93
143 8 89 91 92 94
144 8 89 91 92 95
145 5 32 24 88 89
146 5 35 24 88 89
147 5 36 24 88 89
148 1 133 124 132 125
149 1 134 124 132 125
150 2 144 124 132 125
151 1 124 132 125 135
152 1 124 132 125 136
153 2 124 132 125 147
154 1 132 124 133 126
155 1 134 124 133 126
156 2 144 124 133 126
157 1 124 133 126 137
158 1 124 133 126 138
159 2 124 133 126 155
160 1 132 124 134 128
161 1 133 124 134 128
162 2 144 124 134 128
163 1 124 134 128 140
164 1 124 134 128 141
165 2 124 134 128 171
166 1 132 125 135 127
167 1 136 125 135 127
168 2 147 125 135 127
169 1 125 135 127 137
170 1 125 135 127 139
171 2 125 135 127 163
172 1 132 125 136 129
173 1 135 125 136 129
174 2 147 125 136 129
175 1 125 136 129 140
176 1 125 136 129 142
177 2 125 136 129 179
178 1 133 126 137 127
179 1 138 126 137 127
180 2 155 126 137 127
181 1 126 137 127 135
182 1 126 137 127 139
183 2 126 137 127 163
184 1 133 126 138 130
185 1 137 126 138 130
186 2 155 126 138 130
187 1 126 138 130 141
188 1 126 138 130 143
189 2 126 138 130 187
190 1 135 127 139 131
191 1 137 127 139 131
192 2 163 127 139 131
193 1 127 139 131 142
194 1 127 139 131 143
195 2 127 139 131 195
196 1 134 128 140 129
197 1 141 128 140 129
198 2 171 128 140 129
199 1 128 140 129 136
200 1 128 140 129 142
201 2 128 140 129 179
202 1 134 128 141 130
203 1 140 128 141 130
204 2 171 128 141 130
205 1 128 141 130 138
206 1 128 141 130 143
207 2 128 141 130 187
208 1 136 129 142 131
209 1 140 129 142 131
210 2 179 129 142 131
211 1 129 142 131 139
212 1 129 142 131 143
213 2 129 142 131 195
214 1 138 130 143 131
215 1 141 130 143 131
216 2 187 130 143 131
217 1 130 143 131 139
218 1 130 143 131 142
219 2 130 143 131 195
220 3 124 144 145 146
221 9 144 145 146 1658
222 5 132 124 144 145
223 5 133 124 144 145
224 5 134 124 144 145
225 6 125 147 148 149
226 6 125 147 148 150
227 7 147 148 150 151
228 7 149 148 150 151
229 8 148 150 151 152
230 8 148 150 151 153
231 8 148 150 151 154
232 5 132 125 147 148
233 5 135 125 147 148
234 5 136 125 147 148
235 6 126 155 156 157
236 6 126 155 156 158
237 7 155 156 158 159
238 7 157 156 158 159
239 8 156 158 159 160
240 8 156 158 159 161
241 8 156 158 159 162
242 5 133 126 155 156
243 5 137 126 155 156
244 5 138 126 155 156
245 6 127 163 164 165
246 6 127 163 164 166
247 7 163 164 166 167
248 7 165 164 166 167
249 8 164 166 167 168
250 8 164 166 167 169
251 8 164 166 167 170
252 5 135 127 163 164
253 5 137 127 163 164
254 5 139 127 163 164
255 6 128 171 172 173
256 6 128 171 172 174
257 7 171 172 174 175
258 7 173 172 174 175
259 8 172 174 175 176
260 8 172 174 175 177
261 8 172 174 175 178
262 5 134 128 171 172
263 5 140 128 171 172
264 5 141 128 171 172
265 6 129 179 180 181
266 6 129 179 180 182
267 7 179 180 182 183
268 7 181 180 182 183
269 8 180 182 183 184
270 8 180 182 183 185
271 8 180 182 183 186
272 5 136 129 179 180
273 5 140 129 179 180
274 5 142 129 179 180
275 6 130 187 188 189
276 6 130 187 188 190
277 7 187 188 190 191
278 7 189 188 190 191
279 8 188 190 191 192
280 8 188 190 191 193
281 8 188 190 191 194
282 5 138 130 187 188
283 5 141 130 187 188
284 5 143 130 187 188
285 6 131 195 196 197
286 6 131 195 196 198
287 7 195 196 198 199
288 7 197 196 198 199
289 8 196 198 199 200
290 8 196 198 199 201
291 8 196 198 199 202
292 5 139 131 195 196
293 5 142 131 195 196
294 5 143 131 195 196
295 1 214 205 213 206
296 1 215 205 213 206
297 2 225 205 213 206
298 1 205 213 206 216
299 1 205 213 206 217
300 2 205 213 206 228
301 1 213 205 214 207
302 1 215 205 214 207
303 2 225 205 214 207
304 1 205 214 207 218
305 1 205 214 207 219
306 2 205 214 207 236
307 1 213 205 215 209
308 1 214 205 215 209
309 2 225 205 215 209
310 1 205 215 209 221
311 1 205 215 209 222
312 2 205 215 209 252
313 1 213 206 216 208
314 1 217 206 216 208
315 2 228 206 216 208
316 1 206 216 208 218
317 1 206 216 208 220
318 2 206 216 208 244
319 1 213 206 217 210
320 1 216 206 217 210
321 2 228 206 217 210
322 1 206 217 210 221
323 1 206 217 210 223
324 2 206 217 210 260
325 1 214 207 218 208
326 1 219 207 218 208
327 2 236 207 218 208
328 1 207 218 208 216
329 1 207 218 208 220
330 2 207 218 208 244
331 1 214 207 219 211
332 1 218 207 219 211
333 2 236 207 219 211
334 1 207 219 211 222
335 1 207 219 211 224
336 2 207 219 211 268
337 1 216 208 220 212
338 1 218 208 220 212
339 2 244 208 220 212
340 1 208 220 212 223
341 1 208 220 212 224
342 2 208 220 212 276
343 1 215 209 221 210
344 1 222 209 221 210
345 2 252 209 221 210
346 1 209 221 210 217
347 1 209 221 210 223
348 2 209 221 210 260
349 1 215 209 222 211
350 1 221 209 222 211
351 2 252 209 222 211
352 1 209 222 211 219
353 1 209 222 211 224
354 2 209 222 211 268
355 1 217 210 223 212
356 1 221 210 223 212
357 2 260 210 223 212
358 1 210 223 212 220
359 1 210 223 212 224
360 2 210 223 212 276
361 1 219 211 224 212
362 1 222 211 224 212
363 2 268 211 224 212
364 1 211 224 212 220
365 1 211 224 212 223
366 2 211 224 212 276
367 3 205 225 226 227
368 9 225 226 227 1742
369 5 213 205 225 226
370 5 214 205 225 226
371 5 215 205 225 226
372 6 206 228 229 230
373 6 206 228 229 231
374 7 228 229 231 232
375 7 230 229 231 232
376 8 229 231 232 233
377 8 229 231 232 234
378 8 229 231 232 235
379 5 213 206 228 229
380 5 216 206 228 229
381 5 217 206 228 229
382 6 207 236 237 238
383 6 207 236 237 239
384 7 236 237 239 240
385 7 238 237 239 240
386 8 237 239 240 241
387 8 237 239 240 242
388 8 237 239 240 243
389 5 214 207 236 237
390 5 218 207 236 237
391 5 219 207 236 237
392 6 208 244 245 246
393 6 208 244 245 247
394 7 244 245 247 248
395 7 246 245 247 248
396 8 245 247 248 249
397 8 245 247 248 250
398 8 245 247 248 251
399 5 216 208 244 245
400 5 218 208 244 245
401 5 220 208 244 245
402 6 209 252 253 254
403 6 209 252 253 255
404 7 252 253 255 256
405 7 254 253 255 256
406 8 253 255 256 257
407 8 253 255 256 258
408 8 253 255 256 259
409 5 215 209 252 253
410 5 221 209 252 253
411 5 222 209 252 253
412 6 210 260 261 262
413 6 210 260 261 263
414 7 260 261 263 264
415 7 262 261 263 264
416 8 261 263 264 265
417 8 261 263 264 266
418 8 261 263 264 267
419 5 217 210 260 261
420 5 221 210 260 261
421 5 223 210 260 261
422 6 211 268 269 270
423 6 211 268 269 271
424 7 268 269 271 272
425 7 270 269 271 272
426 8 269 271 272 273
427 8 269 271 272 274
428 8 269 271 272 275
429 5 219 211 268 269
430 5 222 211 268 269
431 5 224 211 268 269
432 6 212 276 277 278
433 6 212 276 277 279
434 7 276 277 279 280
435 7 278 277 279 280
436 8 277 279 280 281
437 8 277 279 280 282
438 8 277 279 280 283
439 5 220 212 276 277
440 5 223 212 276 277
441 5 224 212 276 277
442 1 312 303 311 304
443 1 313 303 311 304
444 2 323 303 311 304
445 1 303 311 304 314
446 1 303 311 304 315
447 2 303 311 304 326
448 1 311 303 312 305
449 1 313 303 312 305
450 2 323 303 312 305
451 1 303 312 305 316
452 1 303 312 305 317
453 2 303 312 305 334
454 1 311 303 313 307
455 1 312 303 313 307
456 2 323 303 313 307
457 1 303 313 307 319
458 1 303 313 307 320
459 2 303 313 307 350
460 1 311 304 314 306
461 1 315 304 314 306
462 2 326 304 314 306
463 1 304 314 306 316
464 1 304 314 306 318
465 2 304 314 306 342
466 1 311 304 315 308
467 1 314 304 315 308
468 2 326 304 315 308
469 1 304 315 308 319
470 1 304 315 308 321
471 2 304 315 308 358
472 1 312 305 316 306
473 1 317 305 316 306
474 2 334 305 316 306
475 1 305 316 306 314
476 1 305 316 306 318
477 2 305 316 306 342
478 1 312 305 317 309
479 1 316 305 317 309
480 2 334 305 317 309
481 1 305 317 309 320
482 1 305 317 309 322
483 2 305 317 309 366
484 1 314 306 318 310
485 1 316 306 318 310
486 2 342 306 318 310
487 1 306 318 310 321
488 1 306 318 310 322
489 2 306 318 310 374
490 1 313 307 319 308
491 1 320 307 319 308
492 2 350 307 319 308
493 1 307 319 308 315
494 1 307 319 308 321
495 2 307 319 308 358
496 1 313 307 320 309
497 1 319 307 320 309
498 2 350 307 320 309
499 1 307 320 309 317
500 1 307 320 309 322
501 2 307 320 309 366
502 1 315 308 321 310
503 1 319 308 321 310
504 2 358 308 321 310
505 1 308 321 310 318
506 1 308 321 310 322
507 2 308 321 310 374
508 1 317 309 322 310
509 1 320 309 322 310
510 2 366 309 322 310
511 1 309 322 310 318
512 1 309 322 310 321
513 2 309 322 310 374
514 3 303 323 324 325
515 9 323 324 325 3359
516 5 311 303 323 324
517 5 312 303 323 324
518 5 313 303 323 324
519 6 304 326 327 328
520 6 304 326 327 329
521 7 326 327 329 330
522 7 328 327 329 330
523 8 327 329 330 331
524 8 327 329 330 332
525 8 327 329 330 333
526 5 311 304 326 327
527 5 314 304 326 327
528 5 315 304 326 327
529 6 305 334 335 336
530 6 305 334 335 337
531 7 334 335 337 338
532 7 336 335 337 338
533 8 335 337 338 339
534 8 335 337 338 340
535 8 335 337 338 341
536 5 312 305 334 335
537 5 316 305 334 335
538 5 317 305 334 335
539 6 306 342 343 344
540 6 306 342 343 345
541 7 342 343 345 346
542 7 344 343 345 346
543 8 343 345 346 347
544 8 343 345 346 348
545 8 343 345 346 349
546 5 314 306 342 343
547 5 316 306 342 343
548 5 318 306 342 343
549 6 307 350 351 352
550 6 307 350 351 353
551 7 350 351 353 354
552 7 352 351 353 354
553 8 351 353 354 355
554 8 351 353 354 356
555 8 351 353 354 357
556 5 313 307 350 351
557 5 319 307 350 351
558 5 320 307 350 351
559 6 308 358 359 360
560 6 308 358 359 361
561 7 358 359 361 362
562 7 360 359 361 362
563 8 359 361 362 363
564 8 359 361 362 364
565 8 359 361 362 365
566 5 315 308 358 359
567 5 319 308 358 359
568 5 321 308 358 359
569 6 309 366 367 368
570 6 309 366 367 369
571 7 366 367 369 370
572 7 368 367 369 370
573 8 367 369 370 371
574 8 367 369 370 372
575 8 367 369 370 373
576 5 317 309 366 367
577 5 320 309 366 367
578 5 322 309 366 367
579 6 310 374 375 376
580 6 310 374 375 377
581 7 374 375 377 378
582 7 376 375 377 378
583 8 375 377 378 379
584 8 375 377 378 380
585 8 375 377 378 381
586 5 318 310 374 375
587 5 321 310 374 375
588 5 322 310 374 375
589 1 393 384 392 385
590 1 394 384 392 385
591 2 404 384 392 385
592 1 384 392 385 395
593 1 384 392 385 396
594 2 384 392 385 407
595 1 392 384 393 386
596 1 394 384 393 386
597 2 404 384 393 386
598 1 384 393 386 397
599 1 384 393 386 398
600 2 384 393 386 415
601 1 392 384 394 388
602 1 393 384 394 388
603 2 404 384 394 388
604 1 384 394 388 400
605 1 384 394 388 401
606 2 384 394 388 431
607 1 392 385 395 387
608 1 396 385 395 387
609 2 407 385 395 387
610 1 385 395 387 397
611 1 385 395 387 399
612 2 385 395 387 423
613 1 392 385 396 389
614 1 395 385 396 389
615 2 407 385 396 389
616 1 385 396 389 400
617 1 385 396 389 402
618 2 385 396 389 439
619 1 393 386 397 387
620 1 398 386 397 387
621 2 415 386 397 387
622 1 386 397 387 395
623 1 386 397 387 399
624 2 386 397 387 423
625 1 393 386 398 390
626 1 397 386 398 390
627 2 415 386 398 390
628 1 386 398 390 401
629 1 386 398 390 403
630 2 386 398 390 447
631 1 395 387 399 391
632 1 397 387 399 391
633 2 423 387 399 391
634 1 387 399 391 402
635 1 387 399 391 403
636 2 387 399 391 455
637 1 394 388 400 389
638 1 401 388 400 389
639 2 431 388 400 389
640 1 388 400 389 396
641 1 388 400 389 402
642 2 388 400 389 439
643 1 394 388 401 390
644 1 400 388 401 390
645 2 431 388 401 390
646 1 388 401 390 398
647 1 388 401 390 403
648 2 388 401 390 447
649 1 396 389 402 391
650 1 400 389 402 391
651 2 439 389 402 391
652 1 389 402 391 399
653 1 389 402 391 403
654 2 389 402 391 455
655 1 398 390 403 391
656 1 401 390 403 391
657 2 447 390 403 391
658 1 390 403 391 399
659 1 390 403 391 402
660 2 390 403 391 455
661 3 384 404 405 406
662 4 404 405 406 3424
663 5 392 384 404 405
664 5 393 384 404 405
665 5 394 384 404 405
666 6 385 407 408 409
667 6 385 407 408 410
668 7 407 408 410 411
669 7 409 408 410 411
670 8 408 410 411 412
671 8 408 410 411 413
672 8 408 410 411 414
673 5 392 385 407 408
674 5 395 385 407 408
675 5 396 385 407 408
676 6 386 415 416 417
677 6 386 415 416 418
678 7 415 416 418 419
679 7 417 416 418 419
680 8 416 418 419 420
681 8 416 418 419 421
682 8 416 418 419 422
683 5 393 386 415 416
684 5 397 386 415 416
685 5 398 386 415 416
686 6 387 423 424 425
687 6 387 423 424 426
688 7 423 424 426 427
689 7 425 424 426 427
690 8 424 426 427 428
691 8 424 426 427 429
692 8 424 426 427 430
693 5 395 387 423 424
694 5 397 387 423 424
695 5 399 387 423 424
696 6 388 431 432 433
697 6 388 431 432 434
698 7 431 432 434 435
699 7 433 432 434 435
700 8 432 434 435 436
701 8 432 434 435 437
702 8 432 434 435 438
703 5 394 388 431 432
704 5 400 388 431 432
705 5 401 388 431 432
706 6 389 439 440 441
707 6 389 439 440 442
708 7 439 440 442 443
709 7 441 440 442 443
710 8 440 442 443 444
711 8 440 442 443 445
712 8 440 442 443 446
713 5 396 389 439 440
714 5 400 389 439 440
715 5 402 389 439 440
716 6 390 447 448 449
717 6 390 447 448 450
718 7 447 448 450 451
719 7 449 448 450 451
720 8 448 450 451 452
721 8 448 450 451 453
722 8 448 450 451 454
723 5 398 390 447 448
724 5 401 390 447 448
725 5 403 390 447 448
726 6 391 455 456 457
727 6 391 455 456 458
728 7 455 456 458 459
729 7 457 456 458 459
730 8 456 458 459 460
731 8 456 458 459 461
732 8 456 458 459 462
733 5 399 391 455 456
734 5 402 391 455 456
735 5 403 391 455 456
736 1 511 502 510 503
737 1 512 502 510 503
738 2 522 502 510 503
739 1 502 510 503 513
740 1 502 510 503 514
741 2 502 510 503 525
742 1 510 502 511 504
743 1 512 502 511 504
744 2 522 502 511 504
745 1 502 511 504 515
746 1 502 511 504 516
747 2 502 511 504 533
748 1 510 502 512 506
749 1 511 502 512 506
750 2 522 502 512 506
751 1 502 512 506 518
752 1 502 512 506 519
753 2 502 512 506 549
754 1 510 503 513 505
755 1 514 503 513 505
756 2 525 503 513 505
757 1 503 513 505 515
758 1 503 513 505 517
759 2 503 513 505 541
760 1 510 503 514 507
761 1 513 503 514 507
762 2 525 503 514 507
763 1 503 514 507 518
764 1 503 514 507 520
765 2 503 514 507 557
766 1 511 504 515 505
767 1 516 504 515 505
768 2 533 504 515 505
769 1 504 515 505 513
770 1 504 515 505 517
771 2 504 515 505 541
772 1 511 504 516 508
773 1 515 504 516 508
774 2 533 504 516 508
775 1 504 516 508 519
776 1 504 516 508 521
777 2 504 516 508 565
778 1 513 505 517 509
779 1 515 505 517 509
780 2 541 505 517 509
781 1 505 517 509 520
782 1 505 517 509 521
783 2 505 517 509 573
784 1 512 506 518 507
785 1 519 506 518 507
786 2 549 506 518 507
787 1 506 518 507 514
788 1 506 518 507 520
789 2 506 518 507 557
790 1 512 506 519 508
791 1 518 506 519 508
792 2 549 506 519 508
793 1 506 519 508 516
794 1 506 519 508 521
795 2 506 519 508 565
796 1 514 507 520 509
797 1 518 507 520 509
798 2 557 507 520 509
799 1 507 520 509 517
800 1 507 520 509 521
801 2 507 520 509 573
802 1 516 508 521 509
803 1 519 508 521 509
804 2 565 508 521 509
805 1 508 521 509 517
806 1 508 521 509 520
807 2 508 521 509 573
808 3 502 522 523 524
809 9 522 523 524 4744
810 5 510 502 522 523
811 5 511 502 522 523
812 5 512 502 522 523
813 6 503 525 526 527
814 6 503 525 526 528
815 7 525 526 528 529
816 7 527 526 528 529
817 8 526 528 529 530
818 8 526 528 529 531
819 8 526 528 529 532
820 5 510 503 525 526
821 5 513 503 525 526
822 5 514 503 525 526
823 6 504 533 534 535
824 6 504 533 534 536
825 7 533 534 536 537
826 7 535 534 536 537
827 8 534 536 537 538
828 8 534 536 537 539
829 8 534 536 537 540
830 5 511 504 533 534
831 5 515 504 533 534
832 5 516 504 533 534
833 6 505 541 542 543
834 6 505 541 542 544
835 7 541 542 544 545
836 7 543 542 544 545
837 8 542 544 545 546
838 8 542 544 545 547
839 8 542 544 545 548
840 5 513 505 541 542
841 5 515 505 541 542
842 5 517 505 541 542
843 6 506 549 550 551
844 6 506 549 550 552
845 7 549 550 552 553
846 7 551 550 552 553
847 8 550 552 553 554
848 8 550 552 553 555
849 8 550 552 553 556
850 5 512 506 549 550
851 5 518 506 549 550
852 5 519 506 549 550
853 6 507 557 558 559
854 6 507 557 558 560
855 7 557 558 560 561
856 7 559 558 560 561
857 8 558 560 561 562
858 8 558 560 561 563
859 8 558 560 561 564
860 5 514 507 557 558
861 5 518 507 557 558
862 5 520 507 557 558
863 6 508 565 566 567
864 6 508 565 566 568
865 7 565 566 568 569
866 7 567 566 568 569
867 8 566 568 569 570
868 8 566 568 569 571
869 8 566 568 569 572
870 5 516 508 565 566
871 5 519 508 565 566
872 5 521 508 565 566
873 6 509 573 574 575
874 6 509 573 574 576
875 7 573 574 576 577
876 7 575 574 576 577
877 8 574 576 577 578
878 8 574 576 577 579
879 8 574 576 577 580
880 5 517 509 573 574
881 5 520 509 573 574
882 5 521 509 573 574
883 10 591 590 593 594
884 10 592 590 593 594
885 11 610 590 593 594
886 10 590 593 594 595
887 10 590 593 594 596
888 12 590 593 594 597
889 12 593 594 597 598
890 10 595 594 597 598
891 10 596 594 597 598
892 10 594 597 598 599
893 10 594 597 598 600
894 12 594 597 598 601
895 12 597 598 601 602
896 10 599 598 601 602
897 10 600 598 601 602
898 10 598 601 602 603
899 10 598 601 602 604
900 12 598 601 602 605
901 12 601 602 605 606
902 10 603 602 605 606
903 10 604 602 605 606
904 10 602 605 606 607
905 10 602 605 606 608
906 12 602 605 606 609
907 13 605 606 609 6
908 14 607 606 609 6
909 14 608 606 609 6
910 15 631 1 610 590
911 15 652 1 610 590
912 16 1 610 590 591
913 16 1 610 590 592
914 17 1 610 590 593
915 18 606 609 6 904
916 18 606 609 6 925
917 18 606 609 6 946
918 10 612 611 614 615
919 10 613 611 614 615
920 11 631 611 614 615
921 10 611 614 615 616
922 10 611 614 615 617
923 12 611 614 615 618
924 12 614 615 618 619
925 10 616 615 618 619
926 10 617 615 618 619
927 10 615 618 619 620
928 10 615 618 619 621
929 12 615 618 619 622
930 12 618 619 622 623
931 10 620 619 622 623
932 10 621 619 622 623
933 10 619 622 623 624
934 10 619 622 623 625
935 12 619 622 623 626
936 12 622 623 626 627
937 10 624 623 626 627
938 10 625 623 626 627
939 10 623 626 627 628
940 10 623 626 627 629
941 12 623 626 627 630
942 13 626 627 630 5
943 14 628 627 630 5
944 14 629 627 630 5
945 15 610 1 631 611
946 15 652 1 631 611
947 16 1 631 611 612
948 16 1 631 611 613
949 17 1 631 611 614
950 19 627 630 5 798
951 18 627 630 5 862
952 18 627 630 5 883
953 10 633 632 635 636
954 10 634 632 635 636
955 11 652 632 635 636
956 10 632 635 636 637
957 10 632 635 636 638
958 12 632 635 636 639
959 12 635 636 639 640
960 10 637 636 639 640
961 10 638 636 639 640
962 10 636 639 640 641
963 10 636 639 640 642
964 12 636 639 640 643
965 12 639 640 643 644
966 10 641 640 643 644
967 10 642 640 643 644
968 10 640 643 644 645
969 10 640 643 644 646
970 12 640 643 644 647
971 12 643 644 647 648
972 10 645 644 647 648
973 10 646 644 647 648
974 10 644 647 648 649
975 10 644 647 648 650
976 12 644 647 648 651
977 13 647 648 651 98
978 14 649 648 651 98
979 14 650 648 651 98
980 15 610 1 652 632
981 15 631 1 652 632
982 16 1 652 632 633
983 16 1 652 632 634
984 17 1 652 632 635
985 19 648 651 98 1365
986 18 648 651 98 1575
987 18 648 651 98 1596
988 10 654 653 656 657
989 10 655 653 656 657
990 11 673 653 656 657
991 10 653 656 657 658
992 10 653 656 657 659
993 12 653 656 657 660
994 12 656 657 660 661
995 10 658 657 660 661
996 10 659 657 660 661
997 10 657 660 661 662
998 10 657 660 661 663
999 12 657 660 661 664
1000 12 660 661 664 665
1001 10 662 661 664 665
1002 10 663 661 664 665
1003 10 661 664 665 666
1004 10 661 664 665 667
1005 12 661 664 665 668
1006 12 664 665 668 669
1007 10 666 665 668 669
1008 10 667 665 668 669
1009 10 665 668 669 670
1010 10 665 668 669 671
1011 12 665 668 669 672
1012 13 668 669 672 3
1013 14 670 669 672 3
1014 14 671 669 672 3
1015 15 694 2 673 653
1016 15 715 2 673 653
1017 16 2 673 653 654
1018 16 2 673 653 655
1019 17 2 673 653 656
1020 18 669 672 3 736
1021 18 669 672 3 757
1022 18 669 672 3 778
1023 10 675 674 677 678
1024 10 676 674 677 678
1025 11 694 674 677 678
1026 10 674 677 678 679
1027 10 674 677 678 680
1028 12 674 677 678 681
1029 12 677 678 681 682
1030 10 679 678 681 682
1031 10 680 678 681 682
1032 10 678 681 682 683
1033 10 678 681 682 684
1034 12 678 681 682 685
1035 12 681 682 685 686
1036 10 683 682 685 686
1037 10 684 682 685 686
1038 10 682 685 686 687
1039 10 682 685 686 688
1040 12 682 685 686 689
1041 12 685 686 689 690
1042 10 687 686 689 690
1043 10 688 686 689 690
1044 10 686 689 690 691
1045 10 686 689 690 692
1046 12 686 689 690 693
1047 13 689 690 693 104
1048 14 691 690 693 104
1049 14 692 690 693 104
1050 15 673 2 694 674
1051 15 715 2 694 674
1052 16 2 694 674 675
1053 16 2 694 674 676
1054 17 2 694 674 677
1055 18 690 693 104 1806
1056 18 690 693 104 1827
1057 18 690 693 104 1848
1058 10 696 695 698 699
1059 10 697 695 698 699
1060 11 715 695 698 699
1061 10 695 698 699 700
1062 10 695 698 699 701
1063 12 695 698 699 702
1064 12 698 699 702 703
1065 10 700 699 702 703
1066 10 701 699 702 703
1067 10 699 702 703 704
1068 10 699 702 703 705
1069 12 699 702 703 706
1070 12 702 703 706 707
1071 10 704 703 706 707
1072 10 705 703 706 707
1073 10 703 706 707 708
1074 10 703 706 707 709
1075 12 703 706 707 710
1076 12 706 707 710 711
1077 10 708 707 710 711
1078 10 709 707 710 711
1079 10 707 710 711 712
1080 10 707 710 711 713
1081 12 707 710 711 714
1082 13 710 711 714 99
1083 14 712 711 714 99
1084 14 713 711 714 99
1085 15 673 2 715 695
1086 15 694 2 715 695
1087 16 2 715 695 696
1088 16 2 715 695 697
1089 17 2 715 695 698
1090 19 711 714 99 1428
1091 19 711 714 99 1574
1092 18 711 714 99 1617
1093 10 717 716 719 720
1094 10 718 716 719 720
1095 11 736 716 719 720
1096 10 716 719 720 721
1097 10 716 719 720 722
1098 12 716 719 720 723
1099 12 719 720 723 724
1100 10 721 720 723 724
1101 10 722 720 723 724
1102 10 720 723 724 725
1103 10 720 723 724 726
1104 12 720 723 724 727
1105 12 723 724 727 728
1106 10 725 724 727 728
1107 10 726 724 727 728
1108 10 724 727 728 729
1109 10 724 727 728 730
1110 12 724 727 728 731
1111 12 727 728 731 732
1112 10 729 728 731 732
1113 10 730 728 731 732
1114 10 728 731 732 733
1115 10 728 731 732 734
1116 12 728 731 732 735
1117 13 731 732 735 4
1118 14 733 732 735 4
1119 14 734 732 735 4
1120 20 672 3 736 716
1121 15 757 3 736 716
1122 15 778 3 736 716
1123 16 3 736 716 717
1124 16 3 736 716 718
1125 17 3 736 716 719
1126 18 732 735 4 799
1127 18 732 735 4 820
1128 18 732 735 4 841
1129 10 738 737 740 741
1130 10 739 737 740 741
1131 11 757 737 740 741
1132 10 737 740 741 742
1133 10 737 740 741 743
1134 12 737 740 741 744
1135 12 740 741 744 745
1136 10 742 741 744 745
1137 10 743 741 744 745
1138 10 741 744 745 746
1139 10 741 744 745 747
1140 12 741 744 745 748
1141 12 744 745 748 749
1142 10 746 745 748 749
1143 10 747 745 748 749
1144 10 745 748 749 750
1145 10 745 748 749 751
1146 12 745 748 749 752
1147 12 748 749 752 753
1148 10 750 749 752 753
1149 10 751 749 752 753
1150 10 749 752 753 754
1151 10 749 752 753 755
1152 12 749 752 753 756
1153 13 752 753 756 105
1154 14 754 753 756 105
1155 14 755 753 756 105
1156 20 672 3 757 737
1157 15 736 3 757 737
1158 15 778 3 757 737
1159 16 3 757 737 738
1160 16 3 757 737 739
1161 17 3 757 737 740
1162 19 753 756 105 1805
1163 18 753 756 105 1869
1164 18 753 756 105 1890
1165 10 759 758 761 762
1166 10 760 758 761 762
1167 11 778 758 761 762
1168 10 758 761 762 763
1169 10 758 761 762 764
1170 12 758 761 762 765
1171 12 761 762 765 766
1172 10 763 762 765 766
1173 10 764 762 765 766
1174 10 762 765 766 767
1175 10 762 765 766 768
1176 12 762 765 766 769
1177 12 765 766 769 770
1178 10 767 766 769 770
1179 10 768 766 769 770
1180 10 766 769 770 771
1181 10 766 769 770 772
1182 12 766 769 770 773
1183 12 769 770 773 774
1184 10 771 770 773 774
1185 10 772 770 773 774
1186 10 770 773 774 775
1187 10 770 773 774 776
1188 12 770 773 774 777
1189 13 773 774 777 100
1190 14 775 774 777 100
1191 14 776 774 777 100
1192 20 672 3 778 758
1193 15 736 3 778 758
1194 15 757 3 778 758
1195 16 3 778 758 759
1196 16 3 778 758 760
1197 17 3 778 758 761
1198 18 774 777 100 1638
1199 18 774 777 100 1659
1200 10 780 779 782 783
1201 10 781 779 782 783
1202 11 799 779 782 783
1203 10 779 782 783 784
1204 10 779 782 783 785
1205 12 779 782 783 786
1206 12 782 783 786 787
1207 10 784 783 786 787
1208 10 785 783 786 787
1209 10 783 786 787 788
1210 10 783 786 787 789
1211 12 783 786 787 790
1212 12 786 787 790 791
1213 10 788 787 790 791
1214 10 789 787 790 791
1215 10 787 790 791 792
1216 10 787 790 791 793
1217 12 787 790 791 794
1218 12 790 791 794 795
1219 10 792 791 794 795
1220 10 793 791 794 795
1221 10 791 794 795 796
1222 10 791 794 795 797
1223 12 791 794 795 798
1224 13 794 795 798 5
1225 14 796 795 798 5
1226 14 797 795 798 5
1227 20 735 4 799 779
1228 15 820 4 799 779
1229 15 841 4 799 779
1230 16 4 799 779 780
1231 16 4 799 779 781
1232 17 4 799 779 782
1233 19 795 798 5 630
1234 18 795 798 5 862
1235 18 795 798 5 883
1236 10 801 800 803 804
1237 10 802 800 803 804
1238 11 820 800 803 804
1239 10 800 803 804 805
1240 10 800 803 804 806
1241 12 800 803 804 807
1242 12 803 804 807 808
1243 10 805 804 807 808
1244 10 806 804 807 808
1245 10 804 807 808 809
1246 10 804 807 808 810
1247 12 804 807 808 811
1248 12 807 808 811 812
1249 10 809 808 811 812
1250 10 810 808 811 812
1251 10 808 811 812 813
1252 10 808 811 812 814
1253 12 808 811 812 815
1254 12 811 812 815 816
1255 10 813 812 815 816
1256 10 814 812 815 816
1257 10 812 815 816 817
1258 10 812 815 816 818
1259 12 812 815 816 819
1260 13 815 816 819 8
1261 14 817 816 819 8
1262 14 818 816 819 8
1263 20 735 4 820 800
1264 15 799 4 820 800
1265 15 841 4 820 800
1266 16 4 820 800 801
1267 16 4 820 800 802
1268 17 4 820 800 803
1269 19 816 819 8 966
1270 18 816 819 8 1051
1271 18 816 819 8 1072
1272 10 822 821 824 825
1273 10 823 821 824 825
1274 11 841 821 824 825
1275 10 821 824 825 826
1276 10 821 824 825 827
1277 12 821 824 825 828
1278 12 824 825 828 829
1279 10 826 825 828 829
1280 10 827 825 828 829
1281 10 825 828 829 830
1282 10 825 828 829 831
1283 12 825 828 829 832
1284 12 828 829 832 833
1285 10 830 829 832 833
1286 10 831 829 832 833
1287 10 829 832 833 834
1288 10 829 832 833 835
1289 12 829 832 833 836
1290 12 832 833 836 837
1291 10 834 833 836 837
1292 10 835 833 836 837
1293 10 833 836 837 838
1294 10 833 836 837 839
1295 12 833 836 837 840
1296 13 836 837 840 106
1297 14 838 837 840 106
1298 14 839 837 840 106
1299 20 735 4 841 821
1300 15 799 4 841 821
1301 15 820 4 841 821
1302 16 4 841 821 822
1303 16 4 841 821 823
1304 17 4 841 821 824
1305 18 837 840 106 1911
1306 18 837 840 106 1932
1307 18 837 840 106 1953
1308 10 843 842 845 846
1309 10 844 842 845 846
1310 11 862 842 845 846
1311 10 842 845 846 847
1312 10 842 845 846 848
1313 12 842 845 846 849
1314 12 845 846 849 850
1315 10 847 846 849 850
1316 10 848 846 849 850
1317 10 846 849 850 851
1318 10 846 849 850 852
1319 12 846 849 850 853
1320 12 849 850 853 854
1321 10 851 850 853 854
1322 10 852 850 853 854
1323 10 850 853 854 855
1324 10 850 853 854 856
1325 12 850 853 854 857
1326 12 853 854 857 858
1327 10 855 854 857 858
1328 10 856 854 857 858
1329 10 854 857 858 859
1330 10 854 857 858 860
1331 12 854 857 858 861
1332 13 857 858 861 9
1333 14 859 858 861 9
1334 14 860 858 861 9
1335 20 630 5 862 842
1336 20 798 5 862 842
1337 15 883 5 862 842
1338 16 5 862 842 843
1339 16 5 862 842 844
1340 17 5 862 842 845
1341 19 858 861 9 924
1342 19 858 861 9 1050
1343 18 858 861 9 1093
1344 10 864 863 866 867
1345 10 865 863 866 867
1346 11 883 863 866 867
1347 10 863 866 867 868
1348 10 863 866 867 869
1349 12 863 866 867 870
1350 12 866 867 870 871
1351 10 868 867 870 871
1352 10 869 867 870 871
1353 10 867 870 871 872
1354 10 867 870 871 873
1355 12 867 870 871 874
1356 12 870 871 874 875
1357 10 872 871 874 875
1358 10 873 871 874 875
1359 10 871 874 875 876
1360 10 871 874 875 877
1361 12 871 874 875 878
1362 12 874 875 878 879
1363 10 876 875 878 879
1364 10 877 875 878 879
1365 10 875 878 879 880
1366 10 875 878 879 881
1367 12 875 878 879 882
1368 13 878 879 882 107
1369 14 880 879 882 107
1370 14 881 879 882 107
1371 20 630 5 883 863
1372 20 798 5 883 863
1373 15 862 5 883 863
1374 16 5 883 863 864
1375 16 5 883 863 865
1376 17 5 883 863 866
1377 19 879 882 107 1763
1378 19 879 882 107 1910
1379 18 879 882 107 1974
1380 10 885 884 887 888
1381 10 886 884 887 888
1382 11 904 884 887 888
1383 10 884 887 888 889
1384 10 884 887 888 890
1385 12 884 887 888 891
1386 12 887 888 891 892
1387 10 889 888 891 892
1388 10 890 888 891 892
1389 10 888 891 892 893
1390 10 888 891 892 894
1391 12 888 891 892 895
1392 12 891 892 895 896
1393 10 893 892 895 896
1394 10 894 892 895 896
1395 10 892 895 896 897
1396 10 892 895 896 898
1397 12 892 895 896 899
1398 12 895 896 899 900
1399 10 897 896 899 900
1400 10 898 896 899 900
1401 10 896 899 900 901
1402 10 896 899 900 902
1403 12 896 899 900 903
1404 13 899 900 903 108
1405 14 901 900 903 108
1406 14 902 900 903 108
1407 20 609 6 904 884
1408 15 925 6 904 884
1409 15 946 6 904 884
1410 16 6 904 884 885
1411 16 6 904 884 886
1412 17 6 904 884 887
1413 18 900 903 108 1995
1414 18 900 903 108 2016
1415 10 906 905 908 909
1416 10 907 905 908 909
1417 11 925 905 908 909
1418 10 905 908 909 910
1419 10 905 908 909 911
1420 12 905 908 909 912
1421 12 908 909 912 913
1422 10 910 909 912 913
1423 10 911 909 912 913
1424 10 909 912 913 914
1425 10 909 912 913 915
1426 12 909 912 913 916
1427 12 912 913 916 917
1428 10 914 913 916 917
1429 10 915 913 916 917
1430 10 913 916 917 918
1431 10 913 916 917 919
1432 12 913 916 917 920
1433 12 916 917 920 921
1434 10 918 917 920 921
1435 10 919 917 920 921
1436 10 917 920 921 922
1437 10 917 920 921 923
1438 12 917 920 921 924
1439 13 920 921 924 9
1440 14 922 921 924 9
1441 14 923 921 924 9
1442 20 609 6 925 905
1443 15 904 6 925 905
1444 15 946 6 925 905
1445 16 6 925 905 906
1446 16 6 925 905 907
1447 17 6 925 905 908
1448 19 921 924 9 861
1449 19 921 924 9 1050
1450 18 921 924 9 1093
1451 10 927 926 929 930
1452 10 928 926 929 930
1453 11 946 926 929 930
1454 10 926 929 930 931
1455 10 926 929 930 932
1456 12 926 929 930 933
1457 12 929 930 933 934
1458 10 931 930 933 934
1459 10 932 930 933 934
1460 10 930 933 934 935
1461 10 930 933 934 936
1462 12 930 933 934 937
1463 12 933 934 937 938
1464 10 935 934 937 938
1465 10 936 934 937 938
1466 10 934 937 938 939
1467 10 934 937 938 940
1468 12 934 937 938 941
1469 12 937 938 941 942
1470 10 939 938 941 942
1471 10 940 938 941 942
1472 10 938 941 942 943
1473 10 938 941 942 944
1474 12 938 941 942 945
1475 13 941 942 945 492
1476 14 943 942 945 492
1477 14 944 942 945 492
1478 20 609 6 946 926
1479 15 904 6 946 926
1480 15 925 6 946 926
1481 16 6 946 926 927
1482 16 6 946 926 928
1483 17 6 946 926 929
1484 19 942 945 492 3673
1485 18 942 945 492 4598
1486 18 942 945 492 4619
1487 10 948 947 950 951
1488 10 949 947 950 951
1489 11 967 947 950 951
1490 10 947 950 951 952
1491 10 947 950 951 953
1492 12 947 950 951 954
1493 12 950 951 954 955
1494 10 952 951 954 955
1495 10 953 951 954 955
1496 10 951 954 955 956
1497 10 951 954 955 957
1498 12 951 954 955 958
1499 12 954 955 958 959
1500 10 956 955 958 959
1501 10 957 955 958 959
1502 10 955 958 959 960
1503 10 955 958 959 961
1504 12 955 958 959 962
1505 12 958 959 962 963
1506 10 960 959 962 963
1507 10 961 959 962 963
1508 10 959 962 963 964
1509 10 959 962 963 965
1510 12 959 962 963 966
1511 13 962 963 966 8
1512 14 964 963 966 8
1513 14 965 963 966 8
1514 15 988 7 967 947
1515 15 1009 7 967 947
1516 15 1030 7 967 947
1517 16 7 967 947 948
1518 16 7 967 947 949
1519 17 7 967 947 950
1520 19 963 966 8 819
1521 18 963 966 8 1051
1522 18 963 966 8 1072
1523 10 969 968 971 972
1524 10 970 968 971 972
1525 11 988 968 971 972
1526 10 968 971 972 973
1527 10 968 971 972 974
1528 12 968 971 972 975
1529 12 971 972 975 976
1530 10 973 972 975 976
1531 10 974 972 975 976
1532 10 972 975 976 977
1533 10 972 975 976 978
1534 12 972 975 976 979
1535 12 975 976 979 980
1536 10 977 976 979 980
1537 10 978 976 979 980
1538 10 976 979 980 981
1539 10 976 979 980 982
1540 12 976 979 980 983
1541 12 979 980 983 984
1542 10 981 980 983 984
1543 10 982 980 983 984
1544 10 980 983 984 985
1545 10 980 983 984 986
1546 12 980 983 984 987
1547 13 983 984 987 12
1548 14 985 984 987 12
1549 14 986 984 987 12
1550 15 967 7 988 968
1551 15 1009 7 988 968
1552 15 1030 7 988 968
1553 16 7 988 968 969
1554 16 7 988 968 970
1555 17 7 988 968 971
1556 19 984 987 12 1176
1557 18 984 987 12 1240
1558 18 984 987 12 1261
1559 10 990 989 992 993
1560 10 991 989 992 993
1561 11 1009 989 992 993
1562 10 989 992 993 994
1563 10 989 992 993 995
1564 12 989 992 993 996
1565 12 992 993 996 997
1566 10 994 993 996 997
1567 10 995 993 996 997
1568 10 993 996 997 998
1569 10 993 996 997 999
1570 12 993 996 997 1000
1571 12 996 997 1000 1001
1572 10 998 997 1000 1001
1573 10 999 997 1000 1001
1574 10 997 1000 1001 1002
1575 10 997 1000 1001 1003
1576 12 997 1000 1001 1004
1577 12 1000 1001 1004 1005
1578 10 1002 1001 1004 1005
1579 10 1003 1001 1004 1005
1580 10 1001 1004 1005 1006
1581 10 1001 1004 1005 1007
1582 12 1001 1004 1005 1008
1583 13 1004 1005 1008 110
1584 14 1006 1005 1008 110
1585 14 1007 1005 1008 110
1586 15 967 7 1009 989
1587 15 988 7 1009 989
1588 15 1030 7 1009 989
1589 16 7 1009 989 990
1590 16 7 1009 989 991
1591 17 7 1009 989 992
1592 19 1005 1008 110 1868
1593 18 1005 1008 110 2079
1594 18 1005 1008 110 2100
1595 10 1011 1010 1013 1014
1596 10 1012 1010 1013 1014
1597 11 1030 1010 1013 1014
1598 10 1010 1013 1014 1015
1599 10 1010 1013 1014 1016
1600 12 1010 1013 1014 1017
1601 12 1013 1014 1017 1018
1602 10 1015 1014 1017 1018
1603 10 1016 1014 1017 1018
1604 10 1014 1017 1018 1019
1605 10 1014 1017 1018 1020
1606 12 1014 1017 1018 1021
1607 12 1017 1018 1021 1022
1608 10 1019 1018 1021 1022
1609 10 1020 1018 1021 1022
1610 10 1018 1021 1022 1023
1611 10 1018 1021 1022 1024
1612 12 1018 1021 1022 1025
1613 12 1021 1022 1025 1026
1614 10 1023 1022 1025 1026
1615 10 1024 1022 1025 1026
1616 10 1022 1025 1026 1027
1617 10 1022 1025 1026 1028
1618 12 1022 1025 1026 1029
1619 13 1025 1026 1029 494
1620 14 1027 1026 1029 494
1621 14 1028 1026 1029 494
1622 15 967 7 1030 1010
1623 15 988 7 1030 1010
1624 15 1009 7 1030 1010
1625 16 7 1030 1010 1011
1626 16 7 1030 1010 1012
1627 17 7 1030 1010 1013
1628 19 1026 1029 494 3778
1629 19 1026 1029 494 4513
1630 18 1026 1029 494 4661
1631 10 1032 1031 1034 1035
1632 10 1033 1031 1034 1035
1633 11 1051 1031 1034 1035
1634 10 1031 1034 1035 1036
1635 10 1031 1034 1035 1037
1636 12 1031 1034 1035 1038
1637 12 1034 1035 1038 1039
1638 10 1036 1035 1038 1039
1639 10 1037 1035 1038 1039
1640 10 1035 1038 1039 1040
1641 10 1035 1038 1039 1041
1642 12 1035 1038 1039 1042
1643 12 1038 1039 1042 1043
1644 10 1040 1039 1042 1043
1645 10 1041 1039 1042 1043
1646 10 1039 1042 1043 1044
1647 10 1039 1042 1043 1045
1648 12 1039 1042 1043 1046
1649 12 1042 1043 1046 1047
1650 10 1044 1043 1046 1047
1651 10 1045 1043 1046 1047
1652 10 1043 1046 1047 1048
1653 10 1043 1046 1047 1049
1654 12 1043 1046 1047 1050
1655 13 1046 1047 1050 9
1656 14 1048 1047 1050 9
1657 14 1049 1047 1050 9
1658 20 819 8 1051 1031
1659 20 966 8 1051 1031
1660 15 1072 8 1051 1031
1661 16 8 1051 1031 1032
1662 16 8 1051 1031 1033
1663 17 8 1051 1031 1034
1664 19 1047 1050 9 861
1665 19 1047 1050 9 924
1666 18 1047 1050 9 1093
1667 10 1053 1052 1055 1056
1668 10 1054 1052 1055 1056
1669 11 1072 1052 1055 1056
1670 10 1052 1055 1056 1057
1671 10 1052 1055 1056 1058
1672 12 1052 1055 1056 1059
1673 12 1055 1056 1059 1060
1674 10 1057 1056 1059 1060
1675 10 1058 1056 1059 1060
1676 10 1056 1059 1060 1061
1677 10 1056 1059 1060 1062
1678 12 1056 1059 1060 1063
1679 12 1059 1060 1063 1064
1680 10 1061 1060 1063 1064
1681 10 1062 1060 1063 1064
1682 10 1060 1063 1064 1065
1683 10 1060 1063 1064 1066
1684 12 1060 1063 1064 1067
1685 12 1063 1064 1067 1068
1686 10 1065 1064 1067 1068
1687 10 1066 1064 1067 1068
1688 10 1064 1067 1068 1069
1689 10 1064 1067 1068 1070
1690 12 1064 1067 1068 1071
1691 13 1067 1068 1071 495
1692 14 1069 1068 1071 495
1693 14 1070 1068 1071 495
1694 20 819 8 1072 1052
1695 20 966 8 1072 1052
1696 15 1051 8 1072 1052
1697 16 8 1072 1052 1053
1698 16 8 1072 1052 1054
1699 17 8 1072 1052 1055
1700 19 1068 1071 495 4555
1701 18 1068 1071 495 4682
1702 10 1074 1073 1076 1077
1703 10 1075 1073 1076 1077
1704 11 1093 1073 1076 1077
1705 10 1073 1076 1077 1078
1706 10 1073 1076 1077 1079
1707 12 1073 1076 1077 1080
1708 12 1076 1077 1080 1081
1709 10 1078 1077 1080 1081
1710 10 1079 1077 1080 1081
1711 10 1077 1080 1081 1082
1712 10 1077 1080 1081 1083
1713 12 1077 1080 1081 1084
1714 12 1080 1081 1084 1085
1715 10 1082 1081 1084 1085
1716 10 1083 1081 1084 1085
1717 10 1081 1084 1085 1086
1718 10 1081 1084 1085 1087
1719 12 1081 1084 1085 1088
1720 12 1084 1085 1088 1089
1721 10 1086 1085 1088 1089
1722 10 1087 1085 1088 1089
1723 10 1085 1088 1089 1090
1724 10 1085 1088 1089 1091
1725 12 1085 1088 1089 1092
1726 13 1088 1089 1092 112
1727 14 1090 1089 1092 112
1728 14 1091 1089 1092 112
1729 20 861 9 1093 1073
1730 20 924 9 1093 1073
1731 20 1050 9 1093 1073
1732 16 9 1093 1073 1074
1733 16 9 1093 1073 1075
1734 17 9 1093 1073 1076
1735 19 1089 1092 112 2120
1736 18 1089 1092 112 2163
1737 10 1095 1094 1097 1098
1738 10 1096 1094 1097 1098
1739 11 1114 1094 1097 1098
1740 10 1094 1097 1098 1099
1741 10 1094 1097 1098 1100
1742 12 1094 1097 1098 1101
1743 12 1097 1098 1101 1102
1744 10 1099 1098 1101 1102
1745 10 1100 1098 1101 1102
1746 10 1098 1101 1102 1103
1747 10 1098 1101 1102 1104
1748 12 1098 1101 1102 1105
1749 12 1101 1102 1105 1106
1750 10 1103 1102 1105 1106
1751 10 1104 1102 1105 1106
1752 10 1102 1105 1106 1107
1753 10 1102 1105 1106 1108
1754 12 1102 1105 1106 1109
1755 12 1105 1106 1109 1110
1756 10 1107 1106 1109 1110
1757 10 1108 1106 1109 1110
1758 10 1106 1109 1110 1111
1759 10 1106 1109 1110 1112
1760 12 1106 1109 1110 1113
1761 13 1109 1110 1113 15
1762 14 1111 1110 1113 15
1763 14 1112 1110 1113 15
1764 15 1135 10 1114 1094
1765 15 1156 10 1114 1094
1766 16 10 1114 1094 1095
1767 16 10 1114 1094 1096
1768 17 10 1114 1094 1097
1769 18 1110 1113 15 1366
1770 18 1110 1113 15 1387
1771 18 1110 1113 15 1408
1772 10 1116 1115 1118 1119
1773 10 1117 1115 1118 1119
1774 11 1135 1115 1118 1119
1775 10 1115 1118 1119 1120
1776 10 1115 1118 1119 1121
1777 12 1115 1118 1119 1122
1778 12 1118 1119 1122 1123
1779 10 1120 1119 1122 1123
1780 10 1121 1119 1122 1123
1781 10 1119 1122 1123 1124
1782 10 1119 1122 1123 1125
1783 12 1119 1122 1123 1126
1784 12 1122 1123 1126 1127
1785 10 1124 1123 1126 1127
1786 10 1125 1123 1126 1127
1787 10 1123 1126 1127 1128
1788 10 1123 1126 1127 1129
1789 12 1123 1126 1127 1130
1790 12 1126 1127 1130 1131
1791 10 1128 1127 1130 1131
1792 10 1129 1127 1130 1131
1793 10 1127 1130 1131 1132
1794 10 1127 1130 1131 1133
1795 12 1127 1130 1131 1134
1796 13 1130 1131 1134 113
1797 14 1132 1131 1134 113
1798 14 1133 1131 1134 113
1799 15 1114 10 1135 1115
1800 15 1156 10 1135 1115
1801 16 10 1135 1115 1116
1802 16 10 1135 1115 1117
1803 17 10 1135 1115 1118
1804 19 1131 1134 113 2015
1805 18 1131 1134 113 2184
1806 10 1137 1136 1139 1140
1807 10 1138 1136 1139 1140
1808 11 1156 1136 1139 1140
1809 10 1136 1139 1140 1141
1810 10 1136 1139 1140 1142
1811 12 1136 1139 1140 1143
1812 12 1139 1140 1143 1144
1813 10 1141 1140 1143 1144
1814 10 1142 1140 1143 1144
1815 10 1140 1143 1144 1145
1816 10 1140 1143 1144 1146
1817 12 1140 1143 1144 1147
1818 12 1143 1144 1147 1148
1819 10 1145 1144 1147 1148
1820 10 1146 1144 1147 1148
1821 10 1144 1147 1148 1149
1822 10 1144 1147 1148 1150
1823 12 1144 1147 1148 1151
1824 12 1147 1148 1151 1152
1825 10 1149 1148 1151 1152
1826 10 1150 1148 1151 1152
1827 10 1148 1151 1152 1153
1828 10 1148 1151 1152 1154
1829 12 1148 1151 1152 1155
1830 13 1151 1152 1155 14
1831 14 1153 1152 1155 14
1832 14 1154 1152 1155 14
1833 15 1114 10 1156 1136
1834 15 1135 10 1156 1136
1835 16 10 1156 1136 1137
1836 16 10 1156 1136 1138
1837 17 10 1156 1136 1139
1838 19 1152 1155 14 1281
1839 18 1152 1155 14 1345
1840 10 1158 1157 1160 1161
1841 10 1159 1157 1160 1161
1842 11 1177 1157 1160 1161
1843 10 1157 1160 1161 1162
1844 10 1157 1160 1161 1163
1845 12 1157 1160 1161 1164
1846 12 1160 1161 1164 1165
1847 10 1162 1161 1164 1165
1848 10 1163 1161 1164 1165
1849 10 1161 1164 1165 1166
1850 10 1161 1164 1165 1167
1851 12 1161 1164 1165 1168
1852 12 1164 1165 1168 1169
1853 10 1166 1165 1168 1169
1854 10 1167 1165 1168 1169
1855 10 1165 1168 1169 1170
1856 10 1165 1168 1169 1171
1857 12 1165 1168 1169 1172
1858 12 1168 1169 1172 1173
1859 10 1170 1169 1172 1173
1860 10 1171 1169 1172 1173
1861 10 1169 1172 1173 1174
1862 10 1169 1172 1173 1175
1863 12 1169 1172 1173 1176
1864 13 1172 1173 1176 12
1865 14 1174 1173 1176 12
1866 14 1175 1173 1176 12
1867 15 1198 11 1177 1157
1868 15 1219 11 1177 1157
1869 16 11 1177 1157 1158
1870 16 11 1177 1157 1159
1871 17 11 1177 1157 1160
1872 19 1173 1176 12 987
1873 18 1173 1176 12 1240
1874 18 1173 1176 12 1261
1875 10 1179 1178 1181 1182
1876 10 1180 1178 1181 1182
1877 11 1198 1178 1181 1182
1878 10 1178 1181 1182 1183
1879 10 1178 1181 1182 1184
1880 12 1178 1181 1182 1185
1881 12 1181 1182 1185 1186
1882 10 1183 1182 1185 1186
1883 10 1184 1182 1185 1186
1884 10 1182 1185 1186 1187
1885 10 1182 1185 1186 1188
1886 12 1182 1185 1186 1189
1887 12 1185 1186 1189 1190
1888 10 1187 1186 1189 1190
1889 10 1188 1186 1189 1190
1890 10 1186 1189 1190 1191
1891 10 1186 1189 1190 1192
1892 12 1186 1189 1190 1193
1893 12 1189 1190 1193 1194
1894 10 1191 1190 1193 1194
1895 10 1192 1190 1193 1194
1896 10 1190 1193 1194 1195
1897 10 1190 1193 1194 1196
1898 12 1190 1193 1194 1197
1899 13 1193 1194 1197 16
1900 14 1195 1194 1197 16
1901 14 1196 1194 1197 16
1902 15 1177 11 1198 1178
1903 15 1219 11 1198 1178
1904 16 11 1198 1178 1179
1905 16 11 1198 1178 1180
1906 17 11 1198 1178 1181
1907 18 1194 1197 16 1429
1908 18 1194 1197 16 1450
1909 10 1200 1199 1202 1203
1910 10 1201 1199 1202 1203
1911 11 1219 1199 1202 1203
1912 10 1199 1202 1203 1204
1913 10 1199 1202 1203 1205
1914 12 1199 1202 1203 1206
1915 12 1202 1203 1206 1207
1916 10 1204 1203 1206 1207
1917 10 1205 1203 1206 1207
1918 10 1203 1206 1207 1208
1919 10 1203 1206 1207 1209
1920 12 1203 1206 1207 1210
1921 12 1206 1207 1210 1211
1922 10 1208 1207 1210 1211
1923 10 1209 1207 1210 1211
1924 10 1207 1210 1211 1212
1925 10 1207 1210 1211 1213
1926 12 1207 1210 1211 1214
1927 12 1210 1211 1214 1215
1928 10 1212 1211 1214 1215
1929 10 1213 1211 1214 1215
1930 10 1211 1214 1215 1216
1931 10 1211 1214 1215 1217
1932 12 1211 1214 1215 1218
1933 13 1214 1215 1218 114
1934 14 1216 1215 1218 114
1935 14 1217 1215 1218 114
1936 15 1177 11 1219 1199
1937 15 1198 11 1219 1199
1938 16 11 1219 1199 1200
1939 16 11 1219 1199 1201
1940 17 11 1219 1199 1202
1941 19 1215 1218 114 2036
1942 18 1215 1218 114 2205
1943 10 1221 1220 1223 1224
1944 10 1222 1220 1223 1224
1945 11 1240 1220 1223 1224
1946 10 1220 1223 1224 1225
1947 10 1220 1223 1224 1226
1948 12 1220 1223 1224 1227
1949 12 1223 1224 1227 1228
1950 10 1225 1224 1227 1228
1951 10 1226 1224 1227 1228
1952 10 1224 1227 1228 1229
1953 10 1224 1227 1228 1230
1954 12 1224 1227 1228 1231
1955 12 1227 1228 1231 1232
1956 10 1229 1228 1231 1232
1957 10 1230 1228 1231 1232
1958 10 1228 1231 1232 1233
1959 10 1228 1231 1232 1234
1960 12 1228 1231 1232 1235
1961 12 1231 1232 1235 1236
1962 10 1233 1232 1235 1236
1963 10 1234 1232 1235 1236
1964 10 1232 1235 1236 1237
1965 10 1232 1235 1236 1238
1966 12 1232 1235 1236 1239
1967 13 1235 1236 1239 115
1968 14 1237 1236 1239 115
1969 14 1238 1236 1239 115
1970 20 987 12 1240 1220
1971 20 1176 12 1240 1220
1972 15 1261 12 1240 1220
1973 16 12 1240 1220 1221
1974 16 12 1240 1220 1222
1975 17 12 1240 1220 1223
1976 19 1236 1239 115 2078
1977 18 1236 1239 115 2226
1978 18 1236 1239 115 2247
1979 10 1242 1241 1244 1245
1980 10 1243 1241 1244 1245
1981 11 1261 1241 1244 1245
1982 10 1241 1244 1245 1246
1983 10 1241 1244 1245 1247
1984 12 1241 1244 1245 1248
1985 12 1244 1245 1248 1249
1986 10 1246 1245 1248 1249
1987 10 1247 1245 1248 1249
1988 10 1245 1248 1249 1250
1989 10 1245 1248 1249 1251
1990 12 1245 1248 1249 1252
1991 12 1248 1249 1252 1253
1992 10 1250 1249 1252 1253
1993 10 1251 1249 1252 1253
1994 10 1249 1252 1253 1254
1995 10 1249 1252 1253 1255
1996 12 1249 1252 1253 1256
1997 12 1252 1253 1256 1257
1998 10 1254 1253 1256 1257
1999 10 1255 1253 1256 1257
2000 10 1253 1256 1257 1258
2001 10 1253 1256 1257 1259
2002 12 1253 1256 1257 1260
2003 13 1256 1257 1260 499
2004 14 1258 1257 1260 499
2005 14 1259 1257 1260 499
2006 20 987 12 1261 1241
2007 20 1176 12 1261 1241
2008 15 1240 12 1261 1241
2009 16 12 1261 1241 1242
2010 16 12 1261 1241 1243
2011 17 12 1261 1241 1244
2012 19 1257 1260 499 4660
2013 19 1257 1260 499 4765
2014 18 1257 1260 499 4787
2015 10 1263 1262 1265 1266
2016 10 1264 1262 1265 1266
2017 11 1282 1262 1265 1266
2018 10 1262 1265 1266 1267
2019 10 1262 1265 1266 1268
2020 12 1262 1265 1266 1269
2021 12 1265 1266 1269 1270
2022 10 1267 1266 1269 1270
2023 10 1268 1266 1269 1270
2024 10 1266 1269 1270 1271
2025 10 1266 1269 1270 1272
2026 12 1266 1269 1270 1273
2027 12 1269 1270 1273 1274
2028 10 1271 1270 1273 1274
2029 10 1272 1270 1273 1274
2030 10 1270 1273 1274 1275
2031 10 1270 1273 1274 1276
2032 12 1270 1273 1274 1277
2033 12 1273 1274 1277 1278
2034 10 1275 1274 1277 1278
2035 10 1276 1274 1277 1278
2036 10 1274 1277 1278 1279
2037 10 1274 1277 1278 1280
2038 12 1274 1277 1278 1281
2039 13 1277 1278 1281 14
2040 14 1279 1278 1281 14
2041 14 1280 1278 1281 14
2042 15 1303 13 1282 1262
2043 15 1324 13 1282 1262
2044 16 13 1282 1262 1263
2045 16 13 1282 1262 1264
2046 17 13 1282 1262 1265
2047 19 1278 1281 14 1155
2048 18 1278 1281 14 1345
2049 10 1284 1283 1286 1287
2050 10 1285 1283 1286 1287
2051 11 1303 1283 1286 1287
2052 10 1283 1286 1287 1288
2053 10 1283 1286 1287 1289
2054 12 1283 1286 1287 1290
2055 12 1286 1287 1290 1291
2056 10 1288 1287 1290 1291
2057 10 1289 1287 1290 1291
2058 10 1287 1290 1291 1292
2059 10 1287 1290 1291 1293
2060 12 1287 1290 1291 1294
2061 12 1290 1291 1294 1295
2062 10 1292 1291 1294 1295
2063 10 1293 1291 1294 1295
2064 10 1291 1294 1295 1296
2065 10 1291 1294 1295 1297
2066 12 1291 1294 1295 1298
2067 12 1294 1295 1298 1299
2068 10 1296 1295 1298 1299
2069 10 1297 1295 1298 1299
2070 10 1295 1298 1299 1300
2071 10 1295 1298 1299 1301
2072 12 1295 1298 1299 1302
2073 13 1298 1299 1302 96
2074 14 1300 1299 1302 96
2075 14 1301 1299 1302 96
2076 15 1282 13 1303 1283
2077 15 1324 13 1303 1283
2078 16 13 1303 1283 1284
2079 16 13 1303 1283 1285
2080 17 13 1303 1283 1286
2081 18 1299 1302 96 1491
2082 18 1299 1302 96 1512
2083 10 1305 1304 1307 1308
2084 10 1306 1304 1307 1308
2085 11 1324 1304 1307 1308
2086 10 1304 1307 1308 1309
2087 10 1304 1307 1308 1310
2088 12 1304 1307 1308 1311
2089 12 1307 1308 1311 1312
2090 10 1309 1308 1311 1312
2091 10 1310 1308 1311 1312
2092 10 1308 1311 1312 1313
2093 10 1308 1311 1312 1314
2094 12 1308 1311 1312 1315
2095 12 1311 1312 1315 1316
2096 10 1313 1312 1315 1316
2097 10 1314 1312 1315 1316
2098 10 1312 1315 1316 1317
2099 10 1312 1315 1316 1318
2100 12 1312 1315 1316 1319
2101 12 1315 1316 1319 1320
2102 10 1317 1316 1319 1320
2103 10 1318 1316 1319 1320
2104 10 1316 1319 1320 1321
2105 10 1316 1319 1320 1322
2106 12 1316 1319 1320 1323
2107 13 1319 1320 1323 500
2108 14 1321 1320 1323 500
2109 14 1322 1320 1323 500
2110 15 1282 13 1324 1304
2111 15 1303 13 1324 1304
2112 16 13 1324 1304 1305
2113 16 13 1324 1304 1306
2114 17 13 1324 1304 1307
2115 19 1320 1323 500 4681
2116 18 1320 1323 500 4808
2117 18 1320 1323 500 4829
2118 10 1326 1325 1328 1329
2119 10 1327 1325 1328 1329
2120 11 1345 1325 1328 1329
2121 10 1325 1328 1329 1330
2122 10 1325 1328 1329 1331
2123 12 1325 1328 1329 1332
2124 12 1328 1329 1332 1333
2125 10 1330 1329 1332 1333
2126 10 1331 1329 1332 1333
2127 10 1329 1332 1333 1334
2128 10 1329 1332 1333 1335
2129 12 1329 1332 1333 1336
2130 12 1332 1333 1336 1337
2131 10 1334 1333 1336 1337
2132 10 1335 1333 1336 1337
2133 10 1333 1336 1337 1338
2134 10 1333 1336 1337 1339
2135 12 1333 1336 1337 1340
2136 12 1336 1337 1340 1341
2137 10 1338 1337 1340 1341
2138 10 1339 1337 1340 1341
2139 10 1337 1340 1341 1342
2140 10 1337 1340 1341 1343
2141 12 1337 1340 1341 1344
2142 13 1340 1341 1344 97
2143 14 1342 1341 1344 97
2144 14 1343 1341 1344 97
2145 20 1155 14 1345 1325
2146 20 1281 14 1345 1325
2147 16 14 1345 1325 1326
2148 16 14 1345 1325 1327
2149 17 14 1345 1325 1328
2150 19 1341 1344 97 1407
2151 18 1341 1344 97 1533
2152 18 1341 1344 97 1554
2153 10 1347 1346 1349 1350
2154 10 1348 1346 1349 1350
2155 11 1366 1346 1349 1350
2156 10 1346 1349 1350 1351
2157 10 1346 1349 1350 1352
2158 12 1346 1349 1350 1353
2159 12 1349 1350 1353 1354
2160 10 1351 1350 1353 1354
2161 10 1352 1350 1353 1354
2162 10 1350 1353 1354 1355
2163 10 1350 1353 1354 1356
2164 12 1350 1353 1354 1357
2165 12 1353 1354 1357 1358
2166 10 1355 1354 1357 1358
2167 10 1356 1354 1357 1358
2168 10 1354 1357 1358 1359
2169 10 1354 1357 1358 1360
2170 12 1354 1357 1358 1361
2171 12 1357 1358 1361 1362
2172 10 1359 1358 1361 1362
2173 10 1360 1358 1361 1362
2174 10 1358 1361 1362 1363
2175 10 1358 1361 1362 1364
2176 12 1358 1361 1362 1365
2177 13 1361 1362 1365 98
2178 14 1363 1362 1365 98
2179 14 1364 1362 1365 98
2180 20 1113 15 1366 1346
2181 15 1387 15 1366 1346
2182 15 1408 15 1366 1346
2183 16 15 1366 1346 1347
2184 16 15 1366 1346 1348
2185 17 15 1366 1346 1349
2186 19 1362 1365 98 651
2187 18 1362 1365 98 1575
2188 18 1362 1365 98 1596
2189 10 1368 1367 1370 1371
2190 10 1369 1367 1370 1371
2191 11 1387 1367 1370 1371
2192 10 1367 1370 1371 1372
2193 10 1367 1370 1371 1373
2194 12 1367 1370 1371 1374
2195 12 1370 1371 1374 1375
2196 10 1372 1371 1374 1375
2197 10 1373 1371 1374 1375
2198 10 1371 1374 1375 1376
2199 10 1371 1374 1375 1377
2200 12 1371 1374 1375 1378
2201 12 1374 1375 1378 1379
2202 10 1376 1375 1378 1379
2203 10 1377 1375 1378 1379
2204 10 1375 1378 1379 1380
2205 10 1375 1378 1379 1381
2206 12 1375 1378 1379 1382
2207 12 1378 1379 1382 1383
2208 10 1380 1379 1382 1383
2209 10 1381 1379 1382 1383
2210 10 1379 1382 1383 1384
2211 10 1379 1382 1383 1385
2212 12 1379 1382 1383 1386
2213 13 1382 1383 1386 118
2214 14 1384 1383 1386 118
2215 14 1385 1383 1386 118
2216 20 1113 15 1387 1367
2217 15 1366 15 1387 1367
2218 15 1408 15 1387 1367
2219 16 15 1387 1367 1368
2220 16 15 1387 1367 1369
2221 17 15 1387 1367 1370
2222 19 1383 1386 118 2183
2223 18 1383 1386 118 2373
2224 18 1383 1386 118 2394
2225 10 1389 1388 1391 1392
2226 10 1390 1388 1391 1392
2227 11 1408 1388 1391 1392
2228 10 1388 1391 1392 1393
2229 10 1388 1391 1392 1394
2230 12 1388 1391 1392 1395
2231 12 1391 1392 1395 1396
2232 10 1393 1392 1395 1396
2233 10 1394 1392 1395 1396
2234 10 1392 1395 1396 1397
2235 10 1392 1395 1396 1398
2236 12 1392 1395 1396 1399
2237 12 1395 1396 1399 1400
2238 10 1397 1396 1399 1400
2239 10 1398 1396 1399 1400
2240 10 1396 1399 1400 1401
2241 10 1396 1399 1400 1402
2242 12 1396 1399 1400 1403
2243 12 1399 1400 1403 1404
2244 10 1401 1400 1403 1404
2245 10 1402 1400 1403 1404
2246 10 1400 1403 1404 1405
2247 10 1400 1403 1404 1406
2248 12 1400 1403 1404 1407
2249 13 1403 1404 1407 97
2250 14 1405 1404 1407 97
2251 14 1406 1404 1407 97
2252 20 1113 15 1408 1388
2253 15 1366 15 1408 1388
2254 15 1387 15 1408 1388
2255 16 15 1408 1388 1389
2256 16 15 1408 1388 1390
2257 17 15 1408 1388 1391
2258 19 1404 1407 97 1344
2259 18 1404 1407 97 1533
2260 18 1404 1407 97 1554
2261 10 1410 1409 1412 1413
2262 10 1411 1409 1412 1413
2263 11 1429 1409 1412 1413
2264 10 1409 1412 1413 1414
2265 10 1409 1412 1413 1415
2266 12 1409 1412 1413 1416
2267 12 1412 1413 1416 1417
2268 10 1414 1413 1416 1417
2269 10 1415 1413 1416 1417
2270 10 1413 1416 1417 1418
2271 10 1413 1416 1417 1419
2272 12 1413 1416 1417 1420
2273 12 1416 1417 1420 1421
2274 10 1418 1417 1420 1421
2275 10 1419 1417 1420 1421
2276 10 1417 1420 1421 1422
2277 10 1417 1420 1421 1423
2278 12 1417 1420 1421 1424
2279 12 1420 1421 1424 1425
2280 10 1422 1421 1424 1425
2281 10 1423 1421 1424 1425
2282 10 1421 1424 1425 1426
2283 10 1421 1424 1425 1427
2284 12 1421 1424 1425 1428
2285 13 1424 1425 1428 99
2286 14 1426 1425 1428 99
2287 14 1427 1425 1428 99
2288 20 1197 16 1429 1409
2289 15 1450 16 1429 1409
2290 16 16 1429 1409 1410
2291 16 16 1429 1409 1411
2292 17 16 1429 1409 1412
2293 19 1425 1428 99 714
2294 19 1425 1428 99 1574
2295 18 1425 1428 99 1617
2296 10 1431 1430 1433 1434
2297 10 1432 1430 1433 1434
2298 11 1450 1430 1433 1434
2299 10 1430 1433 1434 1435
2300 10 1430 1433 1434 1436
2301 12 1430 1433 1434 1437
2302 12 1433 1434 1437 1438
2303 10 1435 1434 1437 1438
2304 10 1436 1434 1437 1438
2305 10 1434 1437 1438 1439
2306 10 1434 1437 1438 1440
2307 12 1434 1437 1438 1441
2308 12 1437 1438 1441 1442
2309 10 1439 1438 1441 1442
2310 10 1440 1438 1441 1442
2311 10 1438 1441 1442 1443
2312 10 1438 1441 1442 1444
2313 12 1438 1441 1442 1445
2314 12 1441 1442 1445 1446
2315 10 1443 1442 1445 1446
2316 10 1444 1442 1445 1446
2317 10 1442 1445 1446 1447
2318 10 1442 1445 1446 1448
2319 12 1442 1445 1446 1449
2320 13 1445 1446 1449 581
2321 14 1447 1446 1449 581
2322 14 1448 1446 1449 581
2323 20 1197 16 1450 1430
2324 15 1429 16 1450 1430
2325 16 16 1450 1430 1431
2326 16 16 1450 1430 1432
2327 17 16 1450 1430 1433
2328 19 1446 1449 581 4114
2329 18 1446 1449 581 4871
2330 18 1446 1449 581 4892
2331 10 1452 1451 1454 1455
2332 10 1453 1451 1454 1455
2333 10 39 1451 1454 1455
2334 10 1451 1454 1455 1456
2335 10 1451 1454 1455 1457
2336 12 1451 1454 1455 1458
2337 12 1454 1455 1458 1459
2338 10 1456 1455 1458 1459
2339 10 1457 1455 1458 1459
2340 10 1455 1458 1459 1460
2341 10 1455 1458 1459 1461
2342 12 1455 1458 1459 1462
2343 12 1458 1459 1462 1463
2344 10 1460 1459 1462 1463
2345 10 1461 1459 1462 1463
2346 10 1459 1462 1463 1464
2347 10 1459 1462 1463 1465
2348 12 1459 1462 1463 1466
2349 12 1462 1463 1466 1467
2350 10 1464 1463 1466 1467
2351 10 1465 1463 1466 1467
2352 10 1463 1466 1467 1468
2353 10 1463 1466 1467 1469
2354 12 1463 1466 1467 1470
2355 13 1466 1467 1470 119
2356 14 1468 1467 1470 119
2357 14 1469 1467 1470 119
2358 21 38 39 1451 1452
2359 21 38 39 1451 1453
2360 22 38 39 1451 1454
2361 18 1467 1470 119 2415
2362 18 1467 1470 119 2436
2363 10 1472 1471 1474 1475
2364 10 1473 1471 1474 1475
2365 11 1491 1471 1474 1475
2366 10 1471 1474 1475 1476
2367 10 1471 1474 1475 1477
2368 12 1471 1474 1475 1478
2369 12 1474 1475 1478 1479
2370 10 1476 1475 1478 1479
2371 10 1477 1475 1478 1479
2372 10 1475 1478 1479 1480
2373 10 1475 1478 1479 1481
2374 12 1475 1478 1479 1482
2375 12 1478 1479 1482 1483
2376 10 1480 1479 1482 1483
2377 10 1481 1479 1482 1483
2378 10 1479 1482 1483 1484
2379 10 1479 1482 1483 1485
2380 12 1479 1482 1483 1486
2381 12 1482 1483 1486 1487
2382 10 1484 1483 1486 1487
2383 10 1485 1483 1486 1487
2384 10 1483 1486 1487 1488
2385 10 1483 1486 1487 1489
2386 12 1483 1486 1487 1490
2387 13 1486 1487 1490 101
2388 14 1488 1487 1490 101
2389 14 1489 1487 1490 101
2390 20 1302 96 1491 1471
2391 15 1512 96 1491 1471
2392 16 96 1491 1471 1472
2393 16 96 1491 1471 1473
2394 17 96 1491 1471 1474
2395 19 1487 1490 101 1637
2396 18 1487 1490 101 1680
2397 18 1487 1490 101 1701
2398 10 1493 1492 1495 1496
2399 10 1494 1492 1495 1496
2400 11 1512 1492 1495 1496
2401 10 1492 1495 1496 1497
2402 10 1492 1495 1496 1498
2403 12 1492 1495 1496 1499
2404 12 1495 1496 1499 1500
2405 10 1497 1496 1499 1500
2406 10 1498 1496 1499 1500
2407 10 1496 1499 1500 1501
2408 10 1496 1499 1500 1502
2409 12 1496 1499 1500 1503
2410 12 1499 1500 1503 1504
2411 10 1501 1500 1503 1504
2412 10 1502 1500 1503 1504
2413 10 1500 1503 1504 1505
2414 10 1500 1503 1504 1506
2415 12 1500 1503 1504 1507
2416 12 1503 1504 1507 1508
2417 10 1505 1504 1507 1508
2418 10 1506 1504 1507 1508
2419 10 1504 1507 1508 1509
2420 10 1504 1507 1508 1510
2421 12 1504 1507 1508 1511
2422 13 1507 1508 1511 583
2423 14 1509 1508 1511 583
2424 14 1510 1508 1511 583
2425 20 1302 96 1512 1492
2426 15 1491 96 1512 1492
2427 16 96 1512 1492 1493
2428 16 96 1512 1492 1494
2429 17 96 1512 1492 1495
2430 19 1508 1511 583 4198
2431 19 1508 1511 583 4828
2432 18 1508 1511 583 4934
2433 10 1514 1513 1516 1517
2434 10 1515 1513 1516 1517
2435 11 1533 1513 1516 1517
2436 10 1513 1516 1517 1518
2437 10 1513 1516 1517 1519
2438 12 1513 1516 1517 1520
2439 12 1516 1517 1520 1521
2440 10 1518 1517 1520 1521
2441 10 1519 1517 1520 1521
2442 10 1517 1520 1521 1522
2443 10 1517 1520 1521 1523
2444 12 1517 1520 1521 1524
2445 12 1520 1521 1524 1525
2446 10 1522 1521 1524 1525
2447 10 1523 1521 1524 1525
2448 10 1521 1524 1525 1526
2449 10 1521 1524 1525 1527
2450 12 1521 1524 1525 1528
2451 12 1524 1525 1528 1529
2452 10 1526 1525 1528 1529
2453 10 1527 1525 1528 1529
2454 10 1525 1528 1529 1530
2455 10 1525 1528 1529 1531
2456 12 1525 1528 1529 1532
2457 13 1528 1529 1532 102
2458 14 1530 1529 1532 102
2459 14 1531 1529 1532 102
2460 20 1344 97 1533 1513
2461 20 1407 97 1533 1513
2462 15 1554 97 1533 1513
2463 16 97 1533 1513 1514
2464 16 97 1533 1513 1515
2465 17 97 1533 1513 1516
2466 19 1529 1532 102 1595
2467 19 1529 1532 102 1679
2468 18 1529 1532 102 1722
2469 10 1535 1534 1537 1538
2470 10 1536 1534 1537 1538
2471 11 1554 1534 1537 1538
2472 10 1534 1537 1538 1539
2473 10 1534 1537 1538 1540
2474 12 1534 1537 1538 1541
2475 12 1537 1538 1541 1542
2476 10 1539 1538 1541 1542
2477 10 1540 1538 1541 1542
2478 10 1538 1541 1542 1543
2479 10 1538 1541 1542 1544
2480 12 1538 1541 1542 1545
2481 12 1541 1542 1545 1546
2482 10 1543 1542 1545 1546
2483 10 1544 1542 1545 1546
2484 10 1542 1545 1546 1547
2485 10 1542 1545 1546 1548
2486 12 1542 1545 1546 1549
2487 12 1545 1546 1549 1550
2488 10 1547 1546 1549 1550
2489 10 1548 1546 1549 1550
2490 10 1546 1549 1550 1551
2491 10 1546 1549 1550 1552
2492 12 1546 1549 1550 1553
2493 13 1549 1550 1553 584
2494 14 1551 1550 1553 584
2495 14 1552 1550 1553 584
2496 20 1344 97 1554 1534
2497 20 1407 97 1554 1534
2498 15 1533 97 1554 1534
2499 16 97 1554 1534 1535
2500 16 97 1554 1534 1536
2501 17 97 1554 1534 1537
2502 19 1550 1553 584 4219
2503 19 1550 1553 584 4849
2504 10 1556 1555 1558 1559
2505 10 1557 1555 1558 1559
2506 11 1575 1555 1558 1559
2507 10 1555 1558 1559 1560
2508 10 1555 1558 1559 1561
2509 12 1555 1558 1559 1562
2510 12 1558 1559 1562 1563
2511 10 1560 1559 1562 1563
2512 10 1561 1559 1562 1563
2513 10 1559 1562 1563 1564
2514 10 1559 1562 1563 1565
2515 12 1559 1562 1563 1566
2516 12 1562 1563 1566 1567
2517 10 1564 1563 1566 1567
2518 10 1565 1563 1566 1567
2519 10 1563 1566 1567 1568
2520 10 1563 1566 1567 1569
2521 12 1563 1566 1567 1570
2522 12 1566 1567 1570 1571
2523 10 1568 1567 1570 1571
2524 10 1569 1567 1570 1571
2525 10 1567 1570 1571 1572
2526 10 1567 1570 1571 1573
2527 12 1567 1570 1571 1574
2528 13 1570 1571 1574 99
2529 14 1572 1571 1574 99
2530 14 1573 1571 1574 99
2531 20 651 98 1575 1555
2532 20 1365 98 1575 1555
2533 15 1596 98 1575 1555
2534 16 98 1575 1555 1556
2535 16 98 1575 1555 1557
2536 17 98 1575 1555 1558
2537 19 1571 1574 99 714
2538 19 1571 1574 99 1428
2539 18 1571 1574 99 1617
2540 10 1577 1576 1579 1580
2541 10 1578 1576 1579 1580
2542 11 1596 1576 1579 1580
2543 10 1576 1579 1580 1581
2544 10 1576 1579 1580 1582
2545 12 1576 1579 1580 1583
2546 12 1579 1580 1583 1584
2547 10 1581 1580 1583 1584
2548 10 1582 1580 1583 1584
2549 10 1580 1583 1584 1585
2550 10 1580 1583 1584 1586
2551 12 1580 1583 1584 1587
2552 12 1583 1584 1587 1588
2553 10 1585 1584 1587 1588
2554 10 1586 1584 1587 1588
2555 10 1584 1587 1588 1589
2556 10 1584 1587 1588 1590
2557 12 1584 1587 1588 1591
2558 12 1587 1588 1591 1592
2559 10 1589 1588 1591 1592
2560 10 1590 1588 1591 1592
2561 10 1588 1591 1592 1593
2562 10 1588 1591 1592 1594
2563 12 1588 1591 1592 1595
2564 13 1591 1592 1595 102
2565 14 1593 1592 1595 102
2566 14 1594 1592 1595 102
2567 20 651 98 1596 1576
2568 20 1365 98 1596 1576
2569 15 1575 98 1596 1576
2570 16 98 1596 1576 1577
2571 16 98 1596 1576 1578
2572 17 98 1596 1576 1579
2573 19 1592 1595 102 1532
2574 19 1592 1595 102 1679
2575 18 1592 1595 102 1722
2576 10 1598 1597 1600 1601
2577 10 1599 1597 1600 1601
2578 11 1617 1597 1600 1601
2579 10 1597 1600 1601 1602
2580 10 1597 1600 1601 1603
2581 12 1597 1600 1601 1604
2582 12 1600 1601 1604 1605
2583 10 1602 1601 1604 1605
2584 10 1603 1601 1604 1605
2585 10 1601 1604 1605 1606
2586 10 1601 1604 1605 1607
2587 12 1601 1604 1605 1608
2588 12 1604 1605 1608 1609
2589 10 1606 1605 1608 1609
2590 10 1607 1605 1608 1609
2591 10 1605 1608 1609 1610
2592 10 1605 1608 1609 1611
2593 12 1605 1608 1609 1612
2594 12 1608 1609 1612 1613
2595 10 1610 1609 1612 1613
2596 10 1611 1609 1612 1613
2597 10 1609 1612 1613 1614
2598 10 1609 1612 1613 1615
2599 12 1609 1612 1613 1616
2600 13 1612 1613 1616 123
2601 14 1614 1613 1616 123
2602 14 1615 1613 1616 123
2603 20 714 99 1617 1597
2604 20 1428 99 1617 1597
2605 20 1574 99 1617 1597
2606 16 99 1617 1597 1598
2607 16 99 1617 1597 1599
2608 17 99 1617 1597 1600
2609 19 1613 1616 123 1847
2610 18 1613 1616 123 2520
2611 10 1619 1618 1621 1622
2612 10 1620 1618 1621 1622
2613 11 1638 1618 1621 1622
2614 10 1618 1621 1622 1623
2615 10 1618 1621 1622 1624
2616 12 1618 1621 1622 1625
2617 12 1621 1622 1625 1626
2618 10 1623 1622 1625 1626
2619 10 1624 1622 1625 1626
2620 10 1622 1625 1626 1627
2621 10 1622 1625 1626 1628
2622 12 1622 1625 1626 1629
2623 12 1625 1626 1629 1630
2624 10 1627 1626 1629 1630
2625 10 1628 1626 1629 1630
2626 10 1626 1629 1630 1631
2627 10 1626 1629 1630 1632
2628 12 1626 1629 1630 1633
2629 12 1629 1630 1633 1634
2630 10 1631 1630 1633 1634
2631 10 1632 1630 1633 1634
2632 10 1630 1633 1634 1635
2633 10 1630 1633 1634 1636
2634 12 1630 1633 1634 1637
2635 13 1633 1634 1637 101
2636 14 1635 1634 1637 101
2637 14 1636 1634 1637 101
2638 20 777 100 1638 1618
2639 15 1659 100 1638 1618
2640 16 100 1638 1618 1619
2641 16 100 1638 1618 1620
2642 17 100 1638 1618 1621
2643 19 1634 1637 101 1490
2644 18 1634 1637 101 1680
2645 18 1634 1637 101 1701
2646 10 1640 1639 1642 1643
2647 10 1641 1639 1642 1643
2648 11 1659 1639 1642 1643
2649 10 1639 1642 1643 1644
2650 10 1639 1642 1643 1645
2651 12 1639 1642 1643 1646
2652 12 1642 1643 1646 1647
2653 10 1644 1643 1646 1647
2654 10 1645 1643 1646 1647
2655 10 1643 1646 1647 1648
2656 10 1643 1646 1647 1649
2657 12 1643 1646 1647 1650
2658 12 1646 1647 1650 1651
2659 10 1648 1647 1650 1651
2660 10 1649 1647 1650 1651
2661 10 1647 1650 1651 1652
2662 10 1647 1650 1651 1653
2663 12 1647 1650 1651 1654
2664 12 1650 1651 1654 1655
2665 10 1652 1651 1654 1655
2666 10 1653 1651 1654 1655
2667 10 1651 1654 1655 1656
2668 10 1651 1654 1655 1657
2669 12 1651 1654 1655 1658
2670 23 1654 1655 1658 146
2671 24 1656 1655 1658 146
2672 24 1657 1655 1658 146
2673 20 777 100 1659 1639
2674 15 1638 100 1659 1639
2675 16 100 1659 1639 1640
2676 16 100 1659 1639 1641
2677 17 100 1659 1639 1642
2678 25 1655 1658 146 145
2679 10 1661 1660 1663 1664
2680 10 1662 1660 1663 1664
2681 11 1680 1660 1663 1664
2682 10 1660 1663 1664 1665
2683 10 1660 1663 1664 1666
2684 12 1660 1663 1664 1667
2685 12 1663 1664 1667 1668
2686 10 1665 1664 1667 1668
2687 10 1666 1664 1667 1668
2688 10 1664 1667 1668 1669
2689 10 1664 1667 1668 1670
2690 12 1664 1667 1668 1671
2691 12 1667 1668 1671 1672
2692 10 1669 1668 1671 1672
2693 10 1670 1668 1671 1672
2694 10 1668 1671 1672 1673
2695 10 1668 1671 1672 1674
2696 12 1668 1671 1672 1675
2697 12 1671 1672 1675 1676
2698 10 1673 1672 1675 1676
2699 10 1674 1672 1675 1676
2700 10 1672 1675 1676 1677
2701 10 1672 1675 1676 1678
2702 12 1672 1675 1676 1679
2703 13 1675 1676 1679 102
2704 14 1677 1676 1679 102
2705 14 1678 1676 1679 102
2706 20 1490 101 1680 1660
2707 20 1637 101 1680 1660
2708 15 1701 101 1680 1660
2709 16 101 1680 1660 1661
2710 16 101 1680 1660 1662
2711 17 101 1680 1660 1663
2712 19 1676 1679 102 1532
2713 19 1676 1679 102 1595
2714 18 1676 1679 102 1722
2715 10 1682 1681 1684 1685
2716 10 1683 1681 1684 1685
2717 11 1701 1681 1684 1685
2718 10 1681 1684 1685 1686
2719 10 1681 1684 1685 1687
2720 12 1681 1684 1685 1688
2721 12 1684 1685 1688 1689
2722 10 1686 1685 1688 1689
2723 10 1687 1685 1688 1689
2724 10 1685 1688 1689 1690
2725 10 1685 1688 1689 1691
2726 12 1685 1688 1689 1692
2727 12 1688 1689 1692 1693
2728 10 1690 1689 1692 1693
2729 10 1691 1689 1692 1693
2730 10 1689 1692 1693 1694
2731 10 1689 1692 1693 1695
2732 12 1689 1692 1693 1696
2733 12 1692 1693 1696 1697
2734 10 1694 1693 1696 1697
2735 10 1695 1693 1696 1697
2736 10 1693 1696 1697 1698
2737 10 1693 1696 1697 1699
2738 12 1693 1696 1697 1700
2739 13 1696 1697 1700 203
2740 14 1698 1697 1700 203
2741 14 1699 1697 1700 203
2742 20 1490 101 1701 1681
2743 20 1637 101 1701 1681
2744 15 1680 101 1701 1681
2745 16 101 1701 1681 1682
2746 16 101 1701 1681 1683
2747 17 101 1701 1681 1684
2748 19 1697 1700 203 1952
2749 19 1697 1700 203 2456
2750 18 1697 1700 203 2541
2751 10 1703 1702 1705 1706
2752 10 1704 1702 1705 1706
2753 11 1722 1702 1705 1706
2754 10 1702 1705 1706 1707
2755 10 1702 1705 1706 1708
2756 12 1702 1705 1706 1709
2757 12 1705 1706 1709 1710
2758 10 1707 1706 1709 1710
2759 10 1708 1706 1709 1710
2760 10 1706 1709 1710 1711
2761 10 1706 1709 1710 1712
2762 12 1706 1709 1710 1713
2763 12 1709 1710 1713 1714
2764 10 1711 1710 1713 1714
2765 10 1712 1710 1713 1714
2766 10 1710 1713 1714 1715
2767 10 1710 1713 1714 1716
2768 12 1710 1713 1714 1717
2769 12 1713 1714 1717 1718
2770 10 1715 1714 1717 1718
2771 10 1716 1714 1717 1718
2772 10 1714 1717 1718 1719
2773 10 1714 1717 1718 1720
2774 12 1714 1717 1718 1721
2775 13 1717 1718 1721 589
2776 14 1719 1718 1721 589
2777 14 1720 1718 1721 589
2778 20 1532 102 1722 1702
2779 20 1595 102 1722 1702
2780 20 1679 102 1722 1702
2781 16 102 1722 1702 1703
2782 16 102 1722 1702 1704
2783 17 102 1722 1702 1705
2784 19 1718 1721 589 4576
2785 19 1718 1721 589 4996
2786 10 1724 1723 1726 1727
2787 10 1725 1723 1726 1727
2788 11 1743 1723 1726 1727
2789 10 1723 1726 1727 1728
2790 10 1723 1726 1727 1729
2791 12 1723 1726 1727 1730
2792 12 1726 1727 1730 1731
2793 10 1728 1727 1730 1731
2794 10 1729 1727 1730 1731
2795 10 1727 1730 1731 1732
2796 10 1727 1730 1731 1733
2797 12 1727 1730 1731 1734
2798 12 1730 1731 1734 1735
2799 10 1732 1731 1734 1735
2800 10 1733 1731 1734 1735
2801 10 1731 1734 1735 1736
2802 10 1731 1734 1735 1737
2803 12 1731 1734 1735 1738
2804 12 1734 1735 1738 1739
2805 10 1736 1735 1738 1739
2806 10 1737 1735 1738 1739
2807 10 1735 1738 1739 1740
2808 10 1735 1738 1739 1741
2809 12 1735 1738 1739 1742
2810 23 1738 1739 1742 227
2811 24 1740 1739 1742 227
2812 24 1741 1739 1742 227
2813 15 1764 103 1743 1723
2814 15 1785 103 1743 1723
2815 16 103 1743 1723 1724
2816 16 103 1743 1723 1725
2817 17 103 1743 1723 1726
2818 25 1739 1742 227 226
2819 10 1745 1744 1747 1748
2820 10 1746 1744 1747 1748
2821 11 1764 1744 1747 1748
2822 10 1744 1747 1748 1749
2823 10 1744 1747 1748 1750
2824 12 1744 1747 1748 1751
2825 12 1747 1748 1751 1752
2826 10 1749 1748 1751 1752
2827 10 1750 1748 1751 1752
2828 10 1748 1751 1752 1753
2829 10 1748 1751 1752 1754
2830 12 1748 1751 1752 1755
2831 12 1751 1752 1755 1756
2832 10 1753 1752 1755 1756
2833 10 1754 1752 1755 1756
2834 10 1752 1755 1756 1757
2835 10 1752 1755 1756 1758
2836 12 1752 1755 1756 1759
2837 12 1755 1756 1759 1760
2838 10 1757 1756 1759 1760
2839 10 1758 1756 1759 1760
2840 10 1756 1759 1760 1761
2841 10 1756 1759 1760 1762
2842 12 1756 1759 1760 1763
2843 13 1759 1760 1763 107
2844 14 1761 1760 1763 107
2845 14 1762 1760 1763 107
2846 15 1743 103 1764 1744
2847 15 1785 103 1764 1744
2848 16 103 1764 1744 1745
2849 16 103 1764 1744 1746
2850 17 103 1764 1744 1747
2851 19 1760 1763 107 882
2852 19 1760 1763 107 1910
2853 18 1760 1763 107 1974
2854 10 1766 1765 1768 1769
2855 10 1767 1765 1768 1769
2856 11 1785 1765 1768 1769
2857 10 1765 1768 1769 1770
2858 10 1765 1768 1769 1771
2859 12 1765 1768 1769 1772
2860 12 1768 1769 1772 1773
2861 10 1770 1769 1772 1773
2862 10 1771 1769 1772 1773
2863 10 1769 1772 1773 1774
2864 10 1769 1772 1773 1775
2865 12 1769 1772 1773 1776
2866 12 1772 1773 1776 1777
2867 10 1774 1773 1776 1777
2868 10 1775 1773 1776 1777
2869 10 1773 1776 1777 1778
2870 10 1773 1776 1777 1779
2871 12 1773 1776 1777 1780
2872 12 1776 1777 1780 1781
2873 10 1778 1777 1780 1781
2874 10 1779 1777 1780 1781
2875 10 1777 1780 1781 1782
2876 10 1777 1780 1781 1783
2877 12 1777 1780 1781 1784
2878 13 1780 1781 1784 122
2879 14 1782 1781 1784 122
2880 14 1783 1781 1784 122
2881 15 1743 103 1785 1765
2882 15 1764 103 1785 1765
2883 16 103 1785 1765 1766
2884 16 103 1785 1765 1767
2885 17 103 1785 1765 1768
2886 19 1781 1784 122 2372
2887 18 1781 1784 122 2499
2888 10 1787 1786 1789 1790
2889 10 1788 1786 1789 1790
2890 11 1806 1786 1789 1790
2891 10 1786 1789 1790 1791
2892 10 1786 1789 1790 1792
2893 12 1786 1789 1790 1793
2894 12 1789 1790 1793 1794
2895 10 1791 1790 1793 1794
2896 10 1792 1790 1793 1794
2897 10 1790 1793 1794 1795
2898 10 1790 1793 1794 1796
2899 12 1790 1793 1794 1797
2900 12 1793 1794 1797 1798
2901 10 1795 1794 1797 1798
2902 10 1796 1794 1797 1798
2903 10 1794 1797 1798 1799
2904 10 1794 1797 1798 1800
2905 12 1794 1797 1798 1801
2906 12 1797 1798 1801 1802
2907 10 1799 1798 1801 1802
2908 10 1800 1798 1801 1802
2909 10 1798 1801 1802 1803
2910 10 1798 1801 1802 1804
2911 12 1798 1801 1802 1805
2912 13 1801 1802 1805 105
2913 14 1803 1802 1805 105
2914 14 1804 1802 1805 105
2915 20 693 104 1806 1786
2916 15 1827 104 1806 1786
2917 15 1848 104 1806 1786
2918 16 104 1806 1786 1787
2919 16 104 1806 1786 1788
2920 17 104 1806 1786 1789
2921 19 1802 1805 105 756
2922 18 1802 1805 105 1869
2923 18 1802 1805 105 1890
2924 10 1808 1807 1810 1811
2925 10 1809 1807 1810 1811
2926 11 1827 1807 1810 1811
2927 10 1807 1810 1811 1812
2928 10 1807 1810 1811 1813
2929 12 1807 1810 1811 1814
2930 12 1810 1811 1814 1815
2931 10 1812 1811 1814 1815
2932 10 1813 1811 1814 1815
2933 10 1811 1814 1815 1816
2934 10 1811 1814 1815 1817
2935 12 1811 1814 1815 1818
2936 12 1814 1815 1818 1819
2937 10 1816 1815 1818 1819
2938 10 1817 1815 1818 1819
2939 10 1815 1818 1819 1820
2940 10 1815 1818 1819 1821
2941 12 1815 1818 1819 1822
2942 12 1818 1819 1822 1823
2943 10 1820 1819 1822 1823
2944 10 1821 1819 1822 1823
2945 10 1819 1822 1823 1824
2946 10 1819 1822 1823 1825
2947 12 1819 1822 1823 1826
2948 13 1822 1823 1826 109
2949 14 1824 1823 1826 109
2950 14 1825 1823 1826 109
2951 20 693 104 1827 1807
2952 15 1806 104 1827 1807
2953 15 1848 104 1827 1807
2954 16 104 1827 1807 1808
2955 16 104 1827 1807 1809
2956 17 104 1827 1807 1810
2957 19 1823 1826 109 1994
2958 18 1823 1826 109 2037
2959 18 1823 1826 109 2058
2960 10 1829 1828 1831 1832
2961 10 1830 1828 1831 1832
2962 11 1848 1828 1831 1832
2963 10 1828 1831 1832 1833
2964 10 1828 1831 1832 1834
2965 12 1828 1831 1832 1835
2966 12 1831 1832 1835 1836
2967 10 1833 1832 1835 1836
2968 10 1834 1832 1835 1836
2969 10 1832 1835 1836 1837
2970 10 1832 1835 1836 1838
2971 12 1832 1835 1836 1839
2972 12 1835 1836 1839 1840
2973 10 1837 1836 1839 1840
2974 10 1838 1836 1839 1840
2975 10 1836 1839 1840 1841
2976 10 1836 1839 1840 1842
2977 12 1836 1839 1840 1843
2978 12 1839 1840 1843 1844
2979 10 1841 1840 1843 1844
2980 10 1842 1840 1843 1844
2981 10 1840 1843 1844 1845
2982 10 1840 1843 1844 1846
2983 12 1840 1843 1844 1847
2984 13 1843 1844 1847 123
2985 14 1845 1844 1847 123
2986 14 1846 1844 1847 123
2987 20 693 104 1848 1828
2988 15 1806 104 1848 1828
2989 15 1827 104 1848 1828
2990 16 104 1848 1828 1829
2991 16 104 1848 1828 1830
2992 17 104 1848 1828 1831
2993 19 1844 1847 123 1616
2994 18 1844 1847 123 2520
2995 10 1850 1849 1852 1853
2996 10 1851 1849 1852 1853
2997 11 1869 1849 1852 1853
2998 10 1849 1852 1853 1854
2999 10 1849 1852 1853 1855
3000 12 1849 1852 1853 1856
3001 12 1852 1853 1856 1857
3002 10 1854 1853 1856 1857
3003 10 1855 1853 1856 1857
3004 10 1853 1856 1857 1858
3005 10 1853 1856 1857 1859
3006 12 1853 1856 1857 1860
3007 12 1856 1857 1860 1861
3008 10 1858 1857 1860 1861
3009 10 1859 1857 1860 1861
3010 10 1857 1860 1861 1862
3011 10 1857 1860 1861 1863
3012 12 1857 1860 1861 1864
3013 12 1860 1861 1864 1865
3014 10 1862 1861 1864 1865
3015 10 1863 1861 1864 1865
3016 10 1861 1864 1865 1866
3017 10 1861 1864 1865 1867
3018 12 1861 1864 1865 1868
3019 13 1864 1865 1868 110
3020 14 1866 1865 1868 110
3021 14 1867 1865 1868 110
3022 20 756 105 1869 1849
3023 20 1805 105 1869 1849
3024 15 1890 105 1869 1849
3025 16 105 1869 1849 1850
3026 16 105 1869 1849 1851
3027 17 105 1869 1849 1852
3028 19 1865 1868 110 1008
3029 18 1865 1868 110 2079
3030 18 1865 1868 110 2100
3031 10 1871 1870 1873 1874
3032 10 1872 1870 1873 1874
3033 11 1890 1870 1873 1874
3034 10 1870 1873 1874 1875
3035 10 1870 1873 1874 1876
3036 12 1870 1873 1874 1877
3037 12 1873 1874 1877 1878
3038 10 1875 1874 1877 1878
3039 10 1876 1874 1877 1878
3040 10 1874 1877 1878 1879
3041 10 1874 1877 1878 1880
3042 12 1874 1877 1878 1881
3043 12 1877 1878 1881 1882
3044 10 1879 1878 1881 1882
3045 10 1880 1878 1881 1882
3046 10 1878 1881 1882 1883
3047 10 1878 1881 1882 1884
3048 12 1878 1881 1882 1885
3049 12 1881 1882 1885 1886
3050 10 1883 1882 1885 1886
3051 10 1884 1882 1885 1886
3052 10 1882 1885 1886 1887
3053 10 1882 1885 1886 1888
3054 12 1882 1885 1886 1889
3055 13 1885 1886 1889 284
3056 14 1887 1886 1889 284
3057 14 1888 1886 1889 284
3058 20 756 105 1890 1870
3059 20 1805 105 1890 1870
3060 15 1869 105 1890 1870
3061 16 105 1890 1870 1871
3062 16 105 1890 1870 1872
3063 17 105 1890 1870 1873
3064 18 1886 1889 284 2583
3065 18 1886 1889 284 2604
3066 18 1886 1889 284 2625
3067 10 1892 1891 1894 1895
3068 10 1893 1891 1894 1895
3069 11 1911 1891 1894 1895
3070 10 1891 1894 1895 1896
3071 10 1891 1894 1895 1897
3072 12 1891 1894 1895 1898
3073 12 1894 1895 1898 1899
3074 10 1896 1895 1898 1899
3075 10 1897 1895 1898 1899
3076 10 1895 1898 1899 1900
3077 10 1895 1898 1899 1901
3078 12 1895 1898 1899 1902
3079 12 1898 1899 1902 1903
3080 10 1900 1899 1902 1903
3081 10 1901 1899 1902 1903
3082 10 1899 1902 1903 1904
3083 10 1899 1902 1903 1905
3084 12 1899 1902 1903 1906
3085 12 1902 1903 1906 1907
3086 10 1904 1903 1906 1907
3087 10 1905 1903 1906 1907
3088 10 1903 1906 1907 1908
3089 10 1903 1906 1907 1909
3090 12 1903 1906 1907 1910
3091 13 1906 1907 1910 107
3092 14 1908 1907 1910 107
3093 14 1909 1907 1910 107
3094 20 840 106 1911 1891
3095 15 1932 106 1911 1891
3096 15 1953 106 1911 1891
3097 16 106 1911 1891 1892
3098 16 106 1911 1891 1893
3099 17 106 1911 1891 1894
3100 19 1907 1910 107 882
3101 19 1907 1910 107 1763
3102 18 1907 1910 107 1974
3103 10 1913 1912 1915 1916
3104 10 1914 1912 1915 1916
3105 11 1932 1912 1915 1916
3106 10 1912 1915 1916 1917
3107 10 1912 1915 1916 1918
3108 12 1912 1915 1916 1919
3109 12 1915 1916 1919 1920
3110 10 1917 1916 1919 1920
3111 10 1918 1916 1919 1920
3112 10 1916 1919 1920 1921
3113 10 1916 1919 1920 1922
3114 12 1916 1919 1920 1923
3115 12 1919 1920 1923 1924
3116 10 1921 1920 1923 1924
3117 10 1922 1920 1923 1924
3118 10 1920 1923 1924 1925
3119 10 1920 1923 1924 1926
3120 12 1920 1923 1924 1927
3121 12 1923 1924 1927 1928
3122 10 1925 1924 1927 1928
3123 10 1926 1924 1927 1928
3124 10 1924 1927 1928 1929
3125 10 1924 1927 1928 1930
3126 12 1924 1927 1928 1931
3127 13 1927 1928 1931 111
3128 14 1929 1928 1931 111
3129 14 1930 1928 1931 111
3130 20 840 106 1932 1912
3131 15 1911 106 1932 1912
3132 15 1953 106 1932 1912
3133 16 106 1932 1912 1913
3134 16 106 1932 1912 1914
3135 17 106 1932 1912 1915
3136 18 1928 1931 111 2121
3137 18 1928 1931 111 2142
3138 10 1934 1933 1936 1937
3139 10 1935 1933 1936 1937
3140 11 1953 1933 1936 1937
3141 10 1933 1936 1937 1938
3142 10 1933 1936 1937 1939
3143 12 1933 1936 1937 1940
3144 12 1936 1937 1940 1941
3145 10 1938 1937 1940 1941
3146 10 1939 1937 1940 1941
3147 10 1937 1940 1941 1942
3148 10 1937 1940 1941 1943
3149 12 1937 1940 1941 1944
3150 12 1940 1941 1944 1945
3151 10 1942 1941 1944 1945
3152 10 1943 1941 1944 1945
3153 10 1941 1944 1945 1946
3154 10 1941 1944 1945 1947
3155 12 1941 1944 1945 1948
3156 12 1944 1945 1948 1949
3157 10 1946 1945 1948 1949
3158 10 1947 1945 1948 1949
3159 10 1945 1948 1949 1950
3160 10 1945 1948 1949 1951
3161 12 1945 1948 1949 1952
3162 13 1948 1949 1952 203
3163 14 1950 1949 1952 203
3164 14 1951 1949 1952 203
3165 20 840 106 1953 1933
3166 15 1911 106 1953 1933
3167 15 1932 106 1953 1933
3168 16 106 1953 1933 1934
3169 16 106 1953 1933 1935
3170 17 106 1953 1933 1936
3171 19 1949 1952 203 1700
3172 19 1949 1952 203 2456
3173 18 1949 1952 203 2541
3174 10 1955 1954 1957 1958
3175 10 1956 1954 1957 1958
3176 11 1974 1954 1957 1958
3177 10 1954 1957 1958 1959
3178 10 1954 1957 1958 1960
3179 12 1954 1957 1958 1961
3180 12 1957 1958 1961 1962
3181 10 1959 1958 1961 1962
3182 10 1960 1958 1961 1962
3183 10 1958 1961 1962 1963
3184 10 1958 1961 1962 1964
3185 12 1958 1961 1962 1965
3186 12 1961 1962 1965 1966
3187 10 1963 1962 1965 1966
3188 10 1964 1962 1965 1966
3189 10 1962 1965 1966 1967
3190 10 1962 1965 1966 1968
3191 12 1962 1965 1966 1969
3192 12 1965 1966 1969 1970
3193 10 1967 1966 1969 1970
3194 10 1968 1966 1969 1970
3195 10 1966 1969 1970 1971
3196 10 1966 1969 1970 1972
3197 12 1966 1969 1970 1973
3198 13 1969 1970 1973 286
3199 14 1971 1970 1973 286
3200 14 1972 1970 1973 286
3201 20 882 107 1974 1954
3202 20 1763 107 1974 1954
3203 20 1910 107 1974 1954
3204 16 107 1974 1954 1955
3205 16 107 1974 1954 1956
3206 17 107 1974 1954 1957
3207 18 1970 1973 286 2709
3208 18 1970 1973 286 2730
3209 18 1970 1973 286 2751
3210 10 1976 1975 1978 1979
3211 10 1977 1975 1978 1979
3212 11 1995 1975 1978 1979
3213 10 1975 1978 1979 1980
3214 10 1975 1978 1979 1981
3215 12 1975 1978 1979 1982
3216 12 1978 1979 1982 1983
3217 10 1980 1979 1982 1983
3218 10 1981 1979 1982 1983
3219 10 1979 1982 1983 1984
3220 10 1979 1982 1983 1985
3221 12 1979 1982 1983 1986
3222 12 1982 1983 1986 1987
3223 10 1984 1983 1986 1987
3224 10 1985 1983 1986 1987
3225 10 1983 1986 1987 1988
3226 10 1983 1986 1987 1989
3227 12 1983 1986 1987 1990
3228 12 1986 1987 1990 1991
3229 10 1988 1987 1990 1991
3230 10 1989 1987 1990 1991
3231 10 1987 1990 1991 1992
3232 10 1987 1990 1991 1993
3233 12 1987 1990 1991 1994
3234 13 1990 1991 1994 109
3235 14 1992 1991 1994 109
3236 14 1993 1991 1994 109
3237 20 903 108 1995 1975
3238 15 2016 108 1995 1975
3239 16 108 1995 1975 1976
3240 16 108 1995 1975 1977
3241 17 108 1995 1975 1978
3242 19 1991 1994 109 1826
3243 18 1991 1994 109 2037
3244 18 1991 1994 109 2058
3245 10 1997 1996 1999 2000
3246 10 1998 1996 1999 2000
3247 11 2016 1996 1999 2000
3248 10 1996 1999 2000 2001
3249 10 1996 1999 2000 2002
3250 12 1996 1999 2000 2003
3251 12 1999 2000 2003 2004
3252 10 2001 2000 2003 2004
3253 10 2002 2000 2003 2004
3254 10 2000 2003 2004 2005
3255 10 2000 2003 2004 2006
3256 12 2000 2003 2004 2007
3257 12 2003 2004 2007 2008
3258 10 2005 2004 2007 2008
3259 10 2006 2004 2007 2008
3260 10 2004 2007 2008 2009
3261 10 2004 2007 2008 2010
3262 12 2004 2007 2008 2011
3263 12 2007 2008 2011 2012
3264 10 2009 2008 2011 2012
3265 10 2010 2008 2011 2012
3266 10 2008 2011 2012 2013
3267 10 2008 2011 2012 2014
3268 12 2008 2011 2012 2015
3269 13 2011 2012 2015 113
3270 14 2013 2012 2015 113
3271 14 2014 2012 2015 113
3272 20 903 108 2016 1996
3273 15 1995 108 2016 1996
3274 16 108 2016 1996 1997
3275 16 108 2016 1996 1998
3276 17 108 2016 1996 1999
3277 19 2012 2015 113 1134
3278 18 2012 2015 113 2184
3279 10 2018 2017 2020 2021
3280 10 2019 2017 2020 2021
3281 11 2037 2017 2020 2021
3282 10 2017 2020 2021 2022
3283 10 2017 2020 2021 2023
3284 12 2017 2020 2021 2024
3285 12 2020 2021 2024 2025
3286 10 2022 2021 2024 2025
3287 10 2023 2021 2024 2025
3288 10 2021 2024 2025 2026
3289 10 2021 2024 2025 2027
3290 12 2021 2024 2025 2028
3291 12 2024 2025 2028 2029
3292 10 2026 2025 2028 2029
3293 10 2027 2025 2028 2029
3294 10 2025 2028 2029 2030
3295 10 2025 2028 2029 2031
3296 12 2025 2028 2029 2032
3297 12 2028 2029 2032 2033
3298 10 2030 2029 2032 2033
3299 10 2031 2029 2032 2033
3300 10 2029 2032 2033 2034
3301 10 2029 2032 2033 2035
3302 12 2029 2032 2033 2036
3303 13 2032 2033 2036 114
3304 14 2034 2033 2036 114
3305 14 2035 2033 2036 114
3306 20 1826 109 2037 2017
3307 20 1994 109 2037 2017
3308 15 2058 109 2037 2017
3309 16 109 2037 2017 2018
3310 16 109 2037 2017 2019
3311 17 109 2037 2017 2020
3312 19 2033 2036 114 1218
3313 18 2033 2036 114 2205
3314 10 2039 2038 2041 2042
3315 10 2040 2038 2041 2042
3316 11 2058 2038 2041 2042
3317 10 2038 2041 2042 2043
3318 10 2038 2041 2042 2044
3319 12 2038 2041 2042 2045
3320 12 2041 2042 2045 2046
3321 10 2043 2042 2045 2046
3322 10 2044 2042 2045 2046
3323 10 2042 2045 2046 2047
3324 10 2042 2045 2046 2048
3325 12 2042 2045 2046 2049
3326 12 2045 2046 2049 2050
3327 10 2047 2046 2049 2050
3328 10 2048 2046 2049 2050
3329 10 2046 2049 2050 2051
3330 10 2046 2049 2050 2052
3331 12 2046 2049 2050 2053
3332 12 2049 2050 2053 2054
3333 10 2051 2050 2053 2054
3334 10 2052 2050 2053 2054
3335 10 2050 2053 2054 2055
3336 10 2050 2053 2054 2056
3337 12 2050 2053 2054 2057
3338 13 2053 2054 2057 288
3339 14 2055 2054 2057 288
3340 14 2056 2054 2057 288
3341 20 1826 109 2058 2038
3342 20 1994 109 2058 2038
3343 15 2037 109 2058 2038
3344 16 109 2058 2038 2039
3345 16 109 2058 2038 2040
3346 17 109 2058 2038 2041
3347 19 2054 2057 288 2771
3348 18 2054 2057 288 2856
3349 18 2054 2057 288 2877
3350 10 2060 2059 2062 2063
3351 10 2061 2059 2062 2063
3352 11 2079 2059 2062 2063
3353 10 2059 2062 2063 2064
3354 10 2059 2062 2063 2065
3355 12 2059 2062 2063 2066
3356 12 2062 2063 2066 2067
3357 10 2064 2063 2066 2067
3358 10 2065 2063 2066 2067
3359 10 2063 2066 2067 2068
3360 10 2063 2066 2067 2069
3361 12 2063 2066 2067 2070
3362 12 2066 2067 2070 2071
3363 10 2068 2067 2070 2071
3364 10 2069 2067 2070 2071
3365 10 2067 2070 2071 2072
3366 10 2067 2070 2071 2073
3367 12 2067 2070 2071 2074
3368 12 2070 2071 2074 2075
3369 10 2072 2071 2074 2075
3370 10 2073 2071 2074 2075
3371 10 2071 2074 2075 2076
3372 10 2071 2074 2075 2077
3373 12 2071 2074 2075 2078
3374 13 2074 2075 2078 115
3375 14 2076 2075 2078 115
3376 14 2077 2075 2078 115
3377 20 1008 110 2079 2059
3378 20 1868 110 2079 2059
3379 15 2100 110 2079 2059
3380 16 110 2079 2059 2060
3381 16 110 2079 2059 2061
3382 17 110 2079 2059 2062
3383 19 2075 2078 115 1239
3384 18 2075 2078 115 2226
3385 18 2075 2078 115 2247
3386 10 2081 2080 2083 2084
3387 10 2082 2080 2083 2084
3388 11 2100 2080 2083 2084
3389 10 2080 2083 2084 2085
3390 10 2080 2083 2084 2086
3391 12 2080 2083 2084 2087
3392 12 2083 2084 2087 2088
3393 10 2085 2084 2087 2088
3394 10 2086 2084 2087 2088
3395 10 2084 2087 2088 2089
3396 10 2084 2087 2088 2090
3397 12 2084 2087 2088 2091
3398 12 2087 2088 2091 2092
3399 10 2089 2088 2091 2092
3400 10 2090 2088 2091 2092
3401 10 2088 2091 2092 2093
3402 10 2088 2091 2092 2094
3403 12 2088 2091 2092 2095
3404 12 2091 2092 2095 2096
3405 10 2093 2092 2095 2096
3406 10 2094 2092 2095 2096
3407 10 2092 2095 2096 2097
3408 10 2092 2095 2096 2098
3409 12 2092 2095 2096 2099
3410 13 2095 2096 2099 289
3411 14 2097 2096 2099 289
3412 14 2098 2096 2099 289
3413 20 1008 110 2100 2080
3414 20 1868 110 2100 2080
3415 15 2079 110 2100 2080
3416 16 110 2100 2080 2081
3417 16 110 2100 2080 2082
3418 17 110 2100 2080 2083
3419 19 2096 2099 289 2603
3420 18 2096 2099 289 2898
3421 10 2102 2101 2104 2105
3422 10 2103 2101 2104 2105
3423 11 2121 2101 2104 2105
3424 10 2101 2104 2105 2106
3425 10 2101 2104 2105 2107
3426 12 2101 2104 2105 2108
3427 12 2104 2105 2108 2109
3428 10 2106 2105 2108 2109
3429 10 2107 2105 2108 2109
3430 10 2105 2108 2109 2110
3431 10 2105 2108 2109 2111
3432 12 2105 2108 2109 2112
3433 12 2108 2109 2112 2113
3434 10 2110 2109 2112 2113
3435 10 2111 2109 2112 2113
3436 10 2109 2112 2113 2114
3437 10 2109 2112 2113 2115
3438 12 2109 2112 2113 2116
3439 12 2112 2113 2116 2117
3440 10 2114 2113 2116 2117
3441 10 2115 2113 2116 2117
3442 10 2113 2116 2117 2118
3443 10 2113 2116 2117 2119
3444 12 2113 2116 2117 2120
3445 13 2116 2117 2120 112
3446 14 2118 2117 2120 112
3447 14 2119 2117 2120 112
3448 20 1931 111 2121 2101
3449 15 2142 111 2121 2101
3450 16 111 2121 2101 2102
3451 16 111 2121 2101 2103
3452 17 111 2121 2101 2104
3453 19 2117 2120 112 1092
3454 18 2117 2120 112 2163
3455 10 2123 2122 2125 2126
3456 10 2124 2122 2125 2126
3457 11 2142 2122 2125 2126
3458 10 2122 2125 2126 2127
3459 10 2122 2125 2126 2128
3460 12 2122 2125 2126 2129
3461 12 2125 2126 2129 2130
3462 10 2127 2126 2129 2130
3463 10 2128 2126 2129 2130
3464 10 2126 2129 2130 2131
3465 10 2126 2129 2130 2132
3466 12 2126 2129 2130 2133
3467 12 2129 2130 2133 2134
3468 10 2131 2130 2133 2134
3469 10 2132 2130 2133 2134
3470 10 2130 2133 2134 2135
3471 10 2130 2133 2134 2136
3472 12 2130 2133 2134 2137
3473 12 2133 2134 2137 2138
3474 10 2135 2134 2137 2138
3475 10 2136 2134 2137 2138
3476 10 2134 2137 2138 2139
3477 10 2134 2137 2138 2140
3478 12 2134 2137 2138 2141
3479 13 2137 2138 2141 290
3480 14 2139 2138 2141 290
3481 14 2140 2138 2141 290
3482 20 1931 111 2142 2122
3483 15 2121 111 2142 2122
3484 16 111 2142 2122 2123
3485 16 111 2142 2122 2124
3486 17 111 2142 2122 2125
3487 19 2138 2141 290 2645
3488 19 2138 2141 290 2897
3489 10 2144 2143 2146 2147
3490 10 2145 2143 2146 2147
3491 11 2163 2143 2146 2147
3492 10 2143 2146 2147 2148
3493 10 2143 2146 2147 2149
3494 12 2143 2146 2147 2150
3495 12 2146 2147 2150 2151
3496 10 2148 2147 2150 2151
3497 10 2149 2147 2150 2151
3498 10 2147 2150 2151 2152
3499 10 2147 2150 2151 2153
3500 12 2147 2150 2151 2154
3501 12 2150 2151 2154 2155
3502 10 2152 2151 2154 2155
3503 10 2153 2151 2154 2155
3504 10 2151 2154 2155 2156
3505 10 2151 2154 2155 2157
3506 12 2151 2154 2155 2158
3507 12 2154 2155 2158 2159
3508 10 2156 2155 2158 2159
3509 10 2157 2155 2158 2159
3510 10 2155 2158 2159 2160
3511 10 2155 2158 2159 2161
3512 12 2155 2158 2159 2162
3513 13 2158 2159 2162 117
3514 14 2160 2159 2162 117
3515 14 2161 2159 2162 117
3516 20 1092 112 2163 2143
3517 20 2120 112 2163 2143
3518 16 112 2163 2143 2144
3519 16 112 2163 2143 2145
3520 17 112 2163 2143 2146
3521 19 2159 2162 117 2267
3522 18 2159 2162 117 2331
3523 18 2159 2162 117 2352
3524 10 2165 2164 2167 2168
3525 10 2166 2164 2167 2168
3526 11 2184 2164 2167 2168
3527 10 2164 2167 2168 2169
3528 10 2164 2167 2168 2170
3529 12 2164 2167 2168 2171
3530 12 2167 2168 2171 2172
3531 10 2169 2168 2171 2172
3532 10 2170 2168 2171 2172
3533 10 2168 2171 2172 2173
3534 10 2168 2171 2172 2174
3535 12 2168 2171 2172 2175
3536 12 2171 2172 2175 2176
3537 10 2173 2172 2175 2176
3538 10 2174 2172 2175 2176
3539 10 2172 2175 2176 2177
3540 10 2172 2175 2176 2178
3541 12 2172 2175 2176 2179
3542 12 2175 2176 2179 2180
3543 10 2177 2176 2179 2180
3544 10 2178 2176 2179 2180
3545 10 2176 2179 2180 2181
3546 10 2176 2179 2180 2182
3547 12 2176 2179 2180 2183
3548 13 2179 2180 2183 118
3549 14 2181 2180 2183 118
3550 14 2182 2180 2183 118
3551 20 1134 113 2184 2164
3552 20 2015 113 2184 2164
3553 16 113 2184 2164 2165
3554 16 113 2184 2164 2166
3555 17 113 2184 2164 2167
3556 19 2180 2183 118 1386
3557 18 2180 2183 118 2373
3558 18 2180 2183 118 2394
3559 10 2186 2185 2188 2189
3560 10 2187 2185 2188 2189
3561 11 2205 2185 2188 2189
3562 10 2185 2188 2189 2190
3563 10 2185 2188 2189 2191
3564 12 2185 2188 2189 2192
3565 12 2188 2189 2192 2193
3566 10 2190 2189 2192 2193
3567 10 2191 2189 2192 2193
3568 10 2189 2192 2193 2194
3569 10 2189 2192 2193 2195
3570 12 2189 2192 2193 2196
3571 12 2192 2193 2196 2197
3572 10 2194 2193 2196 2197
3573 10 2195 2193 2196 2197
3574 10 2193 2196 2197 2198
3575 10 2193 2196 2197 2199
3576 12 2193 2196 2197 2200
3577 12 2196 2197 2200 2201
3578 10 2198 2197 2200 2201
3579 10 2199 2197 2200 2201
3580 10 2197 2200 2201 2202
3581 10 2197 2200 2201 2203
3582 12 2197 2200 2201 2204
3583 13 2200 2201 2204 293
3584 14 2202 2201 2204 293
3585 14 2203 2201 2204 293
3586 20 1218 114 2205 2185
3587 20 2036 114 2205 2185
3588 16 114 2205 2185 2186
3589 16 114 2205 2185 2187
3590 17 114 2205 2185 2188
3591 19 2201 2204 293 2855
3592 18 2201 2204 293 3003
3593 18 2201 2204 293 3024
3594 10 2207 2206 2209 2210
3595 10 2208 2206 2209 2210
3596 11 2226 2206 2209 2210
3597 10 2206 2209 2210 2211
3598 10 2206 2209 2210 2212
3599 12 2206 2209 2210 2213
3600 12 2209 2210 2213 2214
3601 10 2211 2210 2213 2214
3602 10 2212 2210 2213 2214
3603 10 2210 2213 2214 2215
3604 10 2210 2213 2214 2216
3605 12 2210 2213 2214 2217
3606 12 2213 2214 2217 2218
3607 10 2215 2214 2217 2218
3608 10 2216 2214 2217 2218
3609 10 2214 2217 2218 2219
3610 10 2214 2217 2218 2220
3611 12 2214 2217 2218 2221
3612 12 2217 2218 2221 2222
3613 10 2219 2218 2221 2222
3614 10 2220 2218 2221 2222
3615 10 2218 2221 2222 2223
3616 10 2218 2221 2222 2224
3617 12 2218 2221 2222 2225
3618 13 2221 2222 2225 116
3619 14 2223 2222 2225 116
3620 14 2224 2222 2225 116
3621 20 1239 115 2226 2206
3622 20 2078 115 2226 2206
3623 15 2247 115 2226 2206
3624 16 115 2226 2206 2207
3625 16 115 2226 2206 2208
3626 17 115 2226 2206 2209
3627 18 2222 2225 116 2268
3628 18 2222 2225 116 2289
3629 18 2222 2225 116 2310
3630 10 2228 2227 2230 2231
3631 10 2229 2227 2230 2231
3632 11 2247 2227 2230 2231
3633 10 2227 2230 2231 2232
3634 10 2227 2230 2231 2233
3635 12 2227 2230 2231 2234
3636 12 2230 2231 2234 2235
3637 10 2232 2231 2234 2235
3638 10 2233 2231 2234 2235
3639 10 2231 2234 2235 2236
3640 10 2231 2234 2235 2237
3641 12 2231 2234 2235 2238
3642 12 2234 2235 2238 2239
3643 10 2236 2235 2238 2239
3644 10 2237 2235 2238 2239
3645 10 2235 2238 2239 2240
3646 10 2235 2238 2239 2241
3647 12 2235 2238 2239 2242
3648 12 2238 2239 2242 2243
3649 10 2240 2239 2242 2243
3650 10 2241 2239 2242 2243
3651 10 2239 2242 2243 2244
3652 10 2239 2242 2243 2245
3653 12 2239 2242 2243 2246
3654 13 2242 2243 2246 294
3655 14 2244 2243 2246 294
3656 14 2245 2243 2246 294
3657 20 1239 115 2247 2227
3658 20 2078 115 2247 2227
3659 15 2226 115 2247 2227
3660 16 115 2247 2227 2228
3661 16 115 2247 2227 2229
3662 17 115 2247 2227 2230
3663 18 2243 2246 294 3045
3664 18 2243 2246 294 3066
3665 18 2243 2246 294 3087
3666 10 2249 2248 2251 2252
3667 10 2250 2248 2251 2252
3668 11 2268 2248 2251 2252
3669 10 2248 2251 2252 2253
3670 10 2248 2251 2252 2254
3671 12 2248 2251 2252 2255
3672 12 2251 2252 2255 2256
3673 10 2253 2252 2255 2256
3674 10 2254 2252 2255 2256
3675 10 2252 2255 2256 2257
3676 10 2252 2255 2256 2258
3677 12 2252 2255 2256 2259
3678 12 2255 2256 2259 2260
3679 10 2257 2256 2259 2260
3680 10 2258 2256 2259 2260
3681 10 2256 2259 2260 2261
3682 10 2256 2259 2260 2262
3683 12 2256 2259 2260 2263
3684 12 2259 2260 2263 2264
3685 10 2261 2260 2263 2264
3686 10 2262 2260 2263 2264
3687 10 2260 2263 2264 2265
3688 10 2260 2263 2264 2266
3689 12 2260 2263 2264 2267
3690 13 2263 2264 2267 117
3691 14 2265 2264 2267 117
3692 14 2266 2264 2267 117
3693 20 2225 116 2268 2248
3694 15 2289 116 2268 2248
3695 15 2310 116 2268 2248
3696 16 116 2268 2248 2249
3697 16 116 2268 2248 2250
3698 17 116 2268 2248 2251
3699 19 2264 2267 117 2162
3700 18 2264 2267 117 2331
3701 18 2264 2267 117 2352
3702 10 2270 2269 2272 2273
3703 10 2271 2269 2272 2273
3704 11 2289 2269 2272 2273
3705 10 2269 2272 2273 2274
3706 10 2269 2272 2273 2275
3707 12 2269 2272 2273 2276
3708 12 2272 2273 2276 2277
3709 10 2274 2273 2276 2277
3710 10 2275 2273 2276 2277
3711 10 2273 2276 2277 2278
3712 10 2273 2276 2277 2279
3713 12 2273 2276 2277 2280
3714 12 2276 2277 2280 2281
3715 10 2278 2277 2280 2281
3716 10 2279 2277 2280 2281
3717 10 2277 2280 2281 2282
3718 10 2277 2280 2281 2283
3719 12 2277 2280 2281 2284
3720 12 2280 2281 2284 2285
3721 10 2282 2281 2284 2285
3722 10 2283 2281 2284 2285
3723 10 2281 2284 2285 2286
3724 10 2281 2284 2285 2287
3725 12 2281 2284 2285 2288
3726 13 2284 2285 2288 120
3727 14 2286 2285 2288 120
3728 14 2287 2285 2288 120
3729 20 2225 116 2289 2269
3730 15 2268 116 2289 2269
3731 15 2310 116 2289 2269
3732 16 116 2289 2269 2270
3733 16 116 2289 2269 2271
3734 17 116 2289 2269 2272
3735 19 2285 2288 120 2414
3736 18 2285 2288 120 2457
3737 10 2291 2290 2293 2294
3738 10 2292 2290 2293 2294
3739 11 2310 2290 2293 2294
3740 10 2290 2293 2294 2295
3741 10 2290 2293 2294 2296
3742 12 2290 2293 2294 2297
3743 12 2293 2294 2297 2298
3744 10 2295 2294 2297 2298
3745 10 2296 2294 2297 2298
3746 10 2294 2297 2298 2299
3747 10 2294 2297 2298 2300
3748 12 2294 2297 2298 2301
3749 12 2297 2298 2301 2302
3750 10 2299 2298 2301 2302
3751 10 2300 2298 2301 2302
3752 10 2298 2301 2302 2303
3753 10 2298 2301 2302 2304
3754 12 2298 2301 2302 2305
3755 12 2301 2302 2305 2306
3756 10 2303 2302 2305 2306
3757 10 2304 2302 2305 2306
3758 10 2302 2305 2306 2307
3759 10 2302 2305 2306 2308
3760 12 2302 2305 2306 2309
3761 13 2305 2306 2309 295
3762 14 2307 2306 2309 295
3763 14 2308 2306 2309 295
3764 20 2225 116 2310 2290
3765 15 2268 116 2310 2290
3766 15 2289 116 2310 2290
3767 16 116 2310 2290 2291
3768 16 116 2310 2290 2292
3769 17 116 2310 2290 2293
3770 19 2306 2309 295 3044
3771 18 2306 2309 295 3108
3772 18 2306 2309 295 3129
3773 10 2312 2311 2314 2315
3774 10 2313 2311 2314 2315
3775 11 2331 2311 2314 2315
3776 10 2311 2314 2315 2316
3777 10 2311 2314 2315 2317
3778 12 2311 2314 2315 2318
3779 12 2314 2315 2318 2319
3780 10 2316 2315 2318 2319
3781 10 2317 2315 2318 2319
3782 10 2315 2318 2319 2320
3783 10 2315 2318 2319 2321
3784 12 2315 2318 2319 2322
3785 12 2318 2319 2322 2323
3786 10 2320 2319 2322 2323
3787 10 2321 2319 2322 2323
3788 10 2319 2322 2323 2324
3789 10 2319 2322 2323 2325
3790 12 2319 2322 2323 2326
3791 12 2322 2323 2326 2327
3792 10 2324 2323 2326 2327
3793 10 2325 2323 2326 2327
3794 10 2323 2326 2327 2328
3795 10 2323 2326 2327 2329
3796 12 2323 2326 2327 2330
3797 13 2326 2327 2330 121
3798 14 2328 2327 2330 121
3799 14 2329 2327 2330 121
3800 20 2162 117 2331 2311
3801 20 2267 117 2331 2311
3802 15 2352 117 2331 2311
3803 16 117 2331 2311 2312
3804 16 117 2331 2311 2313
3805 17 117 2331 2311 2314
3806 19 2327 2330 121 2393
3807 18 2327 2330 121 2478
3808 10 2333 2332 2335 2336
3809 10 2334 2332 2335 2336
3810 11 2352 2332 2335 2336
3811 10 2332 2335 2336 2337
3812 10 2332 2335 2336 2338
3813 12 2332 2335 2336 2339
3814 12 2335 2336 2339 2340
3815 10 2337 2336 2339 2340
3816 10 2338 2336 2339 2340
3817 10 2336 2339 2340 2341
3818 10 2336 2339 2340 2342
3819 12 2336 2339 2340 2343
3820 12 2339 2340 2343 2344
3821 10 2341 2340 2343 2344
3822 10 2342 2340 2343 2344
3823 10 2340 2343 2344 2345
3824 10 2340 2343 2344 2346
3825 12 2340 2343 2344 2347
3826 12 2343 2344 2347 2348
3827 10 2345 2344 2347 2348
3828 10 2346 2344 2347 2348
3829 10 2344 2347 2348 2349
3830 10 2344 2347 2348 2350
3831 12 2344 2347 2348 2351
3832 13 2347 2348 2351 296
3833 14 2349 2348 2351 296
3834 14 2350 2348 2351 296
3835 20 2162 117 2352 2332
3836 20 2267 117 2352 2332
3837 15 2331 117 2352 2332
3838 16 117 2352 2332 2333
3839 16 117 2352 2332 2334
3840 17 117 2352 2332 2335
3841 19 2348 2351 296 2918
3842 19 2348 2351 296 2981
3843 18 2348 2351 296 3150
3844 10 2354 2353 2356 2357
3845 10 2355 2353 2356 2357
3846 11 2373 2353 2356 2357
3847 10 2353 2356 2357 2358
3848 10 2353 2356 2357 2359
3849 12 2353 2356 2357 2360
3850 12 2356 2357 2360 2361
3851 10 2358 2357 2360 2361
3852 10 2359 2357 2360 2361
3853 10 2357 2360 2361 2362
3854 10 2357 2360 2361 2363
3855 12 2357 2360 2361 2364
3856 12 2360 2361 2364 2365
3857 10 2362 2361 2364 2365
3858 10 2363 2361 2364 2365
3859 10 2361 2364 2365 2366
3860 10 2361 2364 2365 2367
3861 12 2361 2364 2365 2368
3862 12 2364 2365 2368 2369
3863 10 2366 2365 2368 2369
3864 10 2367 2365 2368 2369
3865 10 2365 2368 2369 2370
3866 10 2365 2368 2369 2371
3867 12 2365 2368 2369 2372
3868 13 2368 2369 2372 122
3869 14 2370 2369 2372 122
3870 14 2371 2369 2372 122
3871 20 1386 118 2373 2353
3872 20 2183 118 2373 2353
3873 15 2394 118 2373 2353
3874 16 118 2373 2353 2354
3875 16 118 2373 2353 2355
3876 17 118 2373 2353 2356
3877 19 2369 2372 122 1784
3878 18 2369 2372 122 2499
3879 10 2375 2374 2377 2378
3880 10 2376 2374 2377 2378
3881 11 2394 2374 2377 2378
3882 10 2374 2377 2378 2379
3883 10 2374 2377 2378 2380
3884 12 2374 2377 2378 2381
3885 12 2377 2378 2381 2382
3886 10 2379 2378 2381 2382
3887 10 2380 2378 2381 2382
3888 10 2378 2381 2382 2383
3889 10 2378 2381 2382 2384
3890 12 2378 2381 2382 2385
3891 12 2381 2382 2385 2386
3892 10 2383 2382 2385 2386
3893 10 2384 2382 2385 2386
3894 10 2382 2385 2386 2387
3895 10 2382 2385 2386 2388
3896 12 2382 2385 2386 2389
3897 12 2385 2386 2389 2390
3898 10 2387 2386 2389 2390
3899 10 2388 2386 2389 2390
3900 10 2386 2389 2390 2391
3901 10 2386 2389 2390 2392
3902 12 2386 2389 2390 2393
3903 13 2389 2390 2393 121
3904 14 2391 2390 2393 121
3905 14 2392 2390 2393 121
3906 20 1386 118 2394 2374
3907 20 2183 118 2394 2374
3908 15 2373 118 2394 2374
3909 16 118 2394 2374 2375
3910 16 118 2394 2374 2376
3911 17 118 2394 2374 2377
3912 19 2390 2393 121 2330
3913 18 2390 2393 121 2478
3914 10 2396 2395 2398 2399
3915 10 2397 2395 2398 2399
3916 11 2415 2395 2398 2399
3917 10 2395 2398 2399 2400
3918 10 2395 2398 2399 2401
3919 12 2395 2398 2399 2402
3920 12 2398 2399 2402 2403
3921 10 2400 2399 2402 2403
3922 10 2401 2399 2402 2403
3923 10 2399 2402 2403 2404
3924 10 2399 2402 2403 2405
3925 12 2399 2402 2403 2406
3926 12 2402 2403 2406 2407
3927 10 2404 2403 2406 2407
3928 10 2405 2403 2406 2407
3929 10 2403 2406 2407 2408
3930 10 2403 2406 2407 2409
3931 12 2403 2406 2407 2410
3932 12 2406 2407 2410 2411
3933 10 2408 2407 2410 2411
3934 10 2409 2407 2410 2411
3935 10 2407 2410 2411 2412
3936 10 2407 2410 2411 2413
3937 12 2407 2410 2411 2414
3938 13 2410 2411 2414 120
3939 14 2412 2411 2414 120
3940 14 2413 2411 2414 120
3941 20 1470 119 2415 2395
3942 15 2436 119 2415 2395
3943 16 119 2415 2395 2396
3944 16 119 2415 2395 2397
3945 17 119 2415 2395 2398
3946 19 2411 2414 120 2288
3947 18 2411 2414 120 2457
3948 10 2417 2416 2419 2420
3949 10 2418 2416 2419 2420
3950 11 2436 2416 2419 2420
3951 10 2416 2419 2420 2421
3952 10 2416 2419 2420 2422
3953 12 2416 2419 2420 2423
3954 12 2419 2420 2423 2424
3955 10 2421 2420 2423 2424
3956 10 2422 2420 2423 2424
3957 10 2420 2423 2424 2425
3958 10 2420 2423 2424 2426
3959 12 2420 2423 2424 2427
3960 12 2423 2424 2427 2428
3961 10 2425 2424 2427 2428
3962 10 2426 2424 2427 2428
3963 10 2424 2427 2428 2429
3964 10 2424 2427 2428 2430
3965 12 2424 2427 2428 2431
3966 12 2427 2428 2431 2432
3967 10 2429 2428 2431 2432
3968 10 2430 2428 2431 2432
3969 10 2428 2431 2432 2433
3970 10 2428 2431 2432 2434
3971 12 2428 2431 2432 2435
3972 13 2431 2432 2435 298
3973 14 2433 2432 2435 298
3974 14 2434 2432 2435 298
3975 20 1470 119 2436 2416
3976 15 2415 119 2436 2416
3977 16 119 2436 2416 2417
3978 16 119 2436 2416 2418
3979 17 119 2436 2416 2419
3980 19 2432 2435 298 3065
3981 18 2432 2435 298 3213
3982 18 2432 2435 298 3234
3983 10 2438 2437 2440 2441
3984 10 2439 2437 2440 2441
3985 11 2457 2437 2440 2441
3986 10 2437 2440 2441 2442
3987 10 2437 2440 2441 2443
3988 12 2437 2440 2441 2444
3989 12 2440 2441 2444 2445
3990 10 2442 2441 2444 2445
3991 10 2443 2441 2444 2445
3992 10 2441 2444 2445 2446
3993 10 2441 2444 2445 2447
3994 12 2441 2444 2445 2448
3995 12 2444 2445 2448 2449
3996 10 2446 2445 2448 2449
3997 10 2447 2445 2448 2449
3998 10 2445 2448 2449 2450
3999 10 2445 2448 2449 2451
4000 12 2445 2448 2449 2452
4001 12 2448 2449 2452 2453
4002 10 2450 2449 2452 2453
4003 10 2451 2449 2452 2453
4004 10 2449 2452 2453 2454
4005 10 2449 2452 2453 2455
4006 12 2449 2452 2453 2456
4007 13 2452 2453 2456 203
4008 14 2454 2453 2456 203
4009 14 2455 2453 2456 203
4010 20 2288 120 2457 2437
4011 20 2414 120 2457 2437
4012 16 120 2457 2437 2438
4013 16 120 2457 2437 2439
4014 17 120 2457 2437 2440
4015 19 2453 2456 203 1700
4016 19 2453 2456 203 1952
4017 18 2453 2456 203 2541
4018 10 2459 2458 2461 2462
4019 10 2460 2458 2461 2462
4020 11 2478 2458 2461 2462
4021 10 2458 2461 2462 2463
4022 10 2458 2461 2462 2464
4023 12 2458 2461 2462 2465
4024 12 2461 2462 2465 2466
4025 10 2463 2462 2465 2466
4026 10 2464 2462 2465 2466
4027 10 2462 2465 2466 2467
4028 10 2462 2465 2466 2468
4029 12 2462 2465 2466 2469
4030 12 2465 2466 2469 2470
4031 10 2467 2466 2469 2470
4032 10 2468 2466 2469 2470
4033 10 2466 2469 2470 2471
4034 10 2466 2469 2470 2472
4035 12 2466 2469 2470 2473
4036 12 2469 2470 2473 2474
4037 10 2471 2470 2473 2474
4038 10 2472 2470 2473 2474
4039 10 2470 2473 2474 2475
4040 10 2470 2473 2474 2476
4041 12 2470 2473 2474 2477
4042 13 2473 2474 2477 204
4043 14 2475 2474 2477 204
4044 14 2476 2474 2477 204
4045 20 2330 121 2478 2458
4046 20 2393 121 2478 2458
4047 16 121 2478 2458 2459
4048 16 121 2478 2458 2460
4049 17 121 2478 2458 2461
4050 19 2474 2477 204 2540
4051 18 2474 2477 204 2562
4052 10 2480 2479 2482 2483
4053 10 2481 2479 2482 2483
4054 11 2499 2479 2482 2483
4055 10 2479 2482 2483 2484
4056 10 2479 2482 2483 2485
4057 12 2479 2482 2483 2486
4058 12 2482 2483 2486 2487
4059 10 2484 2483 2486 2487
4060 10 2485 2483 2486 2487
4061 10 2483 2486 2487 2488
4062 10 2483 2486 2487 2489
4063 12 2483 2486 2487 2490
4064 12 2486 2487 2490 2491
4065 10 2488 2487 2490 2491
4066 10 2489 2487 2490 2491
4067 10 2487 2490 2491 2492
4068 10 2487 2490 2491 2493
4069 12 2487 2490 2491 2494
4070 12 2490 2491 2494 2495
4071 10 2492 2491 2494 2495
4072 10 2493 2491 2494 2495
4073 10 2491 2494 2495 2496
4074 10 2491 2494 2495 2497
4075 12 2491 2494 2495 2498
4076 13 2494 2495 2498 301
4077 14 2496 2495 2498 301
4078 14 2497 2495 2498 301
4079 20 1784 122 2499 2479
4080 20 2372 122 2499 2479
4081 16 122 2499 2479 2480
4082 16 122 2499 2479 2481
4083 17 122 2499 2479 2482
4084 18 2495 2498 301 3318
4085 18 2495 2498 301 3339
4086 10 2501 2500 2503 2504
4087 10 2502 2500 2503 2504
4088 11 2520 2500 2503 2504
4089 10 2500 2503 2504 2505
4090 10 2500 2503 2504 2506
4091 12 2500 2503 2504 2507
4092 12 2503 2504 2507 2508
4093 10 2505 2504 2507 2508
4094 10 2506 2504 2507 2508
4095 10 2504 2507 2508 2509
4096 10 2504 2507 2508 2510
4097 12 2504 2507 2508 2511
4098 12 2507 2508 2511 2512
4099 10 2509 2508 2511 2512
4100 10 2510 2508 2511 2512
4101 10 2508 2511 2512 2513
4102 10 2508 2511 2512 2514
4103 12 2508 2511 2512 2515
4104 12 2511 2512 2515 2516
4105 10 2513 2512 2515 2516
4106 10 2514 2512 2515 2516
4107 10 2512 2515 2516 2517
4108 10 2512 2515 2516 2518
4109 12 2512 2515 2516 2519
4110 13 2515 2516 2519 302
4111 14 2517 2516 2519 302
4112 14 2518 2516 2519 302
4113 20 1616 123 2520 2500
4114 20 1847 123 2520 2500
4115 16 123 2520 2500 2501
4116 16 123 2520 2500 2502
4117 17 123 2520 2500 2503
4118 19 2516 2519 302 3170
4119 19 2516 2519 302 3317
4120 18 2516 2519 302 3360
4121 10 2522 2521 2524 2525
4122 10 2523 2521 2524 2525
4123 11 2541 2521 2524 2525
4124 10 2521 2524 2525 2526
4125 10 2521 2524 2525 2527
4126 12 2521 2524 2525 2528
4127 12 2524 2525 2528 2529
4128 10 2526 2525 2528 2529
4129 10 2527 2525 2528 2529
4130 10 2525 2528 2529 2530
4131 10 2525 2528 2529 2531
4132 12 2525 2528 2529 2532
4133 12 2528 2529 2532 2533
4134 10 2530 2529 2532 2533
4135 10 2531 2529 2532 2533
4136 10 2529 2532 2533 2534
4137 10 2529 2532 2533 2535
4138 12 2529 2532 2533 2536
4139 12 2532 2533 2536 2537
4140 10 2534 2533 2536 2537
4141 10 2535 2533 2536 2537
4142 10 2533 2536 2537 2538
4143 10 2533 2536 2537 2539
4144 12 2533 2536 2537 2540
4145 13 2536 2537 2540 204
4146 14 2538 2537 2540 204
4147 14 2539 2537 2540 204
4148 20 1700 203 2541 2521
4149 20 1952 203 2541 2521
4150 20 2456 203 2541 2521
4151 16 203 2541 2521 2522
4152 16 203 2541 2521 2523
4153 17 203 2541 2521 2524
4154 19 2537 2540 204 2477
4155 18 2537 2540 204 2562
4156 10 2543 2542 2545 2546
4157 10 2544 2542 2545 2546
4158 11 2562 2542 2545 2546
4159 10 2542 2545 2546 2547
4160 10 2542 2545 2546 2548
4161 12 2542 2545 2546 2549
4162 12 2545 2546 2549 2550
4163 10 2547 2546 2549 2550
4164 10 2548 2546 2549 2550
4165 10 2546 2549 2550 2551
4166 10 2546 2549 2550 2552
4167 12 2546 2549 2550 2553
4168 12 2549 2550 2553 2554
4169 10 2551 2550 2553 2554
4170 10 2552 2550 2553 2554
4171 10 2550 2553 2554 2555
4172 10 2550 2553 2554 2556
4173 12 2550 2553 2554 2557
4174 12 2553 2554 2557 2558
4175 10 2555 2554 2557 2558
4176 10 2556 2554 2557 2558
4177 10 2554 2557 2558 2559
4178 10 2554 2557 2558 2560
4179 12 2554 2557 2558 2561
4180 13 2557 2558 2561 383
4181 14 2559 2558 2561 383
4182 14 2560 2558 2561 383
4183 20 2477 204 2562 2542
4184 20 2540 204 2562 2542
4185 16 204 2562 2542 2543
4186 16 204 2562 2542 2544
4187 17 204 2562 2542 2545
4188 19 2558 2561 383 2750
4189 19 2558 2561 383 3380
4190 18 2558 2561 383 3423
4191 10 2564 2563 2566 2567
4192 10 2565 2563 2566 2567
4193 11 2583 2563 2566 2567
4194 10 2563 2566 2567 2568
4195 10 2563 2566 2567 2569
4196 12 2563 2566 2567 2570
4197 12 2566 2567 2570 2571
4198 10 2568 2567 2570 2571
4199 10 2569 2567 2570 2571
4200 10 2567 2570 2571 2572
4201 10 2567 2570 2571 2573
4202 12 2567 2570 2571 2574
4203 12 2570 2571 2574 2575
4204 10 2572 2571 2574 2575
4205 10 2573 2571 2574 2575
4206 10 2571 2574 2575 2576
4207 10 2571 2574 2575 2577
4208 12 2571 2574 2575 2578
4209 12 2574 2575 2578 2579
4210 10 2576 2575 2578 2579
4211 10 2577 2575 2578 2579
4212 10 2575 2578 2579 2580
4213 10 2575 2578 2579 2581
4214 12 2575 2578 2579 2582
4215 13 2578 2579 2582 285
4216 14 2580 2579 2582 285
4217 14 2581 2579 2582 285
4218 20 1889 284 2583 2563
4219 15 2604 284 2583 2563
4220 15 2625 284 2583 2563
4221 16 284 2583 2563 2564
4222 16 284 2583 2563 2565
4223 17 284 2583 2563 2566
4224 18 2579 2582 285 2646
4225 18 2579 2582 285 2667
4226 18 2579 2582 285 2688
4227 10 2585 2584 2587 2588
4228 10 2586 2584 2587 2588
4229 11 2604 2584 2587 2588
4230 10 2584 2587 2588 2589
4231 10 2584 2587 2588 2590
4232 12 2584 2587 2588 2591
4233 12 2587 2588 2591 2592
4234 10 2589 2588 2591 2592
4235 10 2590 2588 2591 2592
4236 10 2588 2591 2592 2593
4237 10 2588 2591 2592 2594
4238 12 2588 2591 2592 2595
4239 12 2591 2592 2595 2596
4240 10 2593 2592 2595 2596
4241 10 2594 2592 2595 2596
4242 10 2592 2595 2596 2597
4243 10 2592 2595 2596 2598
4244 12 2592 2595 2596 2599
4245 12 2595 2596 2599 2600
4246 10 2597 2596 2599 2600
4247 10 2598 2596 2599 2600
4248 10 2596 2599 2600 2601
4249 10 2596 2599 2600 2602
4250 12 2596 2599 2600 2603
4251 13 2599 2600 2603 289
4252 14 2601 2600 2603 289
4253 14 2602 2600 2603 289
4254 20 1889 284 2604 2584
4255 15 2583 284 2604 2584
4256 15 2625 284 2604 2584
4257 16 284 2604 2584 2585
4258 16 284 2604 2584 2586
4259 17 284 2604 2584 2587
4260 19 2600 2603 289 2099
4261 18 2600 2603 289 2898
4262 10 2606 2605 2608 2609
4263 10 2607 2605 2608 2609
4264 11 2625 2605 2608 2609
4265 10 2605 2608 2609 2610
4266 10 2605 2608 2609 2611
4267 12 2605 2608 2609 2612
4268 12 2608 2609 2612 2613
4269 10 2610 2609 2612 2613
4270 10 2611 2609 2612 2613
4271 10 2609 2612 2613 2614
4272 10 2609 2612 2613 2615
4273 12 2609 2612 2613 2616
4274 12 2612 2613 2616 2617
4275 10 2614 2613 2616 2617
4276 10 2615 2613 2616 2617
4277 10 2613 2616 2617 2618
4278 10 2613 2616 2617 2619
4279 12 2613 2616 2617 2620
4280 12 2616 2617 2620 2621
4281 10 2618 2617 2620 2621
4282 10 2619 2617 2620 2621
4283 10 2617 2620 2621 2622
4284 10 2617 2620 2621 2623
4285 12 2617 2620 2621 2624
4286 13 2620 2621 2624 464
4287 14 2622 2621 2624 464
4288 14 2623 2621 2624 464
4289 20 1889 284 2625 2605
4290 15 2583 284 2625 2605
4291 15 2604 284 2625 2605
4292 16 284 2625 2605 2606
4293 16 284 2625 2605 2607
4294 17 284 2625 2605 2608
4295 18 2621 2624 464 3506
4296 18 2621 2624 464 3527
4297 18 2621 2624 464 3548
4298 10 2627 2626 2629 2630
4299 10 2628 2626 2629 2630
4300 11 2646 2626 2629 2630
4301 10 2626 2629 2630 2631
4302 10 2626 2629 2630 2632
4303 12 2626 2629 2630 2633
4304 12 2629 2630 2633 2634
4305 10 2631 2630 2633 2634
4306 10 2632 2630 2633 2634
4307 10 2630 2633 2634 2635
4308 10 2630 2633 2634 2636
4309 12 2630 2633 2634 2637
4310 12 2633 2634 2637 2638
4311 10 2635 2634 2637 2638
4312 10 2636 2634 2637 2638
4313 10 2634 2637 2638 2639
4314 10 2634 2637 2638 2640
4315 12 2634 2637 2638 2641
4316 12 2637 2638 2641 2642
4317 10 2639 2638 2641 2642
4318 10 2640 2638 2641 2642
4319 10 2638 2641 2642 2643
4320 10 2638 2641 2642 2644
4321 12 2638 2641 2642 2645
4322 13 2641 2642 2645 290
4323 14 2643 2642 2645 290
4324 14 2644 2642 2645 290
4325 20 2582 285 2646 2626
4326 15 2667 285 2646 2626
4327 15 2688 285 2646 2626
4328 16 285 2646 2626 2627
4329 16 285 2646 2626 2628
4330 17 285 2646 2626 2629
4331 19 2642 2645 290 2141
4332 19 2642 2645 290 2897
4333 10 2648 2647 2650 2651
4334 10 2649 2647 2650 2651
4335 11 2667 2647 2650 2651
4336 10 2647 2650 2651 2652
4337 10 2647 2650 2651 2653
4338 12 2647 2650 2651 2654
4339 12 2650 2651 2654 2655
4340 10 2652 2651 2654 2655
4341 10 2653 2651 2654 2655
4342 10 2651 2654 2655 2656
4343 10 2651 2654 2655 2657
4344 12 2651 2654 2655 2658
4345 12 2654 2655 2658 2659
4346 10 2656 2655 2658 2659
4347 10 2657 2655 2658 2659
4348 10 2655 2658 2659 2660
4349 10 2655 2658 2659 2661
4350 12 2655 2658 2659 2662
4351 12 2658 2659 2662 2663
4352 10 2660 2659 2662 2663
4353 10 2661 2659 2662 2663
4354 10 2659 2662 2663 2664
4355 10 2659 2662 2663 2665
4356 12 2659 2662 2663 2666
4357 13 2662 2663 2666 465
4358 14 2664 2663 2666 465
4359 14 2665 2663 2666 465
4360 20 2582 285 2667 2647
4361 15 2646 285 2667 2647
4362 15 2688 285 2667 2647
4363 16 285 2667 2647 2648
4364 16 285 2667 2647 2649
4365 17 285 2667 2647 2650
4366 19 2663 2666 465 3505
4367 18 2663 2666 465 3569
4368 18 2663 2666 465 3590
4369 10 2669 2668 2671 2672
4370 10 2670 2668 2671 2672
4371 11 2688 2668 2671 2672
4372 10 2668 2671 2672 2673
4373 10 2668 2671 2672 2674
4374 12 2668 2671 2672 2675
4375 12 2671 2672 2675 2676
4376 10 2673 2672 2675 2676
4377 10 2674 2672 2675 2676
4378 10 2672 2675 2676 2677
4379 10 2672 2675 2676 2678
4380 12 2672 2675 2676 2679
4381 12 2675 2676 2679 2680
4382 10 2677 2676 2679 2680
4383 10 2678 2676 2679 2680
4384 10 2676 2679 2680 2681
4385 10 2676 2679 2680 2682
4386 12 2676 2679 2680 2683
4387 12 2679 2680 2683 2684
4388 10 2681 2680 2683 2684
4389 10 2682 2680 2683 2684
4390 10 2680 2683 2684 2685
4391 10 2680 2683 2684 2686
4392 12 2680 2683 2684 2687
4393 13 2683 2684 2687 382
4394 14 2685 2684 2687 382
4395 14 2686 2684 2687 382
4396 20 2582 285 2688 2668
4397 15 2646 285 2688 2668
4398 15 2667 285 2688 2668
4399 16 285 2688 2668 2669
4400 16 285 2688 2668 2670
4401 17 285 2688 2668 2671
4402 19 2684 2687 382 3275
4403 18 2684 2687 382 3381
4404 18 2684 2687 382 3402
4405 10 2690 2689 2692 2693
4406 10 2691 2689 2692 2693
4407 11 2709 2689 2692 2693
4408 10 2689 2692 2693 2694
4409 10 2689 2692 2693 2695
4410 12 2689 2692 2693 2696
4411 12 2692 2693 2696 2697
4412 10 2694 2693 2696 2697
4413 10 2695 2693 2696 2697
4414 10 2693 2696 2697 2698
4415 10 2693 2696 2697 2699
4416 12 2693 2696 2697 2700
4417 12 2696 2697 2700 2701
4418 10 2698 2697 2700 2701
4419 10 2699 2697 2700 2701
4420 10 2697 2700 2701 2702
4421 10 2697 2700 2701 2703
4422 12 2697 2700 2701 2704
4423 12 2700 2701 2704 2705
4424 10 2702 2701 2704 2705
4425 10 2703 2701 2704 2705
4426 10 2701 2704 2705 2706
4427 10 2701 2704 2705 2707
4428 12 2701 2704 2705 2708
4429 13 2704 2705 2708 291
4430 14 2706 2705 2708 291
4431 14 2707 2705 2708 291
4432 20 1973 286 2709 2689
4433 15 2730 286 2709 2689
4434 15 2751 286 2709 2689
4435 16 286 2709 2689 2690
4436 16 286 2709 2689 2691
4437 17 286 2709 2689 2692
4438 19 2705 2708 291 2834
4439 18 2705 2708 291 2919
4440 18 2705 2708 291 2940
4441 10 2711 2710 2713 2714
4442 10 2712 2710 2713 2714
4443 11 2730 2710 2713 2714
4444 10 2710 2713 2714 2715
4445 10 2710 2713 2714 2716
4446 12 2710 2713 2714 2717
4447 12 2713 2714 2717 2718
4448 10 2715 2714 2717 2718
4449 10 2716 2714 2717 2718
4450 10 2714 2717 2718 2719
4451 10 2714 2717 2718 2720
4452 12 2714 2717 2718 2721
4453 12 2717 2718 2721 2722
4454 10 2719 2718 2721 2722
4455 10 2720 2718 2721 2722
4456 10 2718 2721 2722 2723
4457 10 2718 2721 2722 2724
4458 12 2718 2721 2722 2725
4459 12 2721 2722 2725 2726
4460 10 2723 2722 2725 2726
4461 10 2724 2722 2725 2726
4462 10 2722 2725 2726 2727
4463 10 2722 2725 2726 2728
4464 12 2722 2725 2726 2729
4465 13 2725 2726 2729 466
4466 14 2727 2726 2729 466
4467 14 2728 2726 2729 466
4468 20 1973 286 2730 2710
4469 15 2709 286 2730 2710
4470 15 2751 286 2730 2710
4471 16 286 2730 2710 2711
4472 16 286 2730 2710 2712
4473 17 286 2730 2710 2713
4474 18 2726 2729 466 3611
4475 18 2726 2729 466 3632
4476 10 2732 2731 2734 2735
4477 10 2733 2731 2734 2735
4478 11 2751 2731 2734 2735
4479 10 2731 2734 2735 2736
4480 10 2731 2734 2735 2737
4481 12 2731 2734 2735 2738
4482 12 2734 2735 2738 2739
4483 10 2736 2735 2738 2739
4484 10 2737 2735 2738 2739
4485 10 2735 2738 2739 2740
4486 10 2735 2738 2739 2741
4487 12 2735 2738 2739 2742
4488 12 2738 2739 2742 2743
4489 10 2740 2739 2742 2743
4490 10 2741 2739 2742 2743
4491 10 2739 2742 2743 2744
4492 10 2739 2742 2743 2745
4493 12 2739 2742 2743 2746
4494 12 2742 2743 2746 2747
4495 10 2744 2743 2746 2747
4496 10 2745 2743 2746 2747
4497 10 2743 2746 2747 2748
4498 10 2743 2746 2747 2749
4499 12 2743 2746 2747 2750
4500 13 2746 2747 2750 383
4501 14 2748 2747 2750 383
4502 14 2749 2747 2750 383
4503 20 1973 286 2751 2731
4504 15 2709 286 2751 2731
4505 15 2730 286 2751 2731
4506 16 286 2751 2731 2732
4507 16 286 2751 2731 2733
4508 17 286 2751 2731 2734
4509 19 2747 2750 383 2561
4510 19 2747 2750 383 3380
4511 18 2747 2750 383 3423
4512 10 2753 2752 2755 2756
4513 10 2754 2752 2755 2756
4514 11 2772 2752 2755 2756
4515 10 2752 2755 2756 2757
4516 10 2752 2755 2756 2758
4517 12 2752 2755 2756 2759
4518 12 2755 2756 2759 2760
4519 10 2757 2756 2759 2760
4520 10 2758 2756 2759 2760
4521 10 2756 2759 2760 2761
4522 10 2756 2759 2760 2762
4523 12 2756 2759 2760 2763
4524 12 2759 2760 2763 2764
4525 10 2761 2760 2763 2764
4526 10 2762 2760 2763 2764
4527 10 2760 2763 2764 2765
4528 10 2760 2763 2764 2766
4529 12 2760 2763 2764 2767
4530 12 2763 2764 2767 2768
4531 10 2765 2764 2767 2768
4532 10 2766 2764 2767 2768
4533 10 2764 2767 2768 2769
4534 10 2764 2767 2768 2770
4535 12 2764 2767 2768 2771
4536 13 2767 2768 2771 288
4537 14 2769 2768 2771 288
4538 14 2770 2768 2771 288
4539 15 2793 287 2772 2752
4540 15 2814 287 2772 2752
4541 15 2835 287 2772 2752
4542 16 287 2772 2752 2753
4543 16 287 2772 2752 2754
4544 17 287 2772 2752 2755
4545 19 2768 2771 288 2057
4546 18 2768 2771 288 2856
4547 18 2768 2771 288 2877
4548 10 2774 2773 2776 2777
4549 10 2775 2773 2776 2777
4550 11 2793 2773 2776 2777
4551 10 2773 2776 2777 2778
4552 10 2773 2776 2777 2779
4553 12 2773 2776 2777 2780
4554 12 2776 2777 2780 2781
4555 10 2778 2777 2780 2781
4556 10 2779 2777 2780 2781
4557 10 2777 2780 2781 2782
4558 10 2777 2780 2781 2783
4559 12 2777 2780 2781 2784
4560 12 2780 2781 2784 2785
4561 10 2782 2781 2784 2785
4562 10 2783 2781 2784 2785
4563 10 2781 2784 2785 2786
4564 10 2781 2784 2785 2787
4565 12 2781 2784 2785 2788
4566 12 2784 2785 2788 2789
4567 10 2786 2785 2788 2789
4568 10 2787 2785 2788 2789
4569 10 2785 2788 2789 2790
4570 10 2785 2788 2789 2791
4571 12 2785 2788 2789 2792
4572 13 2788 2789 2792 292
4573 14 2790 2789 2792 292
4574 14 2791 2789 2792 292
4575 15 2772 287 2793 2773
4576 15 2814 287 2793 2773
4577 15 2835 287 2793 2773
4578 16 287 2793 2773 2774
4579 16 287 2793 2773 2775
4580 17 287 2793 2773 2776
4581 18 2789 2792 292 2961
4582 18 2789 2792 292 2982
4583 10 2795 2794 2797 2798
4584 10 2796 2794 2797 2798
4585 11 2814 2794 2797 2798
4586 10 2794 2797 2798 2799
4587 10 2794 2797 2798 2800
4588 12 2794 2797 2798 2801
4589 12 2797 2798 2801 2802
4590 10 2799 2798 2801 2802
4591 10 2800 2798 2801 2802
4592 10 2798 2801 2802 2803
4593 10 2798 2801 2802 2804
4594 12 2798 2801 2802 2805
4595 12 2801 2802 2805 2806
4596 10 2803 2802 2805 2806
4597 10 2804 2802 2805 2806
4598 10 2802 2805 2806 2807
4599 10 2802 2805 2806 2808
4600 12 2802 2805 2806 2809
4601 12 2805 2806 2809 2810
4602 10 2807 2806 2809 2810
4603 10 2808 2806 2809 2810
4604 10 2806 2809 2810 2811
4605 10 2806 2809 2810 2812
4606 12 2806 2809 2810 2813
4607 13 2809 2810 2813 467
4608 14 2811 2810 2813 467
4609 14 2812 2810 2813 467
4610 15 2772 287 2814 2794
4611 15 2793 287 2814 2794
4612 15 2835 287 2814 2794
4613 16 287 2814 2794 2795
4614 16 287 2814 2794 2796
4615 17 287 2814 2794 2797
4616 18 2810 2813 467 3653
4617 18 2810 2813 467 3674
4618 10 2816 2815 2818 2819
4619 10 2817 2815 2818 2819
4620 11 2835 2815 2818 2819
4621 10 2815 2818 2819 2820
4622 10 2815 2818 2819 2821
4623 12 2815 2818 2819 2822
4624 12 2818 2819 2822 2823
4625 10 2820 2819 2822 2823
4626 10 2821 2819 2822 2823
4627 10 2819 2822 2823 2824
4628 10 2819 2822 2823 2825
4629 12 2819 2822 2823 2826
4630 12 2822 2823 2826 2827
4631 10 2824 2823 2826 2827
4632 10 2825 2823 2826 2827
4633 10 2823 2826 2827 2828
4634 10 2823 2826 2827 2829
4635 12 2823 2826 2827 2830
4636 12 2826 2827 2830 2831
4637 10 2828 2827 2830 2831
4638 10 2829 2827 2830 2831
4639 10 2827 2830 2831 2832
4640 10 2827 2830 2831 2833
4641 12 2827 2830 2831 2834
4642 13 2830 2831 2834 291
4643 14 2832 2831 2834 291
4644 14 2833 2831 2834 291
4645 15 2772 287 2835 2815
4646 15 2793 287 2835 2815
4647 15 2814 287 2835 2815
4648 16 287 2835 2815 2816
4649 16 287 2835 2815 2817
4650 17 287 2835 2815 2818
4651 19 2831 2834 291 2708
4652 18 2831 2834 291 2919
4653 18 2831 2834 291 2940
4654 10 2837 2836 2839 2840
4655 10 2838 2836 2839 2840
4656 11 2856 2836 2839 2840
4657 10 2836 2839 2840 2841
4658 10 2836 2839 2840 2842
4659 12 2836 2839 2840 2843
4660 12 2839 2840 2843 2844
4661 10 2841 2840 2843 2844
4662 10 2842 2840 2843 2844
4663 10 2840 2843 2844 2845
4664 10 2840 2843 2844 2846
4665 12 2840 2843 2844 2847
4666 12 2843 2844 2847 2848
4667 10 2845 2844 2847 2848
4668 10 2846 2844 2847 2848
4669 10 2844 2847 2848 2849
4670 10 2844 2847 2848 2850
4671 12 2844 2847 2848 2851
4672 12 2847 2848 2851 2852
4673 10 2849 2848 2851 2852
4674 10 2850 2848 2851 2852
4675 10 2848 2851 2852 2853
4676 10 2848 2851 2852 2854
4677 12 2848 2851 2852 2855
4678 13 2851 2852 2855 293
4679 14 2853 2852 2855 293
4680 14 2854 2852 2855 293
4681 20 2057 288 2856 2836
4682 20 2771 288 2856 2836
4683 15 2877 288 2856 2836
4684 16 288 2856 2836 2837
4685 16 288 2856 2836 2838
4686 17 288 2856 2836 2839
4687 19 2852 2855 293 2204
4688 18 2852 2855 293 3003
4689 18 2852 2855 293 3024
4690 10 2858 2857 2860 2861
4691 10 2859 2857 2860 2861
4692 11 2877 2857 2860 2861
4693 10 2857 2860 2861 2862
4694 10 2857 2860 2861 2863
4695 12 2857 2860 2861 2864
4696 12 2860 2861 2864 2865
4697 10 2862 2861 2864 2865
4698 10 2863 2861 2864 2865
4699 10 2861 2864 2865 2866
4700 10 2861 2864 2865 2867
4701 12 2861 2864 2865 2868
4702 12 2864 2865 2868 2869
4703 10 2866 2865 2868 2869
4704 10 2867 2865 2868 2869
4705 10 2865 2868 2869 2870
4706 10 2865 2868 2869 2871
4707 12 2865 2868 2869 2872
4708 12 2868 2869 2872 2873
4709 10 2870 2869 2872 2873
4710 10 2871 2869 2872 2873
4711 10 2869 2872 2873 2874
4712 10 2869 2872 2873 2875
4713 12 2869 2872 2873 2876
4714 13 2872 2873 2876 468
4715 14 2874 2873 2876 468
4716 14 2875 2873 2876 468
4717 20 2057 288 2877 2857
4718 20 2771 288 2877 2857
4719 15 2856 288 2877 2857
4720 16 288 2877 2857 2858
4721 16 288 2877 2857 2859
4722 17 288 2877 2857 2860
4723 19 2873 2876 468 3652
4724 18 2873 2876 468 3695
4725 18 2873 2876 468 3716
4726 10 2879 2878 2881 2882
4727 10 2880 2878 2881 2882
4728 11 2898 2878 2881 2882
4729 10 2878 2881 2882 2883
4730 10 2878 2881 2882 2884
4731 12 2878 2881 2882 2885
4732 12 2881 2882 2885 2886
4733 10 2883 2882 2885 2886
4734 10 2884 2882 2885 2886
4735 10 2882 2885 2886 2887
4736 10 2882 2885 2886 2888
4737 12 2882 2885 2886 2889
4738 12 2885 2886 2889 2890
4739 10 2887 2886 2889 2890
4740 10 2888 2886 2889 2890
4741 10 2886 2889 2890 2891
4742 10 2886 2889 2890 2892
4743 12 2886 2889 2890 2893
4744 12 2889 2890 2893 2894
4745 10 2891 2890 2893 2894
4746 10 2892 2890 2893 2894
4747 10 2890 2893 2894 2895
4748 10 2890 2893 2894 2896
4749 12 2890 2893 2894 2897
4750 13 2893 2894 2897 290
4751 14 2895 2894 2897 290
4752 14 2896 2894 2897 290
4753 20 2099 289 2898 2878
4754 20 2603 289 2898 2878
4755 16 289 2898 2878 2879
4756 16 289 2898 2878 2880
4757 17 289 2898 2878 2881
4758 19 2894 2897 290 2141
4759 19 2894 2897 290 2645
4760 10 2900 2899 2902 2903
4761 10 2901 2899 2902 2903
4762 11 2919 2899 2902 2903
4763 10 2899 2902 2903 2904
4764 10 2899 2902 2903 2905
4765 12 2899 2902 2903 2906
4766 12 2902 2903 2906 2907
4767 10 2904 2903 2906 2907
4768 10 2905 2903 2906 2907
4769 10 2903 2906 2907 2908
4770 10 2903 2906 2907 2909
4771 12 2903 2906 2907 2910
4772 12 2906 2907 2910 2911
4773 10 2908 2907 2910 2911
4774 10 2909 2907 2910 2911
4775 10 2907 2910 2911 2912
4776 10 2907 2910 2911 2913
4777 12 2907 2910 2911 2914
4778 12 2910 2911 2914 2915
4779 10 2912 2911 2914 2915
4780 10 2913 2911 2914 2915
4781 10 2911 2914 2915 2916
4782 10 2911 2914 2915 2917
4783 12 2911 2914 2915 2918
4784 13 2914 2915 2918 296
4785 14 2916 2915 2918 296
4786 14 2917 2915 2918 296
4787 20 2708 291 2919 2899
4788 20 2834 291 2919 2899
4789 15 2940 291 2919 2899
4790 16 291 2919 2899 2900
4791 16 291 2919 2899 2901
4792 17 291 2919 2899 2902
4793 19 2915 2918 296 2351
4794 19 2915 2918 296 2981
4795 18 2915 2918 296 3150
4796 10 2921 2920 2923 2924
4797 10 2922 2920 2923 2924
4798 11 2940 2920 2923 2924
4799 10 2920 2923 2924 2925
4800 10 2920 2923 2924 2926
4801 12 2920 2923 2924 2927
4802 12 2923 2924 2927 2928
4803 10 2925 2924 2927 2928
4804 10 2926 2924 2927 2928
4805 10 2924 2927 2928 2929
4806 10 2924 2927 2928 2930
4807 12 2924 2927 2928 2931
4808 12 2927 2928 2931 2932
4809 10 2929 2928 2931 2932
4810 10 2930 2928 2931 2932
4811 10 2928 2931 2932 2933
4812 10 2928 2931 2932 2934
4813 12 2928 2931 2932 2935
4814 12 2931 2932 2935 2936
4815 10 2933 2932 2935 2936
4816 10 2934 2932 2935 2936
4817 10 2932 2935 2936 2937
4818 10 2932 2935 2936 2938
4819 12 2932 2935 2936 2939
4820 13 2935 2936 2939 471
4821 14 2937 2936 2939 471
4822 14 2938 2936 2939 471
4823 20 2708 291 2940 2920
4824 20 2834 291 2940 2920
4825 15 2919 291 2940 2920
4826 16 291 2940 2920 2921
4827 16 291 2940 2920 2922
4828 17 291 2940 2920 2923
4829 18 2936 2939 471 3821
4830 18 2936 2939 471 3842
4831 10 2942 2941 2944 2945
4832 10 2943 2941 2944 2945
4833 11 2961 2941 2944 2945
4834 10 2941 2944 2945 2946
4835 10 2941 2944 2945 2947
4836 12 2941 2944 2945 2948
4837 12 2944 2945 2948 2949
4838 10 2946 2945 2948 2949
4839 10 2947 2945 2948 2949
4840 10 2945 2948 2949 2950
4841 10 2945 2948 2949 2951
4842 12 2945 2948 2949 2952
4843 12 2948 2949 2952 2953
4844 10 2950 2949 2952 2953
4845 10 2951 2949 2952 2953
4846 10 2949 2952 2953 2954
4847 10 2949 2952 2953 2955
4848 12 2949 2952 2953 2956
4849 12 2952 2953 2956 2957
4850 10 2954 2953 2956 2957
4851 10 2955 2953 2956 2957
4852 10 2953 2956 2957 2958
4853 10 2953 2956 2957 2959
4854 12 2953 2956 2957 2960
4855 13 2956 2957 2960 472
4856 14 2958 2957 2960 472
4857 14 2959 2957 2960 472
4858 20 2792 292 2961 2941
4859 15 2982 292 2961 2941
4860 16 292 2961 2941 2942
4861 16 292 2961 2941 2943
4862 17 292 2961 2941 2944
4863 18 2957 2960 472 3863
4864 18 2957 2960 472 3884
4865 18 2957 2960 472 3905
4866 10 2963 2962 2965 2966
4867 10 2964 2962 2965 2966
4868 11 2982 2962 2965 2966
4869 10 2962 2965 2966 2967
4870 10 2962 2965 2966 2968
4871 12 2962 2965 2966 2969
4872 12 2965 2966 2969 2970
4873 10 2967 2966 2969 2970
4874 10 2968 2966 2969 2970
4875 10 2966 2969 2970 2971
4876 10 2966 2969 2970 2972
4877 12 2966 2969 2970 2973
4878 12 2969 2970 2973 2974
4879 10 2971 2970 2973 2974
4880 10 2972 2970 2973 2974
4881 10 2970 2973 2974 2975
4882 10 2970 2973 2974 2976
4883 12 2970 2973 2974 2977
4884 12 2973 2974 2977 2978
4885 10 2975 2974 2977 2978
4886 10 2976 2974 2977 2978
4887 10 2974 2977 2978 2979
4888 10 2974 2977 2978 2980
4889 12 2974 2977 2978 2981
4890 13 2977 2978 2981 296
4891 14 2979 2978 2981 296
4892 14 2980 2978 2981 296
4893 20 2792 292 2982 2962
4894 15 2961 292 2982 2962
4895 16 292 2982 2962 2963
4896 16 292 2982 2962 2964
4897 17 292 2982 2962 2965
4898 19 2978 2981 296 2351
4899 19 2978 2981 296 2918
4900 18 2978 2981 296 3150
4901 10 2984 2983 2986 2987
4902 10 2985 2983 2986 2987
4903 11 3003 2983 2986 2987
4904 10 2983 2986 2987 2988
4905 10 2983 2986 2987 2989
4906 12 2983 2986 2987 2990
4907 12 2986 2987 2990 2991
4908 10 2988 2987 2990 2991
4909 10 2989 2987 2990 2991
4910 10 2987 2990 2991 2992
4911 10 2987 2990 2991 2993
4912 12 2987 2990 2991 2994
4913 12 2990 2991 2994 2995
4914 10 2992 2991 2994 2995
4915 10 2993 2991 2994 2995
4916 10 2991 2994 2995 2996
4917 10 2991 2994 2995 2997
4918 12 2991 2994 2995 2998
4919 12 2994 2995 2998 2999
4920 10 2996 2995 2998 2999
4921 10 2997 2995 2998 2999
4922 10 2995 2998 2999 3000
4923 10 2995 2998 2999 3001
4924 12 2995 2998 2999 3002
4925 13 2998 2999 3002 297
4926 14 3000 2999 3002 297
4927 14 3001 2999 3002 297
4928 20 2204 293 3003 2983
4929 20 2855 293 3003 2983
4930 15 3024 293 3003 2983
4931 16 293 3003 2983 2984
4932 16 293 3003 2983 2985
4933 17 293 3003 2983 2986
4934 18 2999 3002 297 3171
4935 18 2999 3002 297 3192
4936 10 3005 3004 3007 3008
4937 10 3006 3004 3007 3008
4938 11 3024 3004 3007 3008
4939 10 3004 3007 3008 3009
4940 10 3004 3007 3008 3010
4941 12 3004 3007 3008 3011
4942 12 3007 3008 3011 3012
4943 10 3009 3008 3011 3012
4944 10 3010 3008 3011 3012
4945 10 3008 3011 3012 3013
4946 10 3008 3011 3012 3014
4947 12 3008 3011 3012 3015
4948 12 3011 3012 3015 3016
4949 10 3013 3012 3015 3016
4950 10 3014 3012 3015 3016
4951 10 3012 3015 3016 3017
4952 10 3012 3015 3016 3018
4953 12 3012 3015 3016 3019
4954 12 3015 3016 3019 3020
4955 10 3017 3016 3019 3020
4956 10 3018 3016 3019 3020
4957 10 3016 3019 3020 3021
4958 10 3016 3019 3020 3022
4959 12 3016 3019 3020 3023
4960 13 3019 3020 3023 473
4961 14 3021 3020 3023 473
4962 14 3022 3020 3023 473
4963 20 2204 293 3024 3004
4964 20 2855 293 3024 3004
4965 15 3003 293 3024 3004
4966 16 293 3024 3004 3005
4967 16 293 3024 3004 3006
4968 17 293 3024 3004 3007
4969 18 3020 3023 473 3926
4970 18 3020 3023 473 3947
4971 10 3026 3025 3028 3029
4972 10 3027 3025 3028 3029
4973 11 3045 3025 3028 3029
4974 10 3025 3028 3029 3030
4975 10 3025 3028 3029 3031
4976 12 3025 3028 3029 3032
4977 12 3028 3029 3032 3033
4978 10 3030 3029 3032 3033
4979 10 3031 3029 3032 3033
4980 10 3029 3032 3033 3034
4981 10 3029 3032 3033 3035
4982 12 3029 3032 3033 3036
4983 12 3032 3033 3036 3037
4984 10 3034 3033 3036 3037
4985 10 3035 3033 3036 3037
4986 10 3033 3036 3037 3038
4987 10 3033 3036 3037 3039
4988 12 3033 3036 3037 3040
4989 12 3036 3037 3040 3041
4990 10 3038 3037 3040 3041
4991 10 3039 3037 3040 3041
4992 10 3037 3040 3041 3042
4993 10 3037 3040 3041 3043
4994 12 3037 3040 3041 3044
4995 13 3040 3041 3044 295
4996 14 3042 3041 3044 295
4997 14 3043 3041 3044 295
4998 20 2246 294 3045 3025
4999 15 3066 294 3045 3025
5000 15 3087 294 3045 3025
5001 16 294 3045 3025 3026
5002 16 294 3045 3025 3027
5003 17 294 3045 3025 3028
5004 19 3041 3044 295 2309
5005 18 3041 3044 295 3108
5006 18 3041 3044 295 3129
5007 10 3047 3046 3049 3050
5008 10 3048 3046 3049 3050
5009 11 3066 3046 3049 3050
5010 10 3046 3049 3050 3051
5011 10 3046 3049 3050 3052
5012 12 3046 3049 3050 3053
5013 12 3049 3050 3053 3054
5014 10 3051 3050 3053 3054
5015 10 3052 3050 3053 3054
5016 10 3050 3053 3054 3055
5017 10 3050 3053 3054 3056
5018 12 3050 3053 3054 3057
5019 12 3053 3054 3057 3058
5020 10 3055 3054 3057 3058
5021 10 3056 3054 3057 3058
5022 10 3054 3057 3058 3059
5023 10 3054 3057 3058 3060
5024 12 3054 3057 3058 3061
5025 12 3057 3058 3061 3062
5026 10 3059 3058 3061 3062
5027 10 3060 3058 3061 3062
5028 10 3058 3061 3062 3063
5029 10 3058 3061 3062 3064
5030 12 3058 3061 3062 3065
5031 13 3061 3062 3065 298
5032 14 3063 3062 3065 298
5033 14 3064 3062 3065 298
5034 20 2246 294 3066 3046
5035 15 3045 294 3066 3046
5036 15 3087 294 3066 3046
5037 16 294 3066 3046 3047
5038 16 294 3066 3046 3048
5039 17 294 3066 3046 3049
5040 19 3062 3065 298 2435
5041 18 3062 3065 298 3213
5042 18 3062 3065 298 3234
5043 10 3068 3067 3070 3071
5044 10 3069 3067 3070 3071
5045 11 3087 3067 3070 3071
5046 10 3067 3070 3071 3072
5047 10 3067 3070 3071 3073
5048 12 3067 3070 3071 3074
5049 12 3070 3071 3074 3075
5050 10 3072 3071 3074 3075
5051 10 3073 3071 3074 3075
5052 10 3071 3074 3075 3076
5053 10 3071 3074 3075 3077
5054 12 3071 3074 3075 3078
5055 12 3074 3075 3078 3079
5056 10 3076 3075 3078 3079
5057 10 3077 3075 3078 3079
5058 10 3075 3078 3079 3080
5059 10 3075 3078 3079 3081
5060 12 3075 3078 3079 3082
5061 12 3078 3079 3082 3083
5062 10 3080 3079 3082 3083
5063 10 3081 3079 3082 3083
5064 10 3079 3082 3083 3084
5065 10 3079 3082 3083 3085
5066 12 3079 3082 3083 3086
5067 13 3082 3083 3086 474
5068 14 3084 3083 3086 474
5069 14 3085 3083 3086 474
5070 20 2246 294 3087 3067
5071 15 3045 294 3087 3067
5072 15 3066 294 3087 3067
5073 16 294 3087 3067 3068
5074 16 294 3087 3067 3069
5075 17 294 3087 3067 3070
5076 19 3083 3086 474 3757
5077 19 3083 3086 474 3925
5078 18 3083 3086 474 3968
5079 10 3089 3088 3091 3092
5080 10 3090 3088 3091 3092
5081 11 3108 3088 3091 3092
5082 10 3088 3091 3092 3093
5083 10 3088 3091 3092 3094
5084 12 3088 3091 3092 3095
5085 12 3091 3092 3095 3096
5086 10 3093 3092 3095 3096
5087 10 3094 3092 3095 3096
5088 10 3092 3095 3096 3097
5089 10 3092 3095 3096 3098
5090 12 3092 3095 3096 3099
5091 12 3095 3096 3099 3100
5092 10 3097 3096 3099 3100
5093 10 3098 3096 3099 3100
5094 10 3096 3099 3100 3101
5095 10 3096 3099 3100 3102
5096 12 3096 3099 3100 3103
5097 12 3099 3100 3103 3104
5098 10 3101 3100 3103 3104
5099 10 3102 3100 3103 3104
5100 10 3100 3103 3104 3105
5101 10 3100 3103 3104 3106
5102 12 3100 3103 3104 3107
5103 13 3103 3104 3107 299
5104 14 3105 3104 3107 299
5105 14 3106 3104 3107 299
5106 20 2309 295 3108 3088
5107 20 3044 295 3108 3088
5108 15 3129 295 3108 3088
5109 16 295 3108 3088 3089
5110 16 295 3108 3088 3090
5111 17 295 3108 3088 3091
5112 19 3104 3107 299 3212
5113 18 3104 3107 299 3255
5114 18 3104 3107 299 3276
5115 10 3110 3109 3112 3113
5116 10 3111 3109 3112 3113
5117 11 3129 3109 3112 3113
5118 10 3109 3112 3113 3114
5119 10 3109 3112 3113 3115
5120 12 3109 3112 3113 3116
5121 12 3112 3113 3116 3117
5122 10 3114 3113 3116 3117
5123 10 3115 3113 3116 3117
5124 10 3113 3116 3117 3118
5125 10 3113 3116 3117 3119
5126 12 3113 3116 3117 3120
5127 12 3116 3117 3120 3121
5128 10 3118 3117 3120 3121
5129 10 3119 3117 3120 3121
5130 10 3117 3120 3121 3122
5131 10 3117 3120 3121 3123
5132 12 3117 3120 3121 3124
5133 12 3120 3121 3124 3125
5134 10 3122 3121 3124 3125
5135 10 3123 3121 3124 3125
5136 10 3121 3124 3125 3126
5137 10 3121 3124 3125 3127
5138 12 3121 3124 3125 3128
5139 13 3124 3125 3128 475
5140 14 3126 3125 3128 475
5141 14 3127 3125 3128 475
5142 20 2309 295 3129 3109
5143 20 3044 295 3129 3109
5144 15 3108 295 3129 3109
5145 16 295 3129 3109 3110
5146 16 295 3129 3109 3111
5147 17 295 3129 3109 3112
5148 19 3125 3128 475 3799
5149 18 3125 3128 475 3989
5150 18 3125 3128 475 4010
5151 10 3131 3130 3133 3134
5152 10 3132 3130 3133 3134
5153 11 3150 3130 3133 3134
5154 10 3130 3133 3134 3135
5155 10 3130 3133 3134 3136
5156 12 3130 3133 3134 3137
5157 12 3133 3134 3137 3138
5158 10 3135 3134 3137 3138
5159 10 3136 3134 3137 3138
5160 10 3134 3137 3138 3139
5161 10 3134 3137 3138 3140
5162 12 3134 3137 3138 3141
5163 12 3137 3138 3141 3142
5164 10 3139 3138 3141 3142
5165 10 3140 3138 3141 3142
5166 10 3138 3141 3142 3143
5167 10 3138 3141 3142 3144
5168 12 3138 3141 3142 3145
5169 12 3141 3142 3145 3146
5170 10 3143 3142 3145 3146
5171 10 3144 3142 3145 3146
5172 10 3142 3145 3146 3147
5173 10 3142 3145 3146 3148
5174 12 3142 3145 3146 3149
5175 13 3145 3146 3149 300
5176 14 3147 3146 3149 300
5177 14 3148 3146 3149 300
5178 20 2351 296 3150 3130
5179 20 2918 296 3150 3130
5180 20 2981 296 3150 3130
5181 16 296 3150 3130 3131
5182 16 296 3150 3130 3132
5183 17 296 3150 3130 3133
5184 19 3146 3149 300 3254
5185 18 3146 3149 300 3297
5186 10 3152 3151 3154 3155
5187 10 3153 3151 3154 3155
5188 11 3171 3151 3154 3155
5189 10 3151 3154 3155 3156
5190 10 3151 3154 3155 3157
5191 12 3151 3154 3155 3158
5192 12 3154 3155 3158 3159
5193 10 3156 3155 3158 3159
5194 10 3157 3155 3158 3159
5195 10 3155 3158 3159 3160
5196 10 3155 3158 3159 3161
5197 12 3155 3158 3159 3162
5198 12 3158 3159 3162 3163
5199 10 3160 3159 3162 3163
5200 10 3161 3159 3162 3163
5201 10 3159 3162 3163 3164
5202 10 3159 3162 3163 3165
5203 12 3159 3162 3163 3166
5204 12 3162 3163 3166 3167
5205 10 3164 3163 3166 3167
5206 10 3165 3163 3166 3167
5207 10 3163 3166 3167 3168
5208 10 3163 3166 3167 3169
5209 12 3163 3166 3167 3170
5210 13 3166 3167 3170 302
5211 14 3168 3167 3170 302
5212 14 3169 3167 3170 302
5213 20 3002 297 3171 3151
5214 15 3192 297 3171 3151
5215 16 297 3171 3151 3152
5216 16 297 3171 3151 3153
5217 17 297 3171 3151 3154
5218 19 3167 3170 302 2519
5219 19 3167 3170 302 3317
5220 18 3167 3170 302 3360
5221 10 3173 3172 3175 3176
5222 10 3174 3172 3175 3176
5223 11 3192 3172 3175 3176
5224 10 3172 3175 3176 3177
5225 10 3172 3175 3176 3178
5226 12 3172 3175 3176 3179
5227 12 3175 3176 3179 3180
5228 10 3177 3176 3179 3180
5229 10 3178 3176 3179 3180
5230 10 3176 3179 3180 3181
5231 10 3176 3179 3180 3182
5232 12 3176 3179 3180 3183
5233 12 3179 3180 3183 3184
5234 10 3181 3180 3183 3184
5235 10 3182 3180 3183 3184
5236 10 3180 3183 3184 3185
5237 10 3180 3183 3184 3186
5238 12 3180 3183 3184 3187
5239 12 3183 3184 3187 3188
5240 10 3185 3184 3187 3188
5241 10 3186 3184 3187 3188
5242 10 3184 3187 3188 3189
5243 10 3184 3187 3188 3190
5244 12 3184 3187 3188 3191
5245 13 3187 3188 3191 478
5246 14 3189 3188 3191 478
5247 14 3190 3188 3191 478
5248 20 3002 297 3192 3172
5249 15 3171 297 3192 3172
5250 16 297 3192 3172 3173
5251 16 297 3192 3172 3174
5252 17 297 3192 3172 3175
5253 19 3188 3191 478 4051
5254 18 3188 3191 478 4094
5255 18 3188 3191 478 4115
5256 10 3194 3193 3196 3197
5257 10 3195 3193 3196 3197
5258 11 3213 3193 3196 3197
5259 10 3193 3196 3197 3198
5260 10 3193 3196 3197 3199
5261 12 3193 3196 3197 3200
5262 12 3196 3197 3200 3201
5263 10 3198 3197 3200 3201
5264 10 3199 3197 3200 3201
5265 10 3197 3200 3201 3202
5266 10 3197 3200 3201 3203
5267 12 3197 3200 3201 3204
5268 12 3200 3201 3204 3205
5269 10 3202 3201 3204 3205
5270 10 3203 3201 3204 3205
5271 10 3201 3204 3205 3206
5272 10 3201 3204 3205 3207
5273 12 3201 3204 3205 3208
5274 12 3204 3205 3208 3209
5275 10 3206 3205 3208 3209
5276 10 3207 3205 3208 3209
5277 10 3205 3208 3209 3210
5278 10 3205 3208 3209 3211
5279 12 3205 3208 3209 3212
5280 13 3208 3209 3212 299
5281 14 3210 3209 3212 299
5282 14 3211 3209 3212 299
5283 20 2435 298 3213 3193
5284 20 3065 298 3213 3193
5285 15 3234 298 3213 3193
5286 16 298 3213 3193 3194
5287 16 298 3213 3193 3195
5288 17 298 3213 3193 3196
5289 19 3209 3212 299 3107
5290 18 3209 3212 299 3255
5291 18 3209 3212 299 3276
5292 10 3215 3214 3217 3218
5293 10 3216 3214 3217 3218
5294 11 3234 3214 3217 3218
5295 10 3214 3217 3218 3219
5296 10 3214 3217 3218 3220
5297 12 3214 3217 3218 3221
5298 12 3217 3218 3221 3222
5299 10 3219 3218 3221 3222
5300 10 3220 3218 3221 3222
5301 10 3218 3221 3222 3223
5302 10 3218 3221 3222 3224
5303 12 3218 3221 3222 3225
5304 12 3221 3222 3225 3226
5305 10 3223 3222 3225 3226
5306 10 3224 3222 3225 3226
5307 10 3222 3225 3226 3227
5308 10 3222 3225 3226 3228
5309 12 3222 3225 3226 3229
5310 12 3225 3226 3229 3230
5311 10 3227 3226 3229 3230
5312 10 3228 3226 3229 3230
5313 10 3226 3229 3230 3231
5314 10 3226 3229 3230 3232
5315 12 3226 3229 3230 3233
5316 13 3229 3230 3233 479
5317 14 3231 3230 3233 479
5318 14 3232 3230 3233 479
5319 20 2435 298 3234 3214
5320 20 3065 298 3234 3214
5321 15 3213 298 3234 3214
5322 16 298 3234 3214 3215
5323 16 298 3234 3214 3216
5324 17 298 3234 3214 3217
5325 19 3230 3233 479 3967
5326 18 3230 3233 479 4136
5327 10 3236 3235 3238 3239
5328 10 3237 3235 3238 3239
5329 11 3255 3235 3238 3239
5330 10 3235 3238 3239 3240
5331 10 3235 3238 3239 3241
5332 12 3235 3238 3239 3242
5333 12 3238 3239 3242 3243
5334 10 3240 3239 3242 3243
5335 10 3241 3239 3242 3243
5336 10 3239 3242 3243 3244
5337 10 3239 3242 3243 3245
5338 12 3239 3242 3243 3246
5339 12 3242 3243 3246 3247
5340 10 3244 3243 3246 3247
5341 10 3245 3243 3246 3247
5342 10 3243 3246 3247 3248
5343 10 3243 3246 3247 3249
5344 12 3243 3246 3247 3250
5345 12 3246 3247 3250 3251
5346 10 3248 3247 3250 3251
5347 10 3249 3247 3250 3251
5348 10 3247 3250 3251 3252
5349 10 3247 3250 3251 3253
5350 12 3247 3250 3251 3254
5351 13 3250 3251 3254 300
5352 14 3252 3251 3254 300
5353 14 3253 3251 3254 300
5354 20 3107 299 3255 3235
5355 20 3212 299 3255 3235
5356 15 3276 299 3255 3235
5357 16 299 3255 3235 3236
5358 16 299 3255 3235 3237
5359 17 299 3255 3235 3238
5360 19 3251 3254 300 3149
5361 18 3251 3254 300 3297
5362 10 3257 3256 3259 3260
5363 10 3258 3256 3259 3260
5364 11 3276 3256 3259 3260
5365 10 3256 3259 3260 3261
5366 10 3256 3259 3260 3262
5367 12 3256 3259 3260 3263
5368 12 3259 3260 3263 3264
5369 10 3261 3260 3263 3264
5370 10 3262 3260 3263 3264
5371 10 3260 3263 3264 3265
5372 10 3260 3263 3264 3266
5373 12 3260 3263 3264 3267
5374 12 3263 3264 3267 3268
5375 10 3265 3264 3267 3268
5376 10 3266 3264 3267 3268
5377 10 3264 3267 3268 3269
5378 10 3264 3267 3268 3270
5379 12 3264 3267 3268 3271
5380 12 3267 3268 3271 3272
5381 10 3269 3268 3271 3272
5382 10 3270 3268 3271 3272
5383 10 3268 3271 3272 3273
5384 10 3268 3271 3272 3274
5385 12 3268 3271 3272 3275
5386 13 3271 3272 3275 382
5387 14 3273 3272 3275 382
5388 14 3274 3272 3275 382
5389 20 3107 299 3276 3256
5390 20 3212 299 3276 3256
5391 15 3255 299 3276 3256
5392 16 299 3276 3256 3257
5393 16 299 3276 3256 3258
5394 17 299 3276 3256 3259
5395 19 3272 3275 382 2687
5396 18 3272 3275 382 3381
5397 18 3272 3275 382 3402
5398 10 3278 3277 3280 3281
5399 10 3279 3277 3280 3281
5400 11 3297 3277 3280 3281
5401 10 3277 3280 3281 3282
5402 10 3277 3280 3281 3283
5403 12 3277 3280 3281 3284
5404 12 3280 3281 3284 3285
5405 10 3282 3281 3284 3285
5406 10 3283 3281 3284 3285
5407 10 3281 3284 3285 3286
5408 10 3281 3284 3285 3287
5409 12 3281 3284 3285 3288
5410 12 3284 3285 3288 3289
5411 10 3286 3285 3288 3289
5412 10 3287 3285 3288 3289
5413 10 3285 3288 3289 3290
5414 10 3285 3288 3289 3291
5415 12 3285 3288 3289 3292
5416 12 3288 3289 3292 3293
5417 10 3290 3289 3292 3293
5418 10 3291 3289 3292 3293
5419 10 3289 3292 3293 3294
5420 10 3289 3292 3293 3295
5421 12 3289 3292 3293 3296
5422 13 3292 3293 3296 481
5423 14 3294 3293 3296 481
5424 14 3295 3293 3296 481
5425 20 3149 300 3297 3277
5426 20 3254 300 3297 3277
5427 16 300 3297 3277 3278
5428 16 300 3297 3277 3279
5429 17 300 3297 3277 3280
5430 19 3293 3296 481 4072
5431 19 3293 3296 481 4156
5432 18 3293 3296 481 4220
5433 10 3299 3298 3301 3302
5434 10 3300 3298 3301 3302
5435 11 3318 3298 3301 3302
5436 10 3298 3301 3302 3303
5437 10 3298 3301 3302 3304
5438 12 3298 3301 3302 3305
5439 12 3301 3302 3305 3306
5440 10 3303 3302 3305 3306
5441 10 3304 3302 3305 3306
5442 10 3302 3305 3306 3307
5443 10 3302 3305 3306 3308
5444 12 3302 3305 3306 3309
5445 12 3305 3306 3309 3310
5446 10 3307 3306 3309 3310
5447 10 3308 3306 3309 3310
5448 10 3306 3309 3310 3311
5449 10 3306 3309 3310 3312
5450 12 3306 3309 3310 3313
5451 12 3309 3310 3313 3314
5452 10 3311 3310 3313 3314
5453 10 3312 3310 3313 3314
5454 10 3310 3313 3314 3315
5455 10 3310 3313 3314 3316
5456 12 3310 3313 3314 3317
5457 13 3313 3314 3317 302
5458 14 3315 3314 3317 302
5459 14 3316 3314 3317 302
5460 20 2498 301 3318 3298
5461 15 3339 301 3318 3298
5462 16 301 3318 3298 3299
5463 16 301 3318 3298 3300
5464 17 301 3318 3298 3301
5465 19 3314 3317 302 2519
5466 19 3314 3317 302 3170
5467 18 3314 3317 302 3360
5468 10 3320 3319 3322 3323
5469 10 3321 3319 3322 3323
5470 11 3339 3319 3322 3323
5471 10 3319 3322 3323 3324
5472 10 3319 3322 3323 3325
5473 12 3319 3322 3323 3326
5474 12 3322 3323 3326 3327
5475 10 3324 3323 3326 3327
5476 10 3325 3323 3326 3327
5477 10 3323 3326 3327 3328
5478 10 3323 3326 3327 3329
5479 12 3323 3326 3327 3330
5480 12 3326 3327 3330 3331
5481 10 3328 3327 3330 3331
5482 10 3329 3327 3330 3331
5483 10 3327 3330 3331 3332
5484 10 3327 3330 3331 3333
5485 12 3327 3330 3331 3334
5486 12 3330 3331 3334 3335
5487 10 3332 3331 3334 3335
5488 10 3333 3331 3334 3335
5489 10 3331 3334 3335 3336
5490 10 3331 3334 3335 3337
5491 12 3331 3334 3335 3338
5492 13 3334 3335 3338 482
5493 14 3336 3335 3338 482
5494 14 3337 3335 3338 482
5495 20 2498 301 3339 3319
5496 15 3318 301 3339 3319
5497 16 301 3339 3319 3320
5498 16 301 3339 3319 3321
5499 17 301 3339 3319 3322
5500 18 3335 3338 482 4241
5501 18 3335 3338 482 4262
5502 18 3335 3338 482 4283
5503 10 3341 3340 3343 3344
5504 10 3342 3340 3343 3344
5505 11 3360 3340 3343 3344
5506 10 3340 3343 3344 3345
5507 10 3340 3343 3344 3346
5508 12 3340 3343 3344 3347
5509 12 3343 3344 3347 3348
5510 10 3345 3344 3347 3348
5511 10 3346 3344 3347 3348
5512 10 3344 3347 3348 3349
5513 10 3344 3347 3348 3350
5514 12 3344 3347 3348 3351
5515 12 3347 3348 3351 3352
5516 10 3349 3348 3351 3352
5517 10 3350 3348 3351 3352
5518 10 3348 3351 3352 3353
5519 10 3348 3351 3352 3354
5520 12 3348 3351 3352 3355
5521 12 3351 3352 3355 3356
5522 10 3353 3352 3355 3356
5523 10 3354 3352 3355 3356
5524 10 3352 3355 3356 3357
5525 10 3352 3355 3356 3358
5526 12 3352 3355 3356 3359
5527 23 3355 3356 3359 325
5528 24 3357 3356 3359 325
5529 24 3358 3356 3359 325
5530 20 2519 302 3360 3340
5531 20 3170 302 3360 3340
5532 20 3317 302 3360 3340
5533 16 302 3360 3340 3341
5534 16 302 3360 3340 3342
5535 17 302 3360 3340 3343
5536 25 3356 3359 325 324
5537 10 3362 3361 3364 3365
5538 10 3363 3361 3364 3365
5539 11 3381 3361 3364 3365
5540 10 3361 3364 3365 3366
5541 10 3361 3364 3365 3367
5542 12 3361 3364 3365 3368
5543 12 3364 3365 3368 3369
5544 10 3366 3365 3368 3369
5545 10 3367 3365 3368 3369
5546 10 3365 3368 3369 3370
5547 10 3365 3368 3369 3371
5548 12 3365 3368 3369 3372
5549 12 3368 3369 3372 3373
5550 10 3370 3369 3372 3373
5551 10 3371 3369 3372 3373
5552 10 3369 3372 3373 3374
5553 10 3369 3372 3373 3375
5554 12 3369 3372 3373 3376
5555 12 3372 3373 3376 3377
5556 10 3374 3373 3376 3377
5557 10 3375 3373 3376 3377
5558 10 3373 3376 3377 3378
5559 10 3373 3376 3377 3379
5560 12 3373 3376 3377 3380
5561 13 3376 3377 3380 383
5562 14 3378 3377 3380 383
5563 14 3379 3377 3380 383
5564 20 2687 382 3381 3361
5565 20 3275 382 3381 3361
5566 15 3402 382 3381 3361
5567 16 382 3381 3361 3362
5568 16 382 3381 3361 3363
5569 17 382 3381 3361 3364
5570 19 3377 3380 383 2561
5571 19 3377 3380 383 2750
5572 18 3377 3380 383 3423
5573 10 3383 3382 3385 3386
5574 10 3384 3382 3385 3386
5575 11 3402 3382 3385 3386
5576 10 3382 3385 3386 3387
5577 10 3382 3385 3386 3388
5578 12 3382 3385 3386 3389
5579 12 3385 3386 3389 3390
5580 10 3387 3386 3389 3390
5581 10 3388 3386 3389 3390
5582 10 3386 3389 3390 3391
5583 10 3386 3389 3390 3392
5584 12 3386 3389 3390 3393
5585 12 3389 3390 3393 3394
5586 10 3391 3390 3393 3394
5587 10 3392 3390 3393 3394
5588 10 3390 3393 3394 3395
5589 10 3390 3393 3394 3396
5590 12 3390 3393 3394 3397
5591 12 3393 3394 3397 3398
5592 10 3395 3394 3397 3398
5593 10 3396 3394 3397 3398
5594 10 3394 3397 3398 3399
5595 10 3394 3397 3398 3400
5596 12 3394 3397 3398 3401
5597 13 3397 3398 3401 485
5598 14 3399 3398 3401 485
5599 14 3400 3398 3401 485
5600 20 2687 382 3402 3382
5601 20 3275 382 3402 3382
5602 15 3381 382 3402 3382
5603 16 382 3402 3382 3383
5604 16 382 3402 3382 3384
5605 17 382 3402 3382 3385
5606 19 3398 3401 485 4177
5607 19 3398 3401 485 4324
5608 18 3398 3401 485 4367
5609 10 3404 3403 3406 3407
5610 10 3405 3403 3406 3407
5611 11 3423 3403 3406 3407
5612 10 3403 3406 3407 3408
5613 10 3403 3406 3407 3409
5614 12 3403 3406 3407 3410
5615 12 3406 3407 3410 3411
5616 10 3408 3407 3410 3411
5617 10 3409 3407 3410 3411
5618 10 3407 3410 3411 3412
5619 10 3407 3410 3411 3413
5620 12 3407 3410 3411 3414
5621 12 3410 3411 3414 3415
5622 10 3412 3411 3414 3415
5623 10 3413 3411 3414 3415
5624 10 3411 3414 3415 3416
5625 10 3411 3414 3415 3417
5626 12 3411 3414 3415 3418
5627 12 3414 3415 3418 3419
5628 10 3416 3415 3418 3419
5629 10 3417 3415 3418 3419
5630 10 3415 3418 3419 3420
5631 10 3415 3418 3419 3421
5632 12 3415 3418 3419 3422
5633 13 3418 3419 3422 486
5634 14 3420 3419 3422 486
5635 14 3421 3419 3422 486
5636 20 2561 383 3423 3403
5637 20 2750 383 3423 3403
5638 20 3380 383 3423 3403
5639 16 383 3423 3403 3404
5640 16 383 3423 3403 3405
5641 17 383 3423 3403 3406
5642 19 3419 3422 486 3631
5643 19 3419 3422 486 4282
5644 10 3425 3424 3427 3428
5645 10 3426 3424 3427 3428
5646 10 406 3424 3427 3428
5647 10 3424 3427 3428 3429
5648 10 3424 3427 3428 3430
5649 12 3424 3427 3428 3431
5650 12 3427 3428 3431 3432
5651 10 3429 3428 3431 3432
5652 10 3430 3428 3431 3432
5653 10 3428 3431 3432 3433
5654 10 3428 3431 3432 3434
5655 12 3428 3431 3432 3435
5656 12 3431 3432 3435 3436
5657 10 3433 3432 3435 3436
5658 10 3434 3432 3435 3436
5659 10 3432 3435 3436 3437
5660 10 3432 3435 3436 3438
5661 12 3432 3435 3436 3439
5662 12 3435 3436 3439 3440
5663 10 3437 3436 3439 3440
5664 10 3438 3436 3439 3440
5665 10 3436 3439 3440 3441
5666 10 3436 3439 3440 3442
5667 12 3436 3439 3440 3443
5668 13 3439 3440 3443 463
5669 14 3441 3440 3443 463
5670 14 3442 3440 3443 463
5671 21 405 406 3424 3425
5672 21 405 406 3424 3426
5673 22 405 406 3424 3427
5674 18 3440 3443 463 3464
5675 18 3440 3443 463 3485
5676 10 3445 3444 3447 3448
5677 10 3446 3444 3447 3448
5678 11 3464 3444 3447 3448
5679 10 3444 3447 3448 3449
5680 10 3444 3447 3448 3450
5681 12 3444 3447 3448 3451
5682 12 3447 3448 3451 3452
5683 10 3449 3448 3451 3452
5684 10 3450 3448 3451 3452
5685 10 3448 3451 3452 3453
5686 10 3448 3451 3452 3454
5687 12 3448 3451 3452 3455
5688 12 3451 3452 3455 3456
5689 10 3453 3452 3455 3456
5690 10 3454 3452 3455 3456
5691 10 3452 3455 3456 3457
5692 10 3452 3455 3456 3458
5693 12 3452 3455 3456 3459
5694 12 3455 3456 3459 3460
5695 10 3457 3456 3459 3460
5696 10 3458 3456 3459 3460
5697 10 3456 3459 3460 3461
5698 10 3456 3459 3460 3462
5699 12 3456 3459 3460 3463
5700 13 3459 3460 3463 488
5701 14 3461 3460 3463 488
5702 14 3462 3460 3463 488
5703 20 3443 463 3464 3444
5704 15 3485 463 3464 3444
5705 16 463 3464 3444 3445
5706 16 463 3464 3444 3446
5707 17 463 3464 3444 3447
5708 19 3460 3463 488 4387
5709 18 3460 3463 488 4451
5710 18 3460 3463 488 4472
5711 10 3466 3465 3468 3469
5712 10 3467 3465 3468 3469
5713 11 3485 3465 3468 3469
5714 10 3465 3468 3469 3470
5715 10 3465 3468 3469 3471
5716 12 3465 3468 3469 3472
5717 12 3468 3469 3472 3473
5718 10 3470 3469 3472 3473
5719 10 3471 3469 3472 3473
5720 10 3469 3472 3473 3474
5721 10 3469 3472 3473 3475
5722 12 3469 3472 3473 3476
5723 12 3472 3473 3476 3477
5724 10 3474 3473 3476 3477
5725 10 3475 3473 3476 3477
5726 10 3473 3476 3477 3478
5727 10 3473 3476 3477 3479
5728 12 3473 3476 3477 3480
5729 12 3476 3477 3480 3481
5730 10 3478 3477 3480 3481
5731 10 3479 3477 3480 3481
5732 10 3477 3480 3481 3482
5733 10 3477 3480 3481 3483
5734 12 3477 3480 3481 3484
5735 13 3480 3481 3484 483
5736 14 3482 3481 3484 483
5737 14 3483 3481 3484 483
5738 20 3443 463 3485 3465
5739 15 3464 463 3485 3465
5740 16 463 3485 3465 3466
5741 16 463 3485 3465 3467
5742 17 463 3485 3465 3468
5743 19 3481 3484 483 4093
5744 19 3481 3484 483 4240
5745 18 3481 3484 483 4304
5746 10 3487 3486 3489 3490
5747 10 3488 3486 3489 3490
5748 11 3506 3486 3489 3490
5749 10 3486 3489 3490 3491
5750 10 3486 3489 3490 3492
5751 12 3486 3489 3490 3493
5752 12 3489 3490 3493 3494
5753 10 3491 3490 3493 3494
5754 10 3492 3490 3493 3494
5755 10 3490 3493 3494 3495
5756 10 3490 3493 3494 3496
5757 12 3490 3493 3494 3497
5758 12 3493 3494 3497 3498
5759 10 3495 3494 3497 3498
5760 10 3496 3494 3497 3498
5761 10 3494 3497 3498 3499
5762 10 3494 3497 3498 3500
5763 12 3494 3497 3498 3501
5764 12 3497 3498 3501 3502
5765 10 3499 3498 3501 3502
5766 10 3500 3498 3501 3502
5767 10 3498 3501 3502 3503
5768 10 3498 3501 3502 3504
5769 12 3498 3501 3502 3505
5770 13 3501 3502 3505 465
5771 14 3503 3502 3505 465
5772 14 3504 3502 3505 465
5773 20 2624 464 3506 3486
5774 15 3527 464 3506 3486
5775 15 3548 464 3506 3486
5776 16 464 3506 3486 3487
5777 16 464 3506 3486 3488
5778 17 464 3506 3486 3489
5779 19 3502 3505 465 2666
5780 18 3502 3505 465 3569
5781 18 3502 3505 465 3590
5782 10 3508 3507 3510 3511
5783 10 3509 3507 3510 3511
5784 11 3527 3507 3510 3511
5785 10 3507 3510 3511 3512
5786 10 3507 3510 3511 3513
5787 12 3507 3510 3511 3514
5788 12 3510 3511 3514 3515
5789 10 3512 3511 3514 3515
5790 10 3513 3511 3514 3515
5791 10 3511 3514 3515 3516
5792 10 3511 3514 3515 3517
5793 12 3511 3514 3515 3518
5794 12 3514 3515 3518 3519
5795 10 3516 3515 3518 3519
5796 10 3517 3515 3518 3519
5797 10 3515 3518 3519 3520
5798 10 3515 3518 3519 3521
5799 12 3515 3518 3519 3522
5800 12 3518 3519 3522 3523
5801 10 3520 3519 3522 3523
5802 10 3521 3519 3522 3523
5803 10 3519 3522 3523 3524
5804 10 3519 3522 3523 3525
5805 12 3519 3522 3523 3526
5806 13 3522 3523 3526 489
5807 14 3524 3523 3526 489
5808 14 3525 3523 3526 489
5809 20 2624 464 3527 3507
5810 15 3506 464 3527 3507
5811 15 3548 464 3527 3507
5812 16 464 3527 3507 3508
5813 16 464 3527 3507 3509
5814 17 464 3527 3507 3510
5815 18 3523 3526 489 4493
5816 18 3523 3526 489 4514
5817 10 3529 3528 3531 3532
5818 10 3530 3528 3531 3532
5819 11 3548 3528 3531 3532
5820 10 3528 3531 3532 3533
5821 10 3528 3531 3532 3534
5822 12 3528 3531 3532 3535
5823 12 3531 3532 3535 3536
5824 10 3533 3532 3535 3536
5825 10 3534 3532 3535 3536
5826 10 3532 3535 3536 3537
5827 10 3532 3535 3536 3538
5828 12 3532 3535 3536 3539
5829 12 3535 3536 3539 3540
5830 10 3537 3536 3539 3540
5831 10 3538 3536 3539 3540
5832 10 3536 3539 3540 3541
5833 10 3536 3539 3540 3542
5834 12 3536 3539 3540 3543
5835 12 3539 3540 3543 3544
5836 10 3541 3540 3543 3544
5837 10 3542 3540 3543 3544
5838 10 3540 3543 3544 3545
5839 10 3540 3543 3544 3546
5840 12 3540 3543 3544 3547
5841 13 3543 3544 3547 484
5842 14 3545 3544 3547 484
5843 14 3546 3544 3547 484
5844 20 2624 464 3548 3528
5845 15 3506 464 3548 3528
5846 15 3527 464 3548 3528
5847 16 464 3548 3528 3529
5848 16 464 3548 3528 3530
5849 17 464 3548 3528 3531
5850 18 3544 3547 484 4325
5851 18 3544 3547 484 4346
5852 10 3550 3549 3552 3553
5853 10 3551 3549 3552 3553
5854 11 3569 3549 3552 3553
5855 10 3549 3552 3553 3554
5856 10 3549 3552 3553 3555
5857 12 3549 3552 3553 3556
5858 12 3552 3553 3556 3557
5859 10 3554 3553 3556 3557
5860 10 3555 3553 3556 3557
5861 10 3553 3556 3557 3558
5862 10 3553 3556 3557 3559
5863 12 3553 3556 3557 3560
5864 12 3556 3557 3560 3561
5865 10 3558 3557 3560 3561
5866 10 3559 3557 3560 3561
5867 10 3557 3560 3561 3562
5868 10 3557 3560 3561 3563
5869 12 3557 3560 3561 3564
5870 12 3560 3561 3564 3565
5871 10 3562 3561 3564 3565
5872 10 3563 3561 3564 3565
5873 10 3561 3564 3565 3566
5874 10 3561 3564 3565 3567
5875 12 3561 3564 3565 3568
5876 13 3564 3565 3568 470
5877 14 3566 3565 3568 470
5878 14 3567 3565 3568 470
5879 20 2666 465 3569 3549
5880 20 3505 465 3569 3549
5881 15 3590 465 3569 3549
5882 16 465 3569 3549 3550
5883 16 465 3569 3549 3551
5884 17 465 3569 3549 3552
5885 19 3565 3568 470 3736
5886 18 3565 3568 470 3800
5887 10 3571 3570 3573 3574
5888 10 3572 3570 3573 3574
5889 11 3590 3570 3573 3574
5890 10 3570 3573 3574 3575
5891 10 3570 3573 3574 3576
5892 12 3570 3573 3574 3577
5893 12 3573 3574 3577 3578
5894 10 3575 3574 3577 3578
5895 10 3576 3574 3577 3578
5896 10 3574 3577 3578 3579
5897 10 3574 3577 3578 3580
5898 12 3574 3577 3578 3581
5899 12 3577 3578 3581 3582
5900 10 3579 3578 3581 3582
5901 10 3580 3578 3581 3582
5902 10 3578 3581 3582 3583
5903 10 3578 3581 3582 3584
5904 12 3578 3581 3582 3585
5905 12 3581 3582 3585 3586
5906 10 3583 3582 3585 3586
5907 10 3584 3582 3585 3586
5908 10 3582 3585 3586 3587
5909 10 3582 3585 3586 3588
5910 12 3582 3585 3586 3589
5911 13 3585 3586 3589 490
5912 14 3587 3586 3589 490
5913 14 3588 3586 3589 490
5914 20 2666 465 3590 3570
5915 20 3505 465 3590 3570
5916 15 3569 465 3590 3570
5917 16 465 3590 3570 3571
5918 16 465 3590 3570 3572
5919 17 465 3590 3570 3573
5920 19 3586 3589 490 4492
5921 18 3586 3589 490 4535
5922 18 3586 3589 490 4556
5923 10 3592 3591 3594 3595
5924 10 3593 3591 3594 3595
5925 11 3611 3591 3594 3595
5926 10 3591 3594 3595 3596
5927 10 3591 3594 3595 3597
5928 12 3591 3594 3595 3598
5929 12 3594 3595 3598 3599
5930 10 3596 3595 3598 3599
5931 10 3597 3595 3598 3599
5932 10 3595 3598 3599 3600
5933 10 3595 3598 3599 3601
5934 12 3595 3598 3599 3602
5935 12 3598 3599 3602 3603
5936 10 3600 3599 3602 3603
5937 10 3601 3599 3602 3603
5938 10 3599 3602 3603 3604
5939 10 3599 3602 3603 3605
5940 12 3599 3602 3603 3606
5941 12 3602 3603 3606 3607
5942 10 3604 3603 3606 3607
5943 10 3605 3603 3606 3607
5944 10 3603 3606 3607 3608
5945 10 3603 3606 3607 3609
5946 12 3603 3606 3607 3610
5947 13 3606 3607 3610 491
5948 14 3608 3607 3610 491
5949 14 3609 3607 3610 491
5950 20 2729 466 3611 3591
5951 15 3632 466 3611 3591
5952 16 466 3611 3591 3592
5953 16 466 3611 3591 3593
5954 17 466 3611 3591 3594
5955 19 3607 3610 491 4408
5956 19 3607 3610 491 4534
5957 18 3607 3610 491 4577
5958 10 3613 3612 3615 3616
5959 10 3614 3612 3615 3616
5960 11 3632 3612 3615 3616
5961 10 3612 3615 3616 3617
5962 10 3612 3615 3616 3618
5963 12 3612 3615 3616 3619
5964 12 3615 3616 3619 3620
5965 10 3617 3616 3619 3620
5966 10 3618 3616 3619 3620
5967 10 3616 3619 3620 3621
5968 10 3616 3619 3620 3622
5969 12 3616 3619 3620 3623
5970 12 3619 3620 3623 3624
5971 10 3621 3620 3623 3624
5972 10 3622 3620 3623 3624
5973 10 3620 3623 3624 3625
5974 10 3620 3623 3624 3626
5975 12 3620 3623 3624 3627
5976 12 3623 3624 3627 3628
5977 10 3625 3624 3627 3628
5978 10 3626 3624 3627 3628
5979 10 3624 3627 3628 3629
5980 10 3624 3627 3628 3630
5981 12 3624 3627 3628 3631
5982 13 3627 3628 3631 486
5983 14 3629 3628 3631 486
5984 14 3630 3628 3631 486
5985 20 2729 466 3632 3612
5986 15 3611 466 3632 3612
5987 16 466 3632 3612 3613
5988 16 466 3632 3612 3614
5989 17 466 3632 3612 3615
5990 19 3628 3631 486 3422
5991 19 3628 3631 486 4282
5992 10 3634 3633 3636 3637
5993 10 3635 3633 3636 3637
5994 11 3653 3633 3636 3637
5995 10 3633 3636 3637 3638
5996 10 3633 3636 3637 3639
5997 12 3633 3636 3637 3640
5998 12 3636 3637 3640 3641
5999 10 3638 3637 3640 3641
6000 10 3639 3637 3640 3641
6001 10 3637 3640 3641 3642
6002 10 3637 3640 3641 3643
6003 12 3637 3640 3641 3644
6004 12 3640 3641 3644 3645
6005 10 3642 3641 3644 3645
6006 10 3643 3641 3644 3645
6007 10 3641 3644 3645 3646
6008 10 3641 3644 3645 3647
6009 12 3641 3644 3645 3648
6010 12 3644 3645 3648 3649
6011 10 3646 3645 3648 3649
6012 10 3647 3645 3648 3649
6013 10 3645 3648 3649 3650
6014 10 3645 3648 3649 3651
6015 12 3645 3648 3649 3652
6016 13 3648 3649 3652 468
6017 14 3650 3649 3652 468
6018 14 3651 3649 3652 468
6019 20 2813 467 3653 3633
6020 15 3674 467 3653 3633
6021 16 467 3653 3633 3634
6022 16 467 3653 3633 3635
6023 17 467 3653 3633 3636
6024 19 3649 3652 468 2876
6025 18 3649 3652 468 3695
6026 18 3649 3652 468 3716
6027 10 3655 3654 3657 3658
6028 10 3656 3654 3657 3658
6029 11 3674 3654 3657 3658
6030 10 3654 3657 3658 3659
6031 10 3654 3657 3658 3660
6032 12 3654 3657 3658 3661
6033 12 3657 3658 3661 3662
6034 10 3659 3658 3661 3662
6035 10 3660 3658 3661 3662
6036 10 3658 3661 3662 3663
6037 10 3658 3661 3662 3664
6038 12 3658 3661 3662 3665
6039 12 3661 3662 3665 3666
6040 10 3663 3662 3665 3666
6041 10 3664 3662 3665 3666
6042 10 3662 3665 3666 3667
6043 10 3662 3665 3666 3668
6044 12 3662 3665 3666 3669
6045 12 3665 3666 3669 3670
6046 10 3667 3666 3669 3670
6047 10 3668 3666 3669 3670
6048 10 3666 3669 3670 3671
6049 10 3666 3669 3670 3672
6050 12 3666 3669 3670 3673
6051 13 3669 3670 3673 492
6052 14 3671 3670 3673 492
6053 14 3672 3670 3673 492
6054 20 2813 467 3674 3654
6055 15 3653 467 3674 3654
6056 16 467 3674 3654 3655
6057 16 467 3674 3654 3656
6058 17 467 3674 3654 3657
6059 19 3670 3673 492 945
6060 18 3670 3673 492 4598
6061 18 3670 3673 492 4619
6062 10 3676 3675 3678 3679
6063 10 3677 3675 3678 3679
6064 11 3695 3675 3678 3679
6065 10 3675 3678 3679 3680
6066 10 3675 3678 3679 3681
6067 12 3675 3678 3679 3682
6068 12 3678 3679 3682 3683
6069 10 3680 3679 3682 3683
6070 10 3681 3679 3682 3683
6071 10 3679 3682 3683 3684
6072 10 3679 3682 3683 3685
6073 12 3679 3682 3683 3686
6074 12 3682 3683 3686 3687
6075 10 3684 3683 3686 3687
6076 10 3685 3683 3686 3687
6077 10 3683 3686 3687 3688
6078 10 3683 3686 3687 3689
6079 12 3683 3686 3687 3690
6080 12 3686 3687 3690 3691
6081 10 3688 3687 3690 3691
6082 10 3689 3687 3690 3691
6083 10 3687 3690 3691 3692
6084 10 3687 3690 3691 3693
6085 12 3687 3690 3691 3694
6086 13 3690 3691 3694 469
6087 14 3692 3691 3694 469
6088 14 3693 3691 3694 469
6089 20 2876 468 3695 3675
6090 20 3652 468 3695 3675
6091 15 3716 468 3695 3675
6092 16 468 3695 3675 3676
6093 16 468 3695 3675 3677
6094 17 468 3695 3675 3678
6095 18 3691 3694 469 3737
6096 18 3691 3694 469 3758
6097 18 3691 3694 469 3779
6098 10 3697 3696 3699 3700
6099 10 3698 3696 3699 3700
6100 11 3716 3696 3699 3700
6101 10 3696 3699 3700 3701
6102 10 3696 3699 3700 3702
6103 12 3696 3699 3700 3703
6104 12 3699 3700 3703 3704
6105 10 3701 3700 3703 3704
6106 10 3702 3700 3703 3704
6107 10 3700 3703 3704 3705
6108 10 3700 3703 3704 3706
6109 12 3700 3703 3704 3707
6110 12 3703 3704 3707 3708
6111 10 3705 3704 3707 3708
6112 10 3706 3704 3707 3708
6113 10 3704 3707 3708 3709
6114 10 3704 3707 3708 3710
6115 12 3704 3707 3708 3711
6116 12 3707 3708 3711 3712
6117 10 3709 3708 3711 3712
6118 10 3710 3708 3711 3712
6119 10 3708 3711 3712 3713
6120 10 3708 3711 3712 3714
6121 12 3708 3711 3712 3715
6122 13 3711 3712 3715 493
6123 14 3713 3712 3715 493
6124 14 3714 3712 3715 493
6125 20 2876 468 3716 3696
6126 20 3652 468 3716 3696
6127 15 3695 468 3716 3696
6128 16 468 3716 3696 3697
6129 16 468 3716 3696 3698
6130 17 468 3716 3696 3699
6131 19 3712 3715 493 4450
6132 18 3712 3715 493 4640
6133 10 3718 3717 3720 3721
6134 10 3719 3717 3720 3721
6135 11 3737 3717 3720 3721
6136 10 3717 3720 3721 3722
6137 10 3717 3720 3721 3723
6138 12 3717 3720 3721 3724
6139 12 3720 3721 3724 3725
6140 10 3722 3721 3724 3725
6141 10 3723 3721 3724 3725
6142 10 3721 3724 3725 3726
6143 10 3721 3724 3725 3727
6144 12 3721 3724 3725 3728
6145 12 3724 3725 3728 3729
6146 10 3726 3725 3728 3729
6147 10 3727 3725 3728 3729
6148 10 3725 3728 3729 3730
6149 10 3725 3728 3729 3731
6150 12 3725 3728 3729 3732
6151 12 3728 3729 3732 3733
6152 10 3730 3729 3732 3733
6153 10 3731 3729 3732 3733
6154 10 3729 3732 3733 3734
6155 10 3729 3732 3733 3735
6156 12 3729 3732 3733 3736
6157 13 3732 3733 3736 470
6158 14 3734 3733 3736 470
6159 14 3735 3733 3736 470
6160 20 3694 469 3737 3717
6161 15 3758 469 3737 3717
6162 15 3779 469 3737 3717
6163 16 469 3737 3717 3718
6164 16 469 3737 3717 3719
6165 17 469 3737 3717 3720
6166 19 3733 3736 470 3568
6167 18 3733 3736 470 3800
6168 10 3739 3738 3741 3742
6169 10 3740 3738 3741 3742
6170 11 3758 3738 3741 3742
6171 10 3738 3741 3742 3743
6172 10 3738 3741 3742 3744
6173 12 3738 3741 3742 3745
6174 12 3741 3742 3745 3746
6175 10 3743 3742 3745 3746
6176 10 3744 3742 3745 3746
6177 10 3742 3745 3746 3747
6178 10 3742 3745 3746 3748
6179 12 3742 3745 3746 3749
6180 12 3745 3746 3749 3750
6181 10 3747 3746 3749 3750
6182 10 3748 3746 3749 3750
6183 10 3746 3749 3750 3751
6184 10 3746 3749 3750 3752
6185 12 3746 3749 3750 3753
6186 12 3749 3750 3753 3754
6187 10 3751 3750 3753 3754
6188 10 3752 3750 3753 3754
6189 10 3750 3753 3754 3755
6190 10 3750 3753 3754 3756
6191 12 3750 3753 3754 3757
6192 13 3753 3754 3757 474
6193 14 3755 3754 3757 474
6194 14 3756 3754 3757 474
6195 20 3694 469 3758 3738
6196 15 3737 469 3758 3738
6197 15 3779 469 3758 3738
6198 16 469 3758 3738 3739
6199 16 469 3758 3738 3740
6200 17 469 3758 3738 3741
6201 19 3754 3757 474 3086
6202 19 3754 3757 474 3925
6203 18 3754 3757 474 3968
6204 10 3760 3759 3762 3763
6205 10 3761 3759 3762 3763
6206 11 3779 3759 3762 3763
6207 10 3759 3762 3763 3764
6208 10 3759 3762 3763 3765
6209 12 3759 3762 3763 3766
6210 12 3762 3763 3766 3767
6211 10 3764 3763 3766 3767
6212 10 3765 3763 3766 3767
6213 10 3763 3766 3767 3768
6214 10 3763 3766 3767 3769
6215 12 3763 3766 3767 3770
6216 12 3766 3767 3770 3771
6217 10 3768 3767 3770 3771
6218 10 3769 3767 3770 3771
6219 10 3767 3770 3771 3772
6220 10 3767 3770 3771 3773
6221 12 3767 3770 3771 3774
6222 12 3770 3771 3774 3775
6223 10 3772 3771 3774 3775
6224 10 3773 3771 3774 3775
6225 10 3771 3774 3775 3776
6226 10 3771 3774 3775 3777
6227 12 3771 3774 3775 3778
6228 13 3774 3775 3778 494
6229 14 3776 3775 3778 494
6230 14 3777 3775 3778 494
6231 20 3694 469 3779 3759
6232 15 3737 469 3779 3759
6233 15 3758 469 3779 3759
6234 16 469 3779 3759 3760
6235 16 469 3779 3759 3761
6236 17 469 3779 3759 3762
6237 19 3775 3778 494 1029
6238 19 3775 3778 494 4513
6239 18 3775 3778 494 4661
6240 10 3781 3780 3783 3784
6241 10 3782 3780 3783 3784
6242 11 3800 3780 3783 3784
6243 10 3780 3783 3784 3785
6244 10 3780 3783 3784 3786
6245 12 3780 3783 3784 3787
6246 12 3783 3784 3787 3788
6247 10 3785 3784 3787 3788
6248 10 3786 3784 3787 3788
6249 10 3784 3787 3788 3789
6250 10 3784 3787 3788 3790
6251 12 3784 3787 3788 3791
6252 12 3787 3788 3791 3792
6253 10 3789 3788 3791 3792
6254 10 3790 3788 3791 3792
6255 10 3788 3791 3792 3793
6256 10 3788 3791 3792 3794
6257 12 3788 3791 3792 3795
6258 12 3791 3792 3795 3796
6259 10 3793 3792 3795 3796
6260 10 3794 3792 3795 3796
6261 10 3792 3795 3796 3797
6262 10 3792 3795 3796 3798
6263 12 3792 3795 3796 3799
6264 13 3795 3796 3799 475
6265 14 3797 3796 3799 475
6266 14 3798 3796 3799 475
6267 20 3568 470 3800 3780
6268 20 3736 470 3800 3780
6269 16 470 3800 3780 3781
6270 16 470 3800 3780 3782
6271 17 470 3800 3780 3783
6272 19 3796 3799 475 3128
6273 18 3796 3799 475 3989
6274 18 3796 3799 475 4010
6275 10 3802 3801 3804 3805
6276 10 3803 3801 3804 3805
6277 11 3821 3801 3804 3805
6278 10 3801 3804 3805 3806
6279 10 3801 3804 3805 3807
6280 12 3801 3804 3805 3808
6281 12 3804 3805 3808 3809
6282 10 3806 3805 3808 3809
6283 10 3807 3805 3808 3809
6284 10 3805 3808 3809 3810
6285 10 3805 3808 3809 3811
6286 12 3805 3808 3809 3812
6287 12 3808 3809 3812 3813
6288 10 3810 3809 3812 3813
6289 10 3811 3809 3812 3813
6290 10 3809 3812 3813 3814
6291 10 3809 3812 3813 3815
6292 12 3809 3812 3813 3816
6293 12 3812 3813 3816 3817
6294 10 3814 3813 3816 3817
6295 10 3815 3813 3816 3817
6296 10 3813 3816 3817 3818
6297 10 3813 3816 3817 3819
6298 12 3813 3816 3817 3820
6299 13 3816 3817 3820 476
6300 14 3818 3817 3820 476
6301 14 3819 3817 3820 476
6302 20 2939 471 3821 3801
6303 15 3842 471 3821 3801
6304 16 471 3821 3801 3802
6305 16 471 3821 3801 3803
6306 17 471 3821 3801 3804
6307 19 3817 3820 476 3904
6308 19 3817 3820 476 3988
6309 18 3817 3820 476 4031
6310 10 3823 3822 3825 3826
6311 10 3824 3822 3825 3826
6312 11 3842 3822 3825 3826
6313 10 3822 3825 3826 3827
6314 10 3822 3825 3826 3828
6315 12 3822 3825 3826 3829
6316 12 3825 3826 3829 3830
6317 10 3827 3826 3829 3830
6318 10 3828 3826 3829 3830
6319 10 3826 3829 3830 3831
6320 10 3826 3829 3830 3832
6321 12 3826 3829 3830 3833
6322 12 3829 3830 3833 3834
6323 10 3831 3830 3833 3834
6324 10 3832 3830 3833 3834
6325 10 3830 3833 3834 3835
6326 10 3830 3833 3834 3836
6327 12 3830 3833 3834 3837
6328 12 3833 3834 3837 3838
6329 10 3835 3834 3837 3838
6330 10 3836 3834 3837 3838
6331 10 3834 3837 3838 3839
6332 10 3834 3837 3838 3840
6333 12 3834 3837 3838 3841
6334 13 3837 3838 3841 496
6335 14 3839 3838 3841 496
6336 14 3840 3838 3841 496
6337 20 2939 471 3842 3822
6338 15 3821 471 3842 3822
6339 16 471 3842 3822 3823
6340 16 471 3842 3822 3824
6341 17 471 3842 3822 3825
6342 19 3838 3841 496 4618
6343 18 3838 3841 496 4703
6344 10 3844 3843 3846 3847
6345 10 3845 3843 3846 3847
6346 11 3863 3843 3846 3847
6347 10 3843 3846 3847 3848
6348 10 3843 3846 3847 3849
6349 12 3843 3846 3847 3850
6350 12 3846 3847 3850 3851
6351 10 3848 3847 3850 3851
6352 10 3849 3847 3850 3851
6353 10 3847 3850 3851 3852
6354 10 3847 3850 3851 3853
6355 12 3847 3850 3851 3854
6356 12 3850 3851 3854 3855
6357 10 3852 3851 3854 3855
6358 10 3853 3851 3854 3855
6359 10 3851 3854 3855 3856
6360 10 3851 3854 3855 3857
6361 12 3851 3854 3855 3858
6362 12 3854 3855 3858 3859
6363 10 3856 3855 3858 3859
6364 10 3857 3855 3858 3859
6365 10 3855 3858 3859 3860
6366 10 3855 3858 3859 3861
6367 12 3855 3858 3859 3862
6368 13 3858 3859 3862 477
6369 14 3860 3859 3862 477
6370 14 3861 3859 3862 477
6371 20 2960 472 3863 3843
6372 15 3884 472 3863 3843
6373 15 3905 472 3863 3843
6374 16 472 3863 3843 3844
6375 16 472 3863 3843 3845
6376 17 472 3863 3843 3846
6377 18 3859 3862 477 4052
6378 18 3859 3862 477 4073
6379 10 3865 3864 3867 3868
6380 10 3866 3864 3867 3868
6381 11 3884 3864 3867 3868
6382 10 3864 3867 3868 3869
6383 10 3864 3867 3868 3870
6384 12 3864 3867 3868 3871
6385 12 3867 3868 3871 3872
6386 10 3869 3868 3871 3872
6387 10 3870 3868 3871 3872
6388 10 3868 3871 3872 3873
6389 10 3868 3871 3872 3874
6390 12 3868 3871 3872 3875
6391 12 3871 3872 3875 3876
6392 10 3873 3872 3875 3876
6393 10 3874 3872 3875 3876
6394 10 3872 3875 3876 3877
6395 10 3872 3875 3876 3878
6396 12 3872 3875 3876 3879
6397 12 3875 3876 3879 3880
6398 10 3877 3876 3879 3880
6399 10 3878 3876 3879 3880
6400 10 3876 3879 3880 3881
6401 10 3876 3879 3880 3882
6402 12 3876 3879 3880 3883
6403 13 3879 3880 3883 497
6404 14 3881 3880 3883 497
6405 14 3882 3880 3883 497
6406 20 2960 472 3884 3864
6407 15 3863 472 3884 3864
6408 15 3905 472 3884 3864
6409 16 472 3884 3864 3865
6410 16 472 3884 3864 3866
6411 17 472 3884 3864 3867
6412 19 3880 3883 497 4597
6413 18 3880 3883 497 4724
6414 18 3880 3883 497 4745
6415 10 3886 3885 3888 3889
6416 10 3887 3885 3888 3889
6417 11 3905 3885 3888 3889
6418 10 3885 3888 3889 3890
6419 10 3885 3888 3889 3891
6420 12 3885 3888 3889 3892
6421 12 3888 3889 3892 3893
6422 10 3890 3889 3892 3893
6423 10 3891 3889 3892 3893
6424 10 3889 3892 3893 3894
6425 10 3889 3892 3893 3895
6426 12 3889 3892 3893 3896
6427 12 3892 3893 3896 3897
6428 10 3894 3893 3896 3897
6429 10 3895 3893 3896 3897
6430 10 3893 3896 3897 3898
6431 10 3893 3896 3897 3899
6432 12 3893 3896 3897 3900
6433 12 3896 3897 3900 3901
6434 10 3898 3897 3900 3901
6435 10 3899 3897 3900 3901
6436 10 3897 3900 3901 3902
6437 10 3897 3900 3901 3903
6438 12 3897 3900 3901 3904
6439 13 3900 3901 3904 476
6440 14 3902 3901 3904 476
6441 14 3903 3901 3904 476
6442 20 2960 472 3905 3885
6443 15 3863 472 3905 3885
6444 15 3884 472 3905 3885
6445 16 472 3905 3885 3886
6446 16 472 3905 3885 3887
6447 17 472 3905 3885 3888
6448 19 3901 3904 476 3820
6449 19 3901 3904 476 3988
6450 18 3901 3904 476 4031
6451 10 3907 3906 3909 3910
6452 10 3908 3906 3909 3910
6453 11 3926 3906 3909 3910
6454 10 3906 3909 3910 3911
6455 10 3906 3909 3910 3912
6456 12 3906 3909 3910 3913
6457 12 3909 3910 3913 3914
6458 10 3911 3910 3913 3914
6459 10 3912 3910 3913 3914
6460 10 3910 3913 3914 3915
6461 10 3910 3913 3914 3916
6462 12 3910 3913 3914 3917
6463 12 3913 3914 3917 3918
6464 10 3915 3914 3917 3918
6465 10 3916 3914 3917 3918
6466 10 3914 3917 3918 3919
6467 10 3914 3917 3918 3920
6468 12 3914 3917 3918 3921
6469 12 3917 3918 3921 3922
6470 10 3919 3918 3921 3922
6471 10 3920 3918 3921 3922
6472 10 3918 3921 3922 3923
6473 10 3918 3921 3922 3924
6474 12 3918 3921 3922 3925
6475 13 3921 3922 3925 474
6476 14 3923 3922 3925 474
6477 14 3924 3922 3925 474
6478 20 3023 473 3926 3906
6479 15 3947 473 3926 3906
6480 16 473 3926 3906 3907
6481 16 473 3926 3906 3908
6482 17 473 3926 3906 3909
6483 19 3922 3925 474 3086
6484 19 3922 3925 474 3757
6485 18 3922 3925 474 3968
6486 10 3928 3927 3930 3931
6487 10 3929 3927 3930 3931
6488 11 3947 3927 3930 3931
6489 10 3927 3930 3931 3932
6490 10 3927 3930 3931 3933
6491 12 3927 3930 3931 3934
6492 12 3930 3931 3934 3935
6493 10 3932 3931 3934 3935
6494 10 3933 3931 3934 3935
6495 10 3931 3934 3935 3936
6496 10 3931 3934 3935 3937
6497 12 3931 3934 3935 3938
6498 12 3934 3935 3938 3939
6499 10 3936 3935 3938 3939
6500 10 3937 3935 3938 3939
6501 10 3935 3938 3939 3940
6502 10 3935 3938 3939 3941
6503 12 3935 3938 3939 3942
6504 12 3938 3939 3942 3943
6505 10 3940 3939 3942 3943
6506 10 3941 3939 3942 3943
6507 10 3939 3942 3943 3944
6508 10 3939 3942 3943 3945
6509 12 3939 3942 3943 3946
6510 13 3942 3943 3946 498
6511 14 3944 3943 3946 498
6512 14 3945 3943 3946 498
6513 20 3023 473 3947 3927
6514 15 3926 473 3947 3927
6515 16 473 3947 3927 3928
6516 16 473 3947 3927 3929
6517 17 473 3947 3927 3930
6518 19 3943 3946 498 4639
6519 19 3943 3946 498 4723
6520 18 3943 3946 498 4766
6521 10 3949 3948 3951 3952
6522 10 3950 3948 3951 3952
6523 11 3968 3948 3951 3952
6524 10 3948 3951 3952 3953
6525 10 3948 3951 3952 3954
6526 12 3948 3951 3952 3955
6527 12 3951 3952 3955 3956
6528 10 3953 3952 3955 3956
6529 10 3954 3952 3955 3956
6530 10 3952 3955 3956 3957
6531 10 3952 3955 3956 3958
6532 12 3952 3955 3956 3959
6533 12 3955 3956 3959 3960
6534 10 3957 3956 3959 3960
6535 10 3958 3956 3959 3960
6536 10 3956 3959 3960 3961
6537 10 3956 3959 3960 3962
6538 12 3956 3959 3960 3963
6539 12 3959 3960 3963 3964
6540 10 3961 3960 3963 3964
6541 10 3962 3960 3963 3964
6542 10 3960 3963 3964 3965
6543 10 3960 3963 3964 3966
6544 12 3960 3963 3964 3967
6545 13 3963 3964 3967 479
6546 14 3965 3964 3967 479
6547 14 3966 3964 3967 479
6548 20 3086 474 3968 3948
6549 20 3757 474 3968 3948
6550 20 3925 474 3968 3948
6551 16 474 3968 3948 3949
6552 16 474 3968 3948 3950
6553 17 474 3968 3948 3951
6554 19 3964 3967 479 3233
6555 18 3964 3967 479 4136
6556 10 3970 3969 3972 3973
6557 10 3971 3969 3972 3973
6558 11 3989 3969 3972 3973
6559 10 3969 3972 3973 3974
6560 10 3969 3972 3973 3975
6561 12 3969 3972 3973 3976
6562 12 3972 3973 3976 3977
6563 10 3974 3973 3976 3977
6564 10 3975 3973 3976 3977
6565 10 3973 3976 3977 3978
6566 10 3973 3976 3977 3979
6567 12 3973 3976 3977 3980
6568 12 3976 3977 3980 3981
6569 10 3978 3977 3980 3981
6570 10 3979 3977 3980 3981
6571 10 3977 3980 3981 3982
6572 10 3977 3980 3981 3983
6573 12 3977 3980 3981 3984
6574 12 3980 3981 3984 3985
6575 10 3982 3981 3984 3985
6576 10 3983 3981 3984 3985
6577 10 3981 3984 3985 3986
6578 10 3981 3984 3985 3987
6579 12 3981 3984 3985 3988
6580 13 3984 3985 3988 476
6581 14 3986 3985 3988 476
6582 14 3987 3985 3988 476
6583 20 3128 475 3989 3969
6584 20 3799 475 3989 3969
6585 15 4010 475 3989 3969
6586 16 475 3989 3969 3970
6587 16 475 3989 3969 3971
6588 17 475 3989 3969 3972
6589 19 3985 3988 476 3820
6590 19 3985 3988 476 3904
6591 18 3985 3988 476 4031
6592 10 3991 3990 3993 3994
6593 10 3992 3990 3993 3994
6594 11 4010 3990 3993 3994
6595 10 3990 3993 3994 3995
6596 10 3990 3993 3994 3996
6597 12 3990 3993 3994 3997
6598 12 3993 3994 3997 3998
6599 10 3995 3994 3997 3998
6600 10 3996 3994 3997 3998
6601 10 3994 3997 3998 3999
6602 10 3994 3997 3998 4000
6603 12 3994 3997 3998 4001
6604 12 3997 3998 4001 4002
6605 10 3999 3998 4001 4002
6606 10 4000 3998 4001 4002
6607 10 3998 4001 4002 4003
6608 10 3998 4001 4002 4004
6609 12 3998 4001 4002 4005
6610 12 4001 4002 4005 4006
6611 10 4003 4002 4005 4006
6612 10 4004 4002 4005 4006
6613 10 4002 4005 4006 4007
6614 10 4002 4005 4006 4008
6615 12 4002 4005 4006 4009
6616 13 4005 4006 4009 480
6617 14 4007 4006 4009 480
6618 14 4008 4006 4009 480
6619 20 3128 475 4010 3990
6620 20 3799 475 4010 3990
6621 15 3989 475 4010 3990
6622 16 475 4010 3990 3991
6623 16 475 4010 3990 3992
6624 17 475 4010 3990 3993
6625 18 4006 4009 480 4157
6626 18 4006 4009 480 4178
6627 18 4006 4009 480 4199
6628 10 4012 4011 4014 4015
6629 10 4013 4011 4014 4015
6630 11 4031 4011 4014 4015
6631 10 4011 4014 4015 4016
6632 10 4011 4014 4015 4017
6633 12 4011 4014 4015 4018
6634 12 4014 4015 4018 4019
6635 10 4016 4015 4018 4019
6636 10 4017 4015 4018 4019
6637 10 4015 4018 4019 4020
6638 10 4015 4018 4019 4021
6639 12 4015 4018 4019 4022
6640 12 4018 4019 4022 4023
6641 10 4020 4019 4022 4023
6642 10 4021 4019 4022 4023
6643 10 4019 4022 4023 4024
6644 10 4019 4022 4023 4025
6645 12 4019 4022 4023 4026
6646 12 4022 4023 4026 4027
6647 10 4024 4023 4026 4027
6648 10 4025 4023 4026 4027
6649 10 4023 4026 4027 4028
6650 10 4023 4026 4027 4029
6651 12 4023 4026 4027 4030
6652 13 4026 4027 4030 501
6653 14 4028 4027 4030 501
6654 14 4029 4027 4030 501
6655 20 3820 476 4031 4011
6656 20 3904 476 4031 4011
6657 20 3988 476 4031 4011
6658 16 476 4031 4011 4012
6659 16 476 4031 4011 4013
6660 17 476 4031 4011 4014
6661 19 4027 4030 501 4702
6662 19 4027 4030 501 4807
6663 18 4027 4030 501 4850
6664 10 4033 4032 4035 4036
6665 10 4034 4032 4035 4036
6666 11 4052 4032 4035 4036
6667 10 4032 4035 4036 4037
6668 10 4032 4035 4036 4038
6669 12 4032 4035 4036 4039
6670 12 4035 4036 4039 4040
6671 10 4037 4036 4039 4040
6672 10 4038 4036 4039 4040
6673 10 4036 4039 4040 4041
6674 10 4036 4039 4040 4042
6675 12 4036 4039 4040 4043
6676 12 4039 4040 4043 4044
6677 10 4041 4040 4043 4044
6678 10 4042 4040 4043 4044
6679 10 4040 4043 4044 4045
6680 10 4040 4043 4044 4046
6681 12 4040 4043 4044 4047
6682 12 4043 4044 4047 4048
6683 10 4045 4044 4047 4048
6684 10 4046 4044 4047 4048
6685 10 4044 4047 4048 4049
6686 10 4044 4047 4048 4050
6687 12 4044 4047 4048 4051
6688 13 4047 4048 4051 478
6689 14 4049 4048 4051 478
6690 14 4050 4048 4051 478
6691 20 3862 477 4052 4032
6692 15 4073 477 4052 4032
6693 16 477 4052 4032 4033
6694 16 477 4052 4032 4034
6695 17 477 4052 4032 4035
6696 19 4048 4051 478 3191
6697 18 4048 4051 478 4094
6698 18 4048 4051 478 4115
6699 10 4054 4053 4056 4057
6700 10 4055 4053 4056 4057
6701 11 4073 4053 4056 4057
6702 10 4053 4056 4057 4058
6703 10 4053 4056 4057 4059
6704 12 4053 4056 4057 4060
6705 12 4056 4057 4060 4061
6706 10 4058 4057 4060 4061
6707 10 4059 4057 4060 4061
6708 10 4057 4060 4061 4062
6709 10 4057 4060 4061 4063
6710 12 4057 4060 4061 4064
6711 12 4060 4061 4064 4065
6712 10 4062 4061 4064 4065
6713 10 4063 4061 4064 4065
6714 10 4061 4064 4065 4066
6715 10 4061 4064 4065 4067
6716 12 4061 4064 4065 4068
6717 12 4064 4065 4068 4069
6718 10 4066 4065 4068 4069
6719 10 4067 4065 4068 4069
6720 10 4065 4068 4069 4070
6721 10 4065 4068 4069 4071
6722 12 4065 4068 4069 4072
6723 13 4068 4069 4072 481
6724 14 4070 4069 4072 481
6725 14 4071 4069 4072 481
6726 20 3862 477 4073 4053
6727 15 4052 477 4073 4053
6728 16 477 4073 4053 4054
6729 16 477 4073 4053 4055
6730 17 477 4073 4053 4056
6731 19 4069 4072 481 3296
6732 19 4069 4072 481 4156
6733 18 4069 4072 481 4220
6734 10 4075 4074 4077 4078
6735 10 4076 4074 4077 4078
6736 11 4094 4074 4077 4078
6737 10 4074 4077 4078 4079
6738 10 4074 4077 4078 4080
6739 12 4074 4077 4078 4081
6740 12 4077 4078 4081 4082
6741 10 4079 4078 4081 4082
6742 10 4080 4078 4081 4082
6743 10 4078 4081 4082 4083
6744 10 4078 4081 4082 4084
6745 12 4078 4081 4082 4085
6746 12 4081 4082 4085 4086
6747 10 4083 4082 4085 4086
6748 10 4084 4082 4085 4086
6749 10 4082 4085 4086 4087
6750 10 4082 4085 4086 4088
6751 12 4082 4085 4086 4089
6752 12 4085 4086 4089 4090
6753 10 4087 4086 4089 4090
6754 10 4088 4086 4089 4090
6755 10 4086 4089 4090 4091
6756 10 4086 4089 4090 4092
6757 12 4086 4089 4090 4093
6758 13 4089 4090 4093 483
6759 14 4091 4090 4093 483
6760 14 4092 4090 4093 483
6761 20 3191 478 4094 4074
6762 20 4051 478 4094 4074
6763 15 4115 478 4094 4074
6764 16 478 4094 4074 4075
6765 16 478 4094 4074 4076
6766 17 478 4094 4074 4077
6767 19 4090 4093 483 3484
6768 19 4090 4093 483 4240
6769 18 4090 4093 483 4304
6770 10 4096 4095 4098 4099
6771 10 4097 4095 4098 4099
6772 11 4115 4095 4098 4099
6773 10 4095 4098 4099 4100
6774 10 4095 4098 4099 4101
6775 12 4095 4098 4099 4102
6776 12 4098 4099 4102 4103
6777 10 4100 4099 4102 4103
6778 10 4101 4099 4102 4103
6779 10 4099 4102 4103 4104
6780 10 4099 4102 4103 4105
6781 12 4099 4102 4103 4106
6782 12 4102 4103 4106 4107
6783 10 4104 4103 4106 4107
6784 10 4105 4103 4106 4107
6785 10 4103 4106 4107 4108
6786 10 4103 4106 4107 4109
6787 12 4103 4106 4107 4110
6788 12 4106 4107 4110 4111
6789 10 4108 4107 4110 4111
6790 10 4109 4107 4110 4111
6791 10 4107 4110 4111 4112
6792 10 4107 4110 4111 4113
6793 12 4107 4110 4111 4114
6794 13 4110 4111 4114 581
6795 14 4112 4111 4114 581
6796 14 4113 4111 4114 581
6797 20 3191 478 4115 4095
6798 20 4051 478 4115 4095
6799 15 4094 478 4115 4095
6800 16 478 4115 4095 4096
6801 16 478 4115 4095 4097
6802 17 478 4115 4095 4098
6803 19 4111 4114 581 1449
6804 18 4111 4114 581 4871
6805 18 4111 4114 581 4892
6806 10 4117 4116 4119 4120
6807 10 4118 4116 4119 4120
6808 11 4136 4116 4119 4120
6809 10 4116 4119 4120 4121
6810 10 4116 4119 4120 4122
6811 12 4116 4119 4120 4123
6812 12 4119 4120 4123 4124
6813 10 4121 4120 4123 4124
6814 10 4122 4120 4123 4124
6815 10 4120 4123 4124 4125
6816 10 4120 4123 4124 4126
6817 12 4120 4123 4124 4127
6818 12 4123 4124 4127 4128
6819 10 4125 4124 4127 4128
6820 10 4126 4124 4127 4128
6821 10 4124 4127 4128 4129
6822 10 4124 4127 4128 4130
6823 12 4124 4127 4128 4131
6824 12 4127 4128 4131 4132
6825 10 4129 4128 4131 4132
6826 10 4130 4128 4131 4132
6827 10 4128 4131 4132 4133
6828 10 4128 4131 4132 4134
6829 12 4128 4131 4132 4135
6830 13 4131 4132 4135 582
6831 14 4133 4132 4135 582
6832 14 4134 4132 4135 582
6833 20 3233 479 4136 4116
6834 20 3967 479 4136 4116
6835 16 479 4136 4116 4117
6836 16 479 4136 4116 4118
6837 17 479 4136 4116 4119
6838 19 4132 4135 582 4786
6839 19 4132 4135 582 4870
6840 18 4132 4135 582 4913
6841 10 4138 4137 4140 4141
6842 10 4139 4137 4140 4141
6843 11 4157 4137 4140 4141
6844 10 4137 4140 4141 4142
6845 10 4137 4140 4141 4143
6846 12 4137 4140 4141 4144
6847 12 4140 4141 4144 4145
6848 10 4142 4141 4144 4145
6849 10 4143 4141 4144 4145
6850 10 4141 4144 4145 4146
6851 10 4141 4144 4145 4147
6852 12 4141 4144 4145 4148
6853 12 4144 4145 4148 4149
6854 10 4146 4145 4148 4149
6855 10 4147 4145 4148 4149
6856 10 4145 4148 4149 4150
6857 10 4145 4148 4149 4151
6858 12 4145 4148 4149 4152
6859 12 4148 4149 4152 4153
6860 10 4150 4149 4152 4153
6861 10 4151 4149 4152 4153
6862 10 4149 4152 4153 4154
6863 10 4149 4152 4153 4155
6864 12 4149 4152 4153 4156
6865 13 4152 4153 4156 481
6866 14 4154 4153 4156 481
6867 14 4155 4153 4156 481
6868 20 4009 480 4157 4137
6869 15 4178 480 4157 4137
6870 15 4199 480 4157 4137
6871 16 480 4157 4137 4138
6872 16 480 4157 4137 4139
6873 17 480 4157 4137 4140
6874 19 4153 4156 481 3296
6875 19 4153 4156 481 4072
6876 18 4153 4156 481 4220
6877 10 4159 4158 4161 4162
6878 10 4160 4158 4161 4162
6879 11 4178 4158 4161 4162
6880 10 4158 4161 4162 4163
6881 10 4158 4161 4162 4164
6882 12 4158 4161 4162 4165
6883 12 4161 4162 4165 4166
6884 10 4163 4162 4165 4166
6885 10 4164 4162 4165 4166
6886 10 4162 4165 4166 4167
6887 10 4162 4165 4166 4168
6888 12 4162 4165 4166 4169
6889 12 4165 4166 4169 4170
6890 10 4167 4166 4169 4170
6891 10 4168 4166 4169 4170
6892 10 4166 4169 4170 4171
6893 10 4166 4169 4170 4172
6894 12 4166 4169 4170 4173
6895 12 4169 4170 4173 4174
6896 10 4171 4170 4173 4174
6897 10 4172 4170 4173 4174
6898 10 4170 4173 4174 4175
6899 10 4170 4173 4174 4176
6900 12 4170 4173 4174 4177
6901 13 4173 4174 4177 485
6902 14 4175 4174 4177 485
6903 14 4176 4174 4177 485
6904 20 4009 480 4178 4158
6905 15 4157 480 4178 4158
6906 15 4199 480 4178 4158
6907 16 480 4178 4158 4159
6908 16 480 4178 4158 4160
6909 17 480 4178 4158 4161
6910 19 4174 4177 485 3401
6911 19 4174 4177 485 4324
6912 18 4174 4177 485 4367
6913 10 4180 4179 4182 4183
6914 10 4181 4179 4182 4183
6915 11 4199 4179 4182 4183
6916 10 4179 4182 4183 4184
6917 10 4179 4182 4183 4185
6918 12 4179 4182 4183 4186
6919 12 4182 4183 4186 4187
6920 10 4184 4183 4186 4187
6921 10 4185 4183 4186 4187
6922 10 4183 4186 4187 4188
6923 10 4183 4186 4187 4189
6924 12 4183 4186 4187 4190
6925 12 4186 4187 4190 4191
6926 10 4188 4187 4190 4191
6927 10 4189 4187 4190 4191
6928 10 4187 4190 4191 4192
6929 10 4187 4190 4191 4193
6930 12 4187 4190 4191 4194
6931 12 4190 4191 4194 4195
6932 10 4192 4191 4194 4195
6933 10 4193 4191 4194 4195
6934 10 4191 4194 4195 4196
6935 10 4191 4194 4195 4197
6936 12 4191 4194 4195 4198
6937 13 4194 4195 4198 583
6938 14 4196 4195 4198 583
6939 14 4197 4195 4198 583
6940 20 4009 480 4199 4179
6941 15 4157 480 4199 4179
6942 15 4178 480 4199 4179
6943 16 480 4199 4179 4180
6944 16 480 4199 4179 4181
6945 17 480 4199 4179 4182
6946 19 4195 4198 583 1511
6947 19 4195 4198 583 4828
6948 18 4195 4198 583 4934
6949 10 4201 4200 4203 4204
6950 10 4202 4200 4203 4204
6951 11 4220 4200 4203 4204
6952 10 4200 4203 4204 4205
6953 10 4200 4203 4204 4206
6954 12 4200 4203 4204 4207
6955 12 4203 4204 4207 4208
6956 10 4205 4204 4207 4208
6957 10 4206 4204 4207 4208
6958 10 4204 4207 4208 4209
6959 10 4204 4207 4208 4210
6960 12 4204 4207 4208 4211
6961 12 4207 4208 4211 4212
6962 10 4209 4208 4211 4212
6963 10 4210 4208 4211 4212
6964 10 4208 4211 4212 4213
6965 10 4208 4211 4212 4214
6966 12 4208 4211 4212 4215
6967 12 4211 4212 4215 4216
6968 10 4213 4212 4215 4216
6969 10 4214 4212 4215 4216
6970 10 4212 4215 4216 4217
6971 10 4212 4215 4216 4218
6972 12 4212 4215 4216 4219
6973 13 4215 4216 4219 584
6974 14 4217 4216 4219 584
6975 14 4218 4216 4219 584
6976 20 3296 481 4220 4200
6977 20 4072 481 4220 4200
6978 20 4156 481 4220 4200
6979 16 481 4220 4200 4201
6980 16 481 4220 4200 4202
6981 17 481 4220 4200 4203
6982 19 4216 4219 584 1553
6983 19 4216 4219 584 4849
6984 10 4222 4221 4224 4225
6985 10 4223 4221 4224 4225
6986 11 4241 4221 4224 4225
6987 10 4221 4224 4225 4226
6988 10 4221 4224 4225 4227
6989 12 4221 4224 4225 4228
6990 12 4224 4225 4228 4229
6991 10 4226 4225 4228 4229
6992 10 4227 4225 4228 4229
6993 10 4225 4228 4229 4230
6994 10 4225 4228 4229 4231
6995 12 4225 4228 4229 4232
6996 12 4228 4229 4232 4233
6997 10 4230 4229 4232 4233
6998 10 4231 4229 4232 4233
6999 10 4229 4232 4233 4234
7000 10 4229 4232 4233 4235
7001 12 4229 4232 4233 4236
7002 12 4232 4233 4236 4237
7003 10 4234 4233 4236 4237
7004 10 4235 4233 4236 4237
7005 10 4233 4236 4237 4238
7006 10 4233 4236 4237 4239
7007 12 4233 4236 4237 4240
7008 13 4236 4237 4240 483
7009 14 4238 4237 4240 483
7010 14 4239 4237 4240 483
7011 20 3338 482 4241 4221
7012 15 4262 482 4241 4221
7013 15 4283 482 4241 4221
7014 16 482 4241 4221 4222
7015 16 482 4241 4221 4223
7016 17 482 4241 4221 4224
7017 19 4237 4240 483 3484
7018 19 4237 4240 483 4093
7019 18 4237 4240 483 4304
7020 10 4243 4242 4245 4246
7021 10 4244 4242 4245 4246
7022 11 4262 4242 4245 4246
7023 10 4242 4245 4246 4247
7024 10 4242 4245 4246 4248
7025 12 4242 4245 4246 4249
7026 12 4245 4246 4249 4250
7027 10 4247 4246 4249 4250
7028 10 4248 4246 4249 4250
7029 10 4246 4249 4250 4251
7030 10 4246 4249 4250 4252
7031 12 4246 4249 4250 4253
7032 12 4249 4250 4253 4254
7033 10 4251 4250 4253 4254
7034 10 4252 4250 4253 4254
7035 10 4250 4253 4254 4255
7036 10 4250 4253 4254 4256
7037 12 4250 4253 4254 4257
7038 12 4253 4254 4257 4258
7039 10 4255 4254 4257 4258
7040 10 4256 4254 4257 4258
7041 10 4254 4257 4258 4259
7042 10 4254 4257 4258 4260
7043 12 4254 4257 4258 4261
7044 13 4257 4258 4261 585
7045 14 4259 4258 4261 585
7046 14 4260 4258 4261 585
7047 20 3338 482 4262 4242
7048 15 4241 482 4262 4242
7049 15 4283 482 4262 4242
7050 16 482 4262 4242 4243
7051 16 482 4262 4242 4244
7052 17 482 4262 4242 4245
7053 19 4258 4261 585 4429
7054 18 4258 4261 585 4955
7055 10 4264 4263 4266 4267
7056 10 4265 4263 4266 4267
7057 11 4283 4263 4266 4267
7058 10 4263 4266 4267 4268
7059 10 4263 4266 4267 4269
7060 12 4263 4266 4267 4270
7061 12 4266 4267 4270 4271
7062 10 4268 4267 4270 4271
7063 10 4269 4267 4270 4271
7064 10 4267 4270 4271 4272
7065 10 4267 4270 4271 4273
7066 12 4267 4270 4271 4274
7067 12 4270 4271 4274 4275
7068 10 4272 4271 4274 4275
7069 10 4273 4271 4274 4275
7070 10 4271 4274 4275 4276
7071 10 4271 4274 4275 4277
7072 12 4271 4274 4275 4278
7073 12 4274 4275 4278 4279
7074 10 4276 4275 4278 4279
7075 10 4277 4275 4278 4279
7076 10 4275 4278 4279 4280
7077 10 4275 4278 4279 4281
7078 12 4275 4278 4279 4282
7079 13 4278 4279 4282 486
7080 14 4280 4279 4282 486
7081 14 4281 4279 4282 486
7082 20 3338 482 4283 4263
7083 15 4241 482 4283 4263
7084 15 4262 482 4283 4263
7085 16 482 4283 4263 4264
7086 16 482 4283 4263 4265
7087 17 482 4283 4263 4266
7088 19 4279 4282 486 3422
7089 19 4279 4282 486 3631
7090 10 4285 4284 4287 4288
7091 10 4286 4284 4287 4288
7092 11 4304 4284 4287 4288
7093 10 4284 4287 4288 4289
7094 10 4284 4287 4288 4290
7095 12 4284 4287 4288 4291
7096 12 4287 4288 4291 4292
7097 10 4289 4288 4291 4292
7098 10 4290 4288 4291 4292
7099 10 4288 4291 4292 4293
7100 10 4288 4291 4292 4294
7101 12 4288 4291 4292 4295
7102 12 4291 4292 4295 4296
7103 10 4293 4292 4295 4296
7104 10 4294 4292 4295 4296
7105 10 4292 4295 4296 4297
7106 10 4292 4295 4296 4298
7107 12 4292 4295 4296 4299
7108 12 4295 4296 4299 4300
7109 10 4297 4296 4299 4300
7110 10 4298 4296 4299 4300
7111 10 4296 4299 4300 4301
7112 10 4296 4299 4300 4302
7113 12 4296 4299 4300 4303
7114 13 4299 4300 4303 586
7115 14 4301 4300 4303 586
7116 14 4302 4300 4303 586
7117 20 3484 483 4304 4284
7118 20 4093 483 4304 4284
7119 20 4240 483 4304 4284
7120 16 483 4304 4284 4285
7121 16 483 4304 4284 4286
7122 17 483 4304 4284 4287
7123 19 4300 4303 586 4471
7124 19 4300 4303 586 4891
7125 19 4300 4303 586 4954
7126 10 4306 4305 4308 4309
7127 10 4307 4305 4308 4309
7128 11 4325 4305 4308 4309
7129 10 4305 4308 4309 4310
7130 10 4305 4308 4309 4311
7131 12 4305 4308 4309 4312
7132 12 4308 4309 4312 4313
7133 10 4310 4309 4312 4313
7134 10 4311 4309 4312 4313
7135 10 4309 4312 4313 4314
7136 10 4309 4312 4313 4315
7137 12 4309 4312 4313 4316
7138 12 4312 4313 4316 4317
7139 10 4314 4313 4316 4317
7140 10 4315 4313 4316 4317
7141 10 4313 4316 4317 4318
7142 10 4313 4316 4317 4319
7143 12 4313 4316 4317 4320
7144 12 4316 4317 4320 4321
7145 10 4318 4317 4320 4321
7146 10 4319 4317 4320 4321
7147 10 4317 4320 4321 4322
7148 10 4317 4320 4321 4323
7149 12 4317 4320 4321 4324
7150 13 4320 4321 4324 485
7151 14 4322 4321 4324 485
7152 14 4323 4321 4324 485
7153 20 3547 484 4325 4305
7154 15 4346 484 4325 4305
7155 16 484 4325 4305 4306
7156 16 484 4325 4305 4307
7157 17 484 4325 4305 4308
7158 19 4321 4324 485 3401
7159 19 4321 4324 485 4177
7160 18 4321 4324 485 4367
7161 10 4327 4326 4329 4330
7162 10 4328 4326 4329 4330
7163 11 4346 4326 4329 4330
7164 10 4326 4329 4330 4331
7165 10 4326 4329 4330 4332
7166 12 4326 4329 4330 4333
7167 12 4329 4330 4333 4334
7168 10 4331 4330 4333 4334
7169 10 4332 4330 4333 4334
7170 10 4330 4333 4334 4335
7171 10 4330 4333 4334 4336
7172 12 4330 4333 4334 4337
7173 12 4333 4334 4337 4338
7174 10 4335 4334 4337 4338
7175 10 4336 4334 4337 4338
7176 10 4334 4337 4338 4339
7177 10 4334 4337 4338 4340
7178 12 4334 4337 4338 4341
7179 12 4337 4338 4341 4342
7180 10 4339 4338 4341 4342
7181 10 4340 4338 4341 4342
7182 10 4338 4341 4342 4343
7183 10 4338 4341 4342 4344
7184 12 4338 4341 4342 4345
7185 13 4341 4342 4345 587
7186 14 4343 4342 4345 587
7187 14 4344 4342 4345 587
7188 20 3547 484 4346 4326
7189 15 4325 484 4346 4326
7190 16 484 4346 4326 4327
7191 16 484 4346 4326 4328
7192 17 484 4346 4326 4329
7193 19 4342 4345 587 4912
7194 18 4342 4345 587 4976
7195 10 4348 4347 4350 4351
7196 10 4349 4347 4350 4351
7197 11 4367 4347 4350 4351
7198 10 4347 4350 4351 4352
7199 10 4347 4350 4351 4353
7200 12 4347 4350 4351 4354
7201 12 4350 4351 4354 4355
7202 10 4352 4351 4354 4355
7203 10 4353 4351 4354 4355
7204 10 4351 4354 4355 4356
7205 10 4351 4354 4355 4357
7206 12 4351 4354 4355 4358
7207 12 4354 4355 4358 4359
7208 10 4356 4355 4358 4359
7209 10 4357 4355 4358 4359
7210 10 4355 4358 4359 4360
7211 10 4355 4358 4359 4361
7212 12 4355 4358 4359 4362
7213 12 4358 4359 4362 4363
7214 10 4360 4359 4362 4363
7215 10 4361 4359 4362 4363
7216 10 4359 4362 4363 4364
7217 10 4359 4362 4363 4365
7218 12 4359 4362 4363 4366
7219 13 4362 4363 4366 588
7220 14 4364 4363 4366 588
7221 14 4365 4363 4366 588
7222 20 3401 485 4367 4347
7223 20 4177 485 4367 4347
7224 20 4324 485 4367 4347
7225 16 485 4367 4347 4348
7226 16 485 4367 4347 4349
7227 17 485 4367 4347 4350
7228 19 4363 4366 588 4933
7229 19 4363 4366 588 4975
7230 18 4363 4366 588 4997
7231 10 4369 4368 4371 4372
7232 10 4370 4368 4371 4372
7233 11 4388 4368 4371 4372
7234 10 4368 4371 4372 4373
7235 10 4368 4371 4372 4374
7236 12 4368 4371 4372 4375
7237 12 4371 4372 4375 4376
7238 10 4373 4372 4375 4376
7239 10 4374 4372 4375 4376
7240 10 4372 4375 4376 4377
7241 10 4372 4375 4376 4378
7242 12 4372 4375 4376 4379
7243 12 4375 4376 4379 4380
7244 10 4377 4376 4379 4380
7245 10 4378 4376 4379 4380
7246 10 4376 4379 4380 4381
7247 10 4376 4379 4380 4382
7248 12 4376 4379 4380 4383
7249 12 4379 4380 4383 4384
7250 10 4381 4380 4383 4384
7251 10 4382 4380 4383 4384
7252 10 4380 4383 4384 4385
7253 10 4380 4383 4384 4386
7254 12 4380 4383 4384 4387
7255 13 4383 4384 4387 488
7256 14 4385 4384 4387 488
7257 14 4386 4384 4387 488
7258 15 4409 487 4388 4368
7259 15 4430 487 4388 4368
7260 16 487 4388 4368 4369
7261 16 487 4388 4368 4370
7262 17 487 4388 4368 4371
7263 19 4384 4387 488 3463
7264 18 4384 4387 488 4451
7265 18 4384 4387 488 4472
7266 10 4390 4389 4392 4393
7267 10 4391 4389 4392 4393
7268 11 4409 4389 4392 4393
7269 10 4389 4392 4393 4394
7270 10 4389 4392 4393 4395
7271 12 4389 4392 4393 4396
7272 12 4392 4393 4396 4397
7273 10 4394 4393 4396 4397
7274 10 4395 4393 4396 4397
7275 10 4393 4396 4397 4398
7276 10 4393 4396 4397 4399
7277 12 4393 4396 4397 4400
7278 12 4396 4397 4400 4401
7279 10 4398 4397 4400 4401
7280 10 4399 4397 4400 4401
7281 10 4397 4400 4401 4402
7282 10 4397 4400 4401 4403
7283 12 4397 4400 4401 4404
7284 12 4400 4401 4404 4405
7285 10 4402 4401 4404 4405
7286 10 4403 4401 4404 4405
7287 10 4401 4404 4405 4406
7288 10 4401 4404 4405 4407
7289 12 4401 4404 4405 4408
7290 13 4404 4405 4408 491
7291 14 4406 4405 4408 491
7292 14 4407 4405 4408 491
7293 15 4388 487 4409 4389
7294 15 4430 487 4409 4389
7295 16 487 4409 4389 4390
7296 16 487 4409 4389 4391
7297 17 487 4409 4389 4392
7298 19 4405 4408 491 3610
7299 19 4405 4408 491 4534
7300 18 4405 4408 491 4577
7301 10 4411 4410 4413 4414
7302 10 4412 4410 4413 4414
7303 11 4430 4410 4413 4414
7304 10 4410 4413 4414 4415
7305 10 4410 4413 4414 4416
7306 12 4410 4413 4414 4417
7307 12 4413 4414 4417 4418
7308 10 4415 4414 4417 4418
7309 10 4416 4414 4417 4418
7310 10 4414 4417 4418 4419
7311 10 4414 4417 4418 4420
7312 12 4414 4417 4418 4421
7313 12 4417 4418 4421 4422
7314 10 4419 4418 4421 4422
7315 10 4420 4418 4421 4422
7316 10 4418 4421 4422 4423
7317 10 4418 4421 4422 4424
7318 12 4418 4421 4422 4425
7319 12 4421 4422 4425 4426
7320 10 4423 4422 4425 4426
7321 10 4424 4422 4425 4426
7322 10 4422 4425 4426 4427
7323 10 4422 4425 4426 4428
7324 12 4422 4425 4426 4429
7325 13 4425 4426 4429 585
7326 14 4427 4426 4429 585
7327 14 4428 4426 4429 585
7328 15 4388 487 4430 4410
7329 15 4409 487 4430 4410
7330 16 487 4430 4410 4411
7331 16 487 4430 4410 4412
7332 17 487 4430 4410 4413
7333 19 4426 4429 585 4261
7334 18 4426 4429 585 4955
7335 10 4432 4431 4434 4435
7336 10 4433 4431 4434 4435
7337 11 4451 4431 4434 4435
7338 10 4431 4434 4435 4436
7339 10 4431 4434 4435 4437
7340 12 4431 4434 4435 4438
7341 12 4434 4435 4438 4439
7342 10 4436 4435 4438 4439
7343 10 4437 4435 4438 4439
7344 10 4435 4438 4439 4440
7345 10 4435 4438 4439 4441
7346 12 4435 4438 4439 4442
7347 12 4438 4439 4442 4443
7348 10 4440 4439 4442 4443
7349 10 4441 4439 4442 4443
7350 10 4439 4442 4443 4444
7351 10 4439 4442 4443 4445
7352 12 4439 4442 4443 4446
7353 12 4442 4443 4446 4447
7354 10 4444 4443 4446 4447
7355 10 4445 4443 4446 4447
7356 10 4443 4446 4447 4448
7357 10 4443 4446 4447 4449
7358 12 4443 4446 4447 4450
7359 13 4446 4447 4450 493
7360 14 4448 4447 4450 493
7361 14 4449 4447 4450 493
7362 20 3463 488 4451 4431
7363 20 4387 488 4451 4431
7364 15 4472 488 4451 4431
7365 16 488 4451 4431 4432
7366 16 488 4451 4431 4433
7367 17 488 4451 4431 4434
7368 19 4447 4450 493 3715
7369 18 4447 4450 493 4640
7370 10 4453 4452 4455 4456
7371 10 4454 4452 4455 4456
7372 11 4472 4452 4455 4456
7373 10 4452 4455 4456 4457
7374 10 4452 4455 4456 4458
7375 12 4452 4455 4456 4459
7376 12 4455 4456 4459 4460
7377 10 4457 4456 4459 4460
7378 10 4458 4456 4459 4460
7379 10 4456 4459 4460 4461
7380 10 4456 4459 4460 4462
7381 12 4456 4459 4460 4463
7382 12 4459 4460 4463 4464
7383 10 4461 4460 4463 4464
7384 10 4462 4460 4463 4464
7385 10 4460 4463 4464 4465
7386 10 4460 4463 4464 4466
7387 12 4460 4463 4464 4467
7388 12 4463 4464 4467 4468
7389 10 4465 4464 4467 4468
7390 10 4466 4464 4467 4468
7391 10 4464 4467 4468 4469
7392 10 4464 4467 4468 4470
7393 12 4464 4467 4468 4471
7394 13 4467 4468 4471 586
7395 14 4469 4468 4471 586
7396 14 4470 4468 4471 586
7397 20 3463 488 4472 4452
7398 20 4387 488 4472 4452
7399 15 4451 488 4472 4452
7400 16 488 4472 4452 4453
7401 16 488 4472 4452 4454
7402 17 488 4472 4452 4455
7403 19 4468 4471 586 4303
7404 19 4468 4471 586 4891
7405 19 4468 4471 586 4954
7406 10 4474 4473 4476 4477
7407 10 4475 4473 4476 4477
7408 11 4493 4473 4476 4477
7409 10 4473 4476 4477 4478
7410 10 4473 4476 4477 4479
7411 12 4473 4476 4477 4480
7412 12 4476 4477 4480 4481
7413 10 4478 4477 4480 4481
7414 10 4479 4477 4480 4481
7415 10 4477 4480 4481 4482
7416 10 4477 4480 4481 4483
7417 12 4477 4480 4481 4484
7418 12 4480 4481 4484 4485
7419 10 4482 4481 4484 4485
7420 10 4483 4481 4484 4485
7421 10 4481 4484 4485 4486
7422 10 4481 4484 4485 4487
7423 12 4481 4484 4485 4488
7424 12 4484 4485 4488 4489
7425 10 4486 4485 4488 4489
7426 10 4487 4485 4488 4489
7427 10 4485 4488 4489 4490
7428 10 4485 4488 4489 4491
7429 12 4485 4488 4489 4492
7430 13 4488 4489 4492 490
7431 14 4490 4489 4492 490
7432 14 4491 4489 4492 490
7433 20 3526 489 4493 4473
7434 15 4514 489 4493 4473
7435 16 489 4493 4473 4474
7436 16 489 4493 4473 4475
7437 17 489 4493 4473 4476
7438 19 4489 4492 490 3589
7439 18 4489 4492 490 4535
7440 18 4489 4492 490 4556
7441 10 4495 4494 4497 4498
7442 10 4496 4494 4497 4498
7443 11 4514 4494 4497 4498
7444 10 4494 4497 4498 4499
7445 10 4494 4497 4498 4500
7446 12 4494 4497 4498 4501
7447 12 4497 4498 4501 4502
7448 10 4499 4498 4501 4502
7449 10 4500 4498 4501 4502
7450 10 4498 4501 4502 4503
7451 10 4498 4501 4502 4504
7452 12 4498 4501 4502 4505
7453 12 4501 4502 4505 4506
7454 10 4503 4502 4505 4506
7455 10 4504 4502 4505 4506
7456 10 4502 4505 4506 4507
7457 10 4502 4505 4506 4508
7458 12 4502 4505 4506 4509
7459 12 4505 4506 4509 4510
7460 10 4507 4506 4509 4510
7461 10 4508 4506 4509 4510
7462 10 4506 4509 4510 4511
7463 10 4506 4509 4510 4512
7464 12 4506 4509 4510 4513
7465 13 4509 4510 4513 494
7466 14 4511 4510 4513 494
7467 14 4512 4510 4513 494
7468 20 3526 489 4514 4494
7469 15 4493 489 4514 4494
7470 16 489 4514 4494 4495
7471 16 489 4514 4494 4496
7472 17 489 4514 4494 4497
7473 19 4510 4513 494 1029
7474 19 4510 4513 494 3778
7475 18 4510 4513 494 4661
7476 10 4516 4515 4518 4519
7477 10 4517 4515 4518 4519
7478 11 4535 4515 4518 4519
7479 10 4515 4518 4519 4520
7480 10 4515 4518 4519 4521
7481 12 4515 4518 4519 4522
7482 12 4518 4519 4522 4523
7483 10 4520 4519 4522 4523
7484 10 4521 4519 4522 4523
7485 10 4519 4522 4523 4524
7486 10 4519 4522 4523 4525
7487 12 4519 4522 4523 4526
7488 12 4522 4523 4526 4527
7489 10 4524 4523 4526 4527
7490 10 4525 4523 4526 4527
7491 10 4523 4526 4527 4528
7492 10 4523 4526 4527 4529
7493 12 4523 4526 4527 4530
7494 12 4526 4527 4530 4531
7495 10 4528 4527 4530 4531
7496 10 4529 4527 4530 4531
7497 10 4527 4530 4531 4532
7498 10 4527 4530 4531 4533
7499 12 4527 4530 4531 4534
7500 13 4530 4531 4534 491
7501 14 4532 4531 4534 491
7502 14 4533 4531 4534 491
7503 20 3589 490 4535 4515
7504 20 4492 490 4535 4515
7505 15 4556 490 4535 4515
7506 16 490 4535 4515 4516
7507 16 490 4535 4515 4517
7508 17 490 4535 4515 4518
7509 19 4531 4534 491 3610
7510 19 4531 4534 491 4408
7511 18 4531 4534 491 4577
7512 10 4537 4536 4539 4540
7513 10 4538 4536 4539 4540
7514 11 4556 4536 4539 4540
7515 10 4536 4539 4540 4541
7516 10 4536 4539 4540 4542
7517 12 4536 4539 4540 4543
7518 12 4539 4540 4543 4544
7519 10 4541 4540 4543 4544
7520 10 4542 4540 4543 4544
7521 10 4540 4543 4544 4545
7522 10 4540 4543 4544 4546
7523 12 4540 4543 4544 4547
7524 12 4543 4544 4547 4548
7525 10 4545 4544 4547 4548
7526 10 4546 4544 4547 4548
7527 10 4544 4547 4548 4549
7528 10 4544 4547 4548 4550
7529 12 4544 4547 4548 4551
7530 12 4547 4548 4551 4552
7531 10 4549 4548 4551 4552
7532 10 4550 4548 4551 4552
7533 10 4548 4551 4552 4553
7534 10 4548 4551 4552 4554
7535 12 4548 4551 4552 4555
7536 13 4551 4552 4555 495
7537 14 4553 4552 4555 495
7538 14 4554 4552 4555 495
7539 20 3589 490 4556 4536
7540 20 4492 490 4556 4536
7541 15 4535 490 4556 4536
7542 16 490 4556 4536 4537
7543 16 490 4556 4536 4538
7544 17 490 4556 4536 4539
7545 19 4552 4555 495 1071
7546 18 4552 4555 495 4682
7547 10 4558 4557 4560 4561
7548 10 4559 4557 4560 4561
7549 11 4577 4557 4560 4561
7550 10 4557 4560 4561 4562
7551 10 4557 4560 4561 4563
7552 12 4557 4560 4561 4564
7553 12 4560 4561 4564 4565
7554 10 4562 4561 4564 4565
7555 10 4563 4561 4564 4565
7556 10 4561 4564 4565 4566
7557 10 4561 4564 4565 4567
7558 12 4561 4564 4565 4568
7559 12 4564 4565 4568 4569
7560 10 4566 4565 4568 4569
7561 10 4567 4565 4568 4569
7562 10 4565 4568 4569 4570
7563 10 4565 4568 4569 4571
7564 12 4565 4568 4569 4572
7565 12 4568 4569 4572 4573
7566 10 4570 4569 4572 4573
7567 10 4571 4569 4572 4573
7568 10 4569 4572 4573 4574
7569 10 4569 4572 4573 4575
7570 12 4569 4572 4573 4576
7571 13 4572 4573 4576 589
7572 14 4574 4573 4576 589
7573 14 4575 4573 4576 589
7574 20 3610 491 4577 4557
7575 20 4408 491 4577 4557
7576 20 4534 491 4577 4557
7577 16 491 4577 4557 4558
7578 16 491 4577 4557 4559
7579 17 491 4577 4557 4560
7580 19 4573 4576 589 1721
7581 19 4573 4576 589 4996
7582 10 4579 4578 4581 4582
7583 10 4580 4578 4581 4582
7584 11 4598 4578 4581 4582
7585 10 4578 4581 4582 4583
7586 10 4578 4581 4582 4584
7587 12 4578 4581 4582 4585
7588 12 4581 4582 4585 4586
7589 10 4583 4582 4585 4586
7590 10 4584 4582 4585 4586
7591 10 4582 4585 4586 4587
7592 10 4582 4585 4586 4588
7593 12 4582 4585 4586 4589
7594 12 4585 4586 4589 4590
7595 10 4587 4586 4589 4590
7596 10 4588 4586 4589 4590
7597 10 4586 4589 4590 4591
7598 10 4586 4589 4590 4592
7599 12 4586 4589 4590 4593
7600 12 4589 4590 4593 4594
7601 10 4591 4590 4593 4594
7602 10 4592 4590 4593 4594
7603 10 4590 4593 4594 4595
7604 10 4590 4593 4594 4596
7605 12 4590 4593 4594 4597
7606 13 4593 4594 4597 497
7607 14 4595 4594 4597 497
7608 14 4596 4594 4597 497
7609 20 945 492 4598 4578
7610 20 3673 492 4598 4578
7611 15 4619 492 4598 4578
7612 16 492 4598 4578 4579
7613 16 492 4598 4578 4580
7614 17 492 4598 4578 4581
7615 19 4594 4597 497 3883
7616 18 4594 4597 497 4724
7617 18 4594 4597 497 4745
7618 10 4600 4599 4602 4603
7619 10 4601 4599 4602 4603
7620 11 4619 4599 4602 4603
7621 10 4599 4602 4603 4604
7622 10 4599 4602 4603 4605
7623 12 4599 4602 4603 4606
7624 12 4602 4603 4606 4607
7625 10 4604 4603 4606 4607
7626 10 4605 4603 4606 4607
7627 10 4603 4606 4607 4608
7628 10 4603 4606 4607 4609
7629 12 4603 4606 4607 4610
7630 12 4606 4607 4610 4611
7631 10 4608 4607 4610 4611
7632 10 4609 4607 4610 4611
7633 10 4607 4610 4611 4612
7634 10 4607 4610 4611 4613
7635 12 4607 4610 4611 4614
7636 12 4610 4611 4614 4615
7637 10 4612 4611 4614 4615
7638 10 4613 4611 4614 4615
7639 10 4611 4614 4615 4616
7640 10 4611 4614 4615 4617
7641 12 4611 4614 4615 4618
7642 13 4614 4615 4618 496
7643 14 4616 4615 4618 496
7644 14 4617 4615 4618 496
7645 20 945 492 4619 4599
7646 20 3673 492 4619 4599
7647 15 4598 492 4619 4599
7648 16 492 4619 4599 4600
7649 16 492 4619 4599 4601
7650 17 492 4619 4599 4602
7651 19 4615 4618 496 3841
7652 18 4615 4618 496 4703
7653 10 4621 4620 4623 4624
7654 10 4622 4620 4623 4624
7655 11 4640 4620 4623 4624
7656 10 4620 4623 4624 4625
7657 10 4620 4623 4624 4626
7658 12 4620 4623 4624 4627
7659 12 4623 4624 4627 4628
7660 10 4625 4624 4627 4628
7661 10 4626 4624 4627 4628
7662 10 4624 4627 4628 4629
7663 10 4624 4627 4628 4630
7664 12 4624 4627 4628 4631
7665 12 4627 4628 4631 4632
7666 10 4629 4628 4631 4632
7667 10 4630 4628 4631 4632
7668 10 4628 4631 4632 4633
7669 10 4628 4631 4632 4634
7670 12 4628 4631 4632 4635
7671 12 4631 4632 4635 4636
7672 10 4633 4632 4635 4636
7673 10 4634 4632 4635 4636
7674 10 4632 4635 4636 4637
7675 10 4632 4635 4636 4638
7676 12 4632 4635 4636 4639
7677 13 4635 4636 4639 498
7678 14 4637 4636 4639 498
7679 14 4638 4636 4639 498
7680 20 3715 493 4640 4620
7681 20 4450 493 4640 4620
7682 16 493 4640 4620 4621
7683 16 493 4640 4620 4622
7684 17 493 4640 4620 4623
7685 19 4636 4639 498 3946
7686 19 4636 4639 498 4723
7687 18 4636 4639 498 4766
7688 10 4642 4641 4644 4645
7689 10 4643 4641 4644 4645
7690 11 4661 4641 4644 4645
7691 10 4641 4644 4645 4646
7692 10 4641 4644 4645 4647
7693 12 4641 4644 4645 4648
7694 12 4644 4645 4648 4649
7695 10 4646 4645 4648 4649
7696 10 4647 4645 4648 4649
7697 10 4645 4648 4649 4650
7698 10 4645 4648 4649 4651
7699 12 4645 4648 4649 4652
7700 12 4648 4649 4652 4653
7701 10 4650 4649 4652 4653
7702 10 4651 4649 4652 4653
7703 10 4649 4652 4653 4654
7704 10 4649 4652 4653 4655
7705 12 4649 4652 4653 4656
7706 12 4652 4653 4656 4657
7707 10 4654 4653 4656 4657
7708 10 4655 4653 4656 4657
7709 10 4653 4656 4657 4658
7710 10 4653 4656 4657 4659
7711 12 4653 4656 4657 4660
7712 13 4656 4657 4660 499
7713 14 4658 4657 4660 499
7714 14 4659 4657 4660 499
7715 20 1029 494 4661 4641
7716 20 3778 494 4661 4641
7717 20 4513 494 4661 4641
7718 16 494 4661 4641 4642
7719 16 494 4661 4641 4643
7720 17 494 4661 4641 4644
7721 19 4657 4660 499 1260
7722 19 4657 4660 499 4765
7723 18 4657 4660 499 4787
7724 10 4663 4662 4665 4666
7725 10 4664 4662 4665 4666
7726 11 4682 4662 4665 4666
7727 10 4662 4665 4666 4667
7728 10 4662 4665 4666 4668
7729 12 4662 4665 4666 4669
7730 12 4665 4666 4669 4670
7731 10 4667 4666 4669 4670
7732 10 4668 4666 4669 4670
7733 10 4666 4669 4670 4671
7734 10 4666 4669 4670 4672
7735 12 4666 4669 4670 4673
7736 12 4669 4670 4673 4674
7737 10 4671 4670 4673 4674
7738 10 4672 4670 4673 4674
7739 10 4670 4673 4674 4675
7740 10 4670 4673 4674 4676
7741 12 4670 4673 4674 4677
7742 12 4673 4674 4677 4678
7743 10 4675 4674 4677 4678
7744 10 4676 4674 4677 4678
7745 10 4674 4677 4678 4679
7746 10 4674 4677 4678 4680
7747 12 4674 4677 4678 4681
7748 13 4677 4678 4681 500
7749 14 4679 4678 4681 500
7750 14 4680 4678 4681 500
7751 20 1071 495 4682 4662
7752 20 4555 495 4682 4662
7753 16 495 4682 4662 4663
7754 16 495 4682 4662 4664
7755 17 495 4682 4662 4665
7756 19 4678 4681 500 1323
7757 18 4678 4681 500 4808
7758 18 4678 4681 500 4829
7759 10 4684 4683 4686 4687
7760 10 4685 4683 4686 4687
7761 11 4703 4683 4686 4687
7762 10 4683 4686 4687 4688
7763 10 4683 4686 4687 4689
7764 12 4683 4686 4687 4690
7765 12 4686 4687 4690 4691
7766 10 4688 4687 4690 4691
7767 10 4689 4687 4690 4691
7768 10 4687 4690 4691 4692
7769 10 4687 4690 4691 4693
7770 12 4687 4690 4691 4694
7771 12 4690 4691 4694 4695
7772 10 4692 4691 4694 4695
7773 10 4693 4691 4694 4695
7774 10 4691 4694 4695 4696
7775 10 4691 4694 4695 4697
7776 12 4691 4694 4695 4698
7777 12 4694 4695 4698 4699
7778 10 4696 4695 4698 4699
7779 10 4697 4695 4698 4699
7780 10 4695 4698 4699 4700
7781 10 4695 4698 4699 4701
7782 12 4695 4698 4699 4702
7783 13 4698 4699 4702 501
7784 14 4700 4699 4702 501
7785 14 4701 4699 4702 501
7786 20 3841 496 4703 4683
7787 20 4618 496 4703 4683
7788 16 496 4703 4683 4684
7789 16 496 4703 4683 4685
7790 17 496 4703 4683 4686
7791 19 4699 4702 501 4030
7792 19 4699 4702 501 4807
7793 18 4699 4702 501 4850
7794 10 4705 4704 4707 4708
7795 10 4706 4704 4707 4708
7796 11 4724 4704 4707 4708
7797 10 4704 4707 4708 4709
7798 10 4704 4707 4708 4710
7799 12 4704 4707 4708 4711
7800 12 4707 4708 4711 4712
7801 10 4709 4708 4711 4712
7802 10 4710 4708 4711 4712
7803 10 4708 4711 4712 4713
7804 10 4708 4711 4712 4714
7805 12 4708 4711 4712 4715
7806 12 4711 4712 4715 4716
7807 10 4713 4712 4715 4716
7808 10 4714 4712 4715 4716
7809 10 4712 4715 4716 4717
7810 10 4712 4715 4716 4718
7811 12 4712 4715 4716 4719
7812 12 4715 4716 4719 4720
7813 10 4717 4716 4719 4720
7814 10 4718 4716 4719 4720
7815 10 4716 4719 4720 4721
7816 10 4716 4719 4720 4722
7817 12 4716 4719 4720 4723
7818 13 4719 4720 4723 498
7819 14 4721 4720 4723 498
7820 14 4722 4720 4723 498
7821 20 3883 497 4724 4704
7822 20 4597 497 4724 4704
7823 15 4745 497 4724 4704
7824 16 497 4724 4704 4705
7825 16 497 4724 4704 4706
7826 17 497 4724 4704 4707
7827 19 4720 4723 498 3946
7828 19 4720 4723 498 4639
7829 18 4720 4723 498 4766
7830 10 4726 4725 4728 4729
7831 10 4727 4725 4728 4729
7832 11 4745 4725 4728 4729
7833 10 4725 4728 4729 4730
7834 10 4725 4728 4729 4731
7835 12 4725 4728 4729 4732
7836 12 4728 4729 4732 4733
7837 10 4730 4729 4732 4733
7838 10 4731 4729 4732 4733
7839 10 4729 4732 4733 4734
7840 10 4729 4732 4733 4735
7841 12 4729 4732 4733 4736
7842 12 4732 4733 4736 4737
7843 10 4734 4733 4736 4737
7844 10 4735 4733 4736 4737
7845 10 4733 4736 4737 4738
7846 10 4733 4736 4737 4739
7847 12 4733 4736 4737 4740
7848 12 4736 4737 4740 4741
7849 10 4738 4737 4740 4741
7850 10 4739 4737 4740 4741
7851 10 4737 4740 4741 4742
7852 10 4737 4740 4741 4743
7853 12 4737 4740 4741 4744
7854 23 4740 4741 4744 524
7855 24 4742 4741 4744 524
7856 24 4743 4741 4744 524
7857 20 3883 497 4745 4725
7858 20 4597 497 4745 4725
7859 15 4724 497 4745 4725
7860 16 497 4745 4725 4726
7861 16 497 4745 4725 4727
7862 17 497 4745 4725 4728
7863 25 4741 4744 524 523
7864 10 4747 4746 4749 4750
7865 10 4748 4746 4749 4750
7866 11 4766 4746 4749 4750
7867 10 4746 4749 4750 4751
7868 10 4746 4749 4750 4752
7869 12 4746 4749 4750 4753
7870 12 4749 4750 4753 4754
7871 10 4751 4750 4753 4754
7872 10 4752 4750 4753 4754
7873 10 4750 4753 4754 4755
7874 10 4750 4753 4754 4756
7875 12 4750 4753 4754 4757
7876 12 4753 4754 4757 4758
7877 10 4755 4754 4757 4758
7878 10 4756 4754 4757 4758
7879 10 4754 4757 4758 4759
7880 10 4754 4757 4758 4760
7881 12 4754 4757 4758 4761
7882 12 4757 4758 4761 4762
7883 10 4759 4758 4761 4762
7884 10 4760 4758 4761 4762
7885 10 4758 4761 4762 4763
7886 10 4758 4761 4762 4764
7887 12 4758 4761 4762 4765
7888 13 4761 4762 4765 499
7889 14 4763 4762 4765 499
7890 14 4764 4762 4765 499
7891 20 3946 498 4766 4746
7892 20 4639 498 4766 4746
7893 20 4723 498 4766 4746
7894 16 498 4766 4746 4747
7895 16 498 4766 4746 4748
7896 17 498 4766 4746 4749
7897 19 4762 4765 499 1260
7898 19 4762 4765 499 4660
7899 18 4762 4765 499 4787
7900 10 4768 4767 4770 4771
7901 10 4769 4767 4770 4771
7902 11 4787 4767 4770 4771
7903 10 4767 4770 4771 4772
7904 10 4767 4770 4771 4773
7905 12 4767 4770 4771 4774
7906 12 4770 4771 4774 4775
7907 10 4772 4771 4774 4775
7908 10 4773 4771 4774 4775
7909 10 4771 4774 4775 4776
7910 10 4771 4774 4775 4777
7911 12 4771 4774 4775 4778
7912 12 4774 4775 4778 4779
7913 10 4776 4775 4778 4779
7914 10 4777 4775 4778 4779
7915 10 4775 4778 4779 4780
7916 10 4775 4778 4779 4781
7917 12 4775 4778 4779 4782
7918 12 4778 4779 4782 4783
7919 10 4780 4779 4782 4783
7920 10 4781 4779 4782 4783
7921 10 4779 4782 4783 4784
7922 10 4779 4782 4783 4785
7923 12 4779 4782 4783 4786
7924 13 4782 4783 4786 582
7925 14 4784 4783 4786 582
7926 14 4785 4783 4786 582
7927 20 1260 499 4787 4767
7928 20 4660 499 4787 4767
7929 20 4765 499 4787 4767
7930 16 499 4787 4767 4768
7931 16 499 4787 4767 4769
7932 17 499 4787 4767 4770
7933 19 4783 4786 582 4135
7934 19 4783 4786 582 4870
7935 18 4783 4786 582 4913
7936 10 4789 4788 4791 4792
7937 10 4790 4788 4791 4792
7938 11 4808 4788 4791 4792
7939 10 4788 4791 4792 4793
7940 10 4788 4791 4792 4794
7941 12 4788 4791 4792 4795
7942 12 4791 4792 4795 4796
7943 10 4793 4792 4795 4796
7944 10 4794 4792 4795 4796
7945 10 4792 4795 4796 4797
7946 10 4792 4795 4796 4798
7947 12 4792 4795 4796 4799
7948 12 4795 4796 4799 4800
7949 10 4797 4796 4799 4800
7950 10 4798 4796 4799 4800
7951 10 4796 4799 4800 4801
7952 10 4796 4799 4800 4802
7953 12 4796 4799 4800 4803
7954 12 4799 4800 4803 4804
7955 10 4801 4800 4803 4804
7956 10 4802 4800 4803 4804
7957 10 4800 4803 4804 4805
7958 10 4800 4803 4804 4806
7959 12 4800 4803 4804 4807
7960 13 4803 4804 4807 501
7961 14 4805 4804 4807 501
7962 14 4806 4804 4807 501
7963 20 1323 500 4808 4788
7964 20 4681 500 4808 4788
7965 15 4829 500 4808 4788
7966 16 500 4808 4788 4789
7967 16 500 4808 4788 4790
7968 17 500 4808 4788 4791
7969 19 4804 4807 501 4030
7970 19 4804 4807 501 4702
7971 18 4804 4807 501 4850
7972 10 4810 4809 4812 4813
7973 10 4811 4809 4812 4813
7974 11 4829 4809 4812 4813
7975 10 4809 4812 4813 4814
7976 10 4809 4812 4813 4815
7977 12 4809 4812 4813 4816
7978 12 4812 4813 4816 4817
7979 10 4814 4813 4816 4817
7980 10 4815 4813 4816 4817
7981 10 4813 4816 4817 4818
7982 10 4813 4816 4817 4819
7983 12 4813 4816 4817 4820
7984 12 4816 4817 4820 4821
7985 10 4818 4817 4820 4821
7986 10 4819 4817 4820 4821
7987 10 4817 4820 4821 4822
7988 10 4817 4820 4821 4823
7989 12 4817 4820 4821 4824
7990 12 4820 4821 4824 4825
7991 10 4822 4821 4824 4825
7992 10 4823 4821 4824 4825
7993 10 4821 4824 4825 4826
7994 10 4821 4824 4825 4827
7995 12 4821 4824 4825 4828
7996 13 4824 4825 4828 583
7997 14 4826 4825 4828 583
7998 14 4827 4825 4828 583
7999 20 1323 500 4829 4809
8000 20 4681 500 4829 4809
8001 15 4808 500 4829 4809
8002 16 500 4829 4809 4810
8003 16 500 4829 4809 4811
8004 17 500 4829 4809 4812
8005 19 4825 4828 583 1511
8006 19 4825 4828 583 4198
8007 18 4825 4828 583 4934
8008 10 4831 4830 4833 4834
8009 10 4832 4830 4833 4834
8010 11 4850 4830 4833 4834
8011 10 4830 4833 4834 4835
8012 10 4830 4833 4834 4836
8013 12 4830 4833 4834 4837
8014 12 4833 4834 4837 4838
8015 10 4835 4834 4837 4838
8016 10 4836 4834 4837 4838
8017 10 4834 4837 4838 4839
8018 10 4834 4837 4838 4840
8019 12 4834 4837 4838 4841
8020 12 4837 4838 4841 4842
8021 10 4839 4838 4841 4842
8022 10 4840 4838 4841 4842
8023 10 4838 4841 4842 4843
8024 10 4838 4841 4842 4844
8025 12 4838 4841 4842 4845
8026 12 4841 4842 4845 4846
8027 10 4843 4842 4845 4846
8028 10 4844 4842 4845 4846
8029 10 4842 4845 4846 4847
8030 10 4842 4845 4846 4848
8031 12 4842 4845 4846 4849
8032 13 4845 4846 4849 584
8033 14 4847 4846 4849 584
8034 14 4848 4846 4849 584
8035 20 4030 501 4850 4830
8036 20 4702 501 4850 4830
8037 20 4807 501 4850 4830
8038 16 501 4850 4830 4831
8039 16 501 4850 4830 4832
8040 17 501 4850 4830 4833
8041 19 4846 4849 584 1553
8042 19 4846 4849 584 4219
8043 10 4852 4851 4854 4855
8044 10 4853 4851 4854 4855
8045 11 4871 4851 4854 4855
8046 10 4851 4854 4855 4856
8047 10 4851 4854 4855 4857
8048 12 4851 4854 4855 4858
8049 12 4854 4855 4858 4859
8050 10 4856 4855 4858 4859
8051 10 4857 4855 4858 4859
8052 10 4855 4858 4859 4860
8053 10 4855 4858 4859 4861
8054 12 4855 4858 4859 4862
8055 12 4858 4859 4862 4863
8056 10 4860 4859 4862 4863
8057 10 4861 4859 4862 4863
8058 10 4859 4862 4863 4864
8059 10 4859 4862 4863 4865
8060 12 4859 4862 4863 4866
8061 12 4862 4863 4866 4867
8062 10 4864 4863 4866 4867
8063 10 4865 4863 4866 4867
8064 10 4863 4866 4867 4868
8065 10 4863 4866 4867 4869
8066 12 4863 4866 4867 4870
8067 13 4866 4867 4870 582
8068 14 4868 4867 4870 582
8069 14 4869 4867 4870 582
8070 20 1449 581 4871 4851
8071 20 4114 581 4871 4851
8072 15 4892 581 4871 4851
8073 16 581 4871 4851 4852
8074 16 581 4871 4851 4853
8075 17 581 4871 4851 4854
8076 19 4867 4870 582 4135
8077 19 4867 4870 582 4786
8078 18 4867 4870 582 4913
8079 10 4873 4872 4875 4876
8080 10 4874 4872 4875 4876
8081 11 4892 4872 4875 4876
8082 10 4872 4875 4876 4877
8083 10 4872 4875 4876 4878
8084 12 4872 4875 4876 4879
8085 12 4875 4876 4879 4880
8086 10 4877 4876 4879 4880
8087 10 4878 4876 4879 4880
8088 10 4876 4879 4880 4881
8089 10 4876 4879 4880 4882
8090 12 4876 4879 4880 4883
8091 12 4879 4880 4883 4884
8092 10 4881 4880 4883 4884
8093 10 4882 4880 4883 4884
8094 10 4880 4883 4884 4885
8095 10 4880 4883 4884 4886
8096 12 4880 4883 4884 4887
8097 12 4883 4884 4887 4888
8098 10 4885 4884 4887 4888
8099 10 4886 4884 4887 4888
8100 10 4884 4887 4888 4889
8101 10 4884 4887 4888 4890
8102 12 4884 4887 4888 4891
8103 13 4887 4888 4891 586
8104 14 4889 4888 4891 586
8105 14 4890 4888 4891 586
8106 20 1449 581 4892 4872
8107 20 4114 581 4892 4872
8108 15 4871 581 4892 4872
8109 16 581 4892 4872 4873
8110 16 581 4892 4872 4874
8111 17 581 4892 4872 4875
8112 19 4888 4891 586 4303
8113 19 4888 4891 586 4471
8114 19 4888 4891 586 4954
8115 10 4894 4893 4896 4897
8116 10 4895 4893 4896 4897
8117 11 4913 4893 4896 4897
8118 10 4893 4896 4897 4898
8119 10 4893 4896 4897 4899
8120 12 4893 4896 4897 4900
8121 12 4896 4897 4900 4901
8122 10 4898 4897 4900 4901
8123 10 4899 4897 4900 4901
8124 10 4897 4900 4901 4902
8125 10 4897 4900 4901 4903
8126 12 4897 4900 4901 4904
8127 12 4900 4901 4904 4905
8128 10 4902 4901 4904 4905
8129 10 4903 4901 4904 4905
8130 10 4901 4904 4905 4906
8131 10 4901 4904 4905 4907
8132 12 4901 4904 4905 4908
8133 12 4904 4905 4908 4909
8134 10 4906 4905 4908 4909
8135 10 4907 4905 4908 4909
8136 10 4905 4908 4909 4910
8137 10 4905 4908 4909 4911
8138 12 4905 4908 4909 4912
8139 13 4908 4909 4912 587
8140 14 4910 4909 4912 587
8141 14 4911 4909 4912 587
8142 20 4135 582 4913 4893
8143 20 4786 582 4913 4893
8144 20 4870 582 4913 4893
8145 16 582 4913 4893 4894
8146 16 582 4913 4893 4895
8147 17 582 4913 4893 4896
8148 19 4909 4912 587 4345
8149 18 4909 4912 587 4976
8150 10 4915 4914 4917 4918
8151 10 4916 4914 4917 4918
8152 11 4934 4914 4917 4918
8153 10 4914 4917 4918 4919
8154 10 4914 4917 4918 4920
8155 12 4914 4917 4918 4921
8156 12 4917 4918 4921 4922
8157 10 4919 4918 4921 4922
8158 10 4920 4918 4921 4922
8159 10 4918 4921 4922 4923
8160 10 4918 4921 4922 4924
8161 12 4918 4921 4922 4925
8162 12 4921 4922 4925 4926
8163 10 4923 4922 4925 4926
8164 10 4924 4922 4925 4926
8165 10 4922 4925 4926 4927
8166 10 4922 4925 4926 4928
8167 12 4922 4925 4926 4929
8168 12 4925 4926 4929 4930
8169 10 4927 4926 4929 4930
8170 10 4928 4926 4929 4930
8171 10 4926 4929 4930 4931
8172 10 4926 4929 4930 4932
8173 12 4926 4929 4930 4933
8174 13 4929 4930 4933 588
8175 14 4931 4930 4933 588
8176 14 4932 4930 4933 588
8177 20 1511 583 4934 4914
8178 20 4198 583 4934 4914
8179 20 4828 583 4934 4914
8180 16 583 4934 4914 4915
8181 16 583 4934 4914 4916
8182 17 583 4934 4914 4917
8183 19 4930 4933 588 4366
8184 19 4930 4933 588 4975
8185 18 4930 4933 588 4997
8186 10 4936 4935 4938 4939
8187 10 4937 4935 4938 4939
8188 11 4955 4935 4938 4939
8189 10 4935 4938 4939 4940
8190 10 4935 4938 4939 4941
8191 12 4935 4938 4939 4942
8192 12 4938 4939 4942 4943
8193 10 4940 4939 4942 4943
8194 10 4941 4939 4942 4943
8195 10 4939 4942 4943 4944
8196 10 4939 4942 4943 4945
8197 12 4939 4942 4943 4946
8198 12 4942 4943 4946 4947
8199 10 4944 4943 4946 4947
8200 10 4945 4943 4946 4947
8201 10 4943 4946 4947 4948
8202 10 4943 4946 4947 4949
8203 12 4943 4946 4947 4950
8204 12 4946 4947 4950 4951
8205 10 4948 4947 4950 4951
8206 10 4949 4947 4950 4951
8207 10 4947 4950 4951 4952
8208 10 4947 4950 4951 4953
8209 12 4947 4950 4951 4954
8210 13 4950 4951 4954 586
8211 14 4952 4951 4954 586
8212 14 4953 4951 4954 586
8213 20 4261 585 4955 4935
8214 20 4429 585 4955 4935
8215 16 585 4955 4935 4936
8216 16 585 4955 4935 4937
8217 17 585 4955 4935 4938
8218 19 4951 4954 586 4303
8219 19 4951 4954 586 4471
8220 19 4951 4954 586 4891
8221 10 4957 4956 4959 4960
8222 10 4958 4956 4959 4960
8223 11 4976 4956 4959 4960
8224 10 4956 4959 4960 4961
8225 10 4956 4959 4960 4962
8226 12 4956 4959 4960 4963
8227 12 4959 4960 4963 4964
8228 10 4961 4960 4963 4964
8229 10 4962 4960 4963 4964
8230 10 4960 4963 4964 4965
8231 10 4960 4963 4964 4966
8232 12 4960 4963 4964 4967
8233 12 4963 4964 4967 4968
8234 10 4965 4964 4967 4968
8235 10 4966 4964 4967 4968
8236 10 4964 4967 4968 4969
8237 10 4964 4967 4968 4970
8238 12 4964 4967 4968 4971
8239 12 4967 4968 4971 4972
8240 10 4969 4968 4971 4972
8241 10 4970 4968 4971 4972
8242 10 4968 4971 4972 4973
8243 10 4968 4971 4972 4974
8244 12 4968 4971 4972 4975
8245 13 4971 4972 4975 588
8246 14 4973 4972 4975 588
8247 14 4974 4972 4975 588
8248 20 4345 587 4976 4956
8249 20 4912 587 4976 4956
8250 16 587 4976 4956 4957
8251 16 587 4976 4956 4958
8252 17 587 4976 4956 4959
8253 19 4972 4975 588 4366
8254 19 4972 4975 588 4933
8255 18 4972 4975 588 4997
8256 10 4978 4977 4980 4981
8257 10 4979 4977 4980 4981
8258 11 4997 4977 4980 4981
8259 10 4977 4980 4981 4982
8260 10 4977 4980 4981 4983
8261 12 4977 4980 4981 4984
8262 12 4980 4981 4984 4985
8263 10 4982 4981 4984 4985
8264 10 4983 4981 4984 4985
8265 10 4981 4984 4985 4986
8266 10 4981 4984 4985 4987
8267 12 4981 4984 4985 4988
8268 12 4984 4985 4988 4989
8269 10 4986 4985 4988 4989
8270 10 4987 4985 4988 4989
8271 10 4985 4988 4989 4990
8272 10 4985 4988 4989 4991
8273 12 4985 4988 4989 4992
8274 12 4988 4989 4992 4993
8275 10 4990 4989 4992 4993
8276 10 4991 4989 4992 4993
8277 10 4989 4992 4993 4994
8278 10 4989 4992 4993 4995
8279 12 4989 4992 4993 4996
8280 13 4992 4993 4996 589
8281 14 4994 4993 4996 589
8282 14 4995 4993 4996 589
8283 20 4366 588 4997 4977
8284 20 4933 588 4997 4977
8285 20 4975 588 4997 4977
8286 16 588 4997 4977 4978
8287 16 588 4997 4977 4979
8288 17 588 4997 4977 4980
8289 19 4993 4996 589 1721
8290 19 4993 4996 589 4576

