LAMMPS (2 Apr 2025)
OMP_NUM_THREADS environment is not set. Defaulting to 1 thread. (src/comm.cpp:99)
  using 1 OpenMP thread(s) per MPI task
Loaded 1 plugins from C:\Users\ahmet\AppData\Local\LAMMPS 64-bit 2Apr2025\plugins
# LAMMPS Stage 3: CG Equilibration (FENE Restore)

read_restart    2.restart
Reading restart file ...
  restart file = 2 Apr 2025, LAMMPS = 2 Apr 2025
  restoring atom style full from restart
  orthogonal box = (0 0 0) to (17.2183 17.2183 17.2183)
  1 by 1 by 1 MPI processor grid
  restoring pair style lj/cut from restart
  restoring bond style harmonic from restart
  restoring angle style harmonic from restart
  4339 atoms
  4428 bonds
  4788 angles
Finding 1-2 1-3 1-4 neighbors ...
  special bond factors lj:    0        1        1       
  special bond factors coul:  0        0        0       
     4 = max # of 1-2 neighbors
     4 = max # of 1-3 neighbors
     8 = max # of 1-4 neighbors
    12 = max # of special neighbors
  special bonds CPU = 0.001 seconds
  read_restart CPU = 0.003 seconds

neighbor        2.0 bin
neigh_modify    every 1 delay 0 check yes

# --- Phase A: Harmonic Pre-Minimization ---
bond_style      harmonic
bond_coeff      1 466.1 0.97
angle_style     harmonic
angle_coeff     1 466.1 180.0
pair_style      lj/cut 2.5
pair_coeff      * * 1.0 1.0 2.5
min_style       cg
minimize        1.0e-4 1.0e-6 1000 10000
Generated 0 of 1 mixed pair_coeff terms from geometric mixing rule
Neighbor list info ...
  update: every = 1 steps, delay = 0 steps, check = yes
  max neighbors/atom: 2000, page size: 100000
  master list distance cutoff = 4.5
  ghost atom cutoff = 5
  binsize = 2.25, bins = 8 8 8
  1 neighbor lists, perpetual/occasional/extra = 1 0 0
  (1) pair lj/cut, perpetual
      attributes: half, newton on
      pair build: half/bin/newton
      stencil: half/bin/3d
      bin: standard
WARNING: Inconsistent image flags
For more information see https://docs.lammps.org/err0027 (src/domain.cpp:1052)
Per MPI rank memory allocation (min/avg/max) = 22.44 | 22.44 | 22.44 Mbytes
   Step          Temp          E_pair         E_mol          TotEng         Press     
     20152   18.340094      1.2208936      162.49835      191.22305      35.126862    
     20202   18.340094     -1.9387761      138.24206      163.80709      31.304801    
Loop time of 0.231366 on 1 procs for 50 steps with 4339 atoms

101.3% CPU use with 1 MPI tasks x 1 OpenMP threads

Minimization stats:
  Stopping criterion = energy tolerance
  Energy initial, next-to-last, final = 
      163.719245803036   136.316297343347   136.303284187165
  Force two-norm initial, final = 39858.105 1026.3021
  Force max component initial, final = 2099.9735 185.52975
  Final line search alpha, max atom move = 0.00054720678 0.10152314
  Iterations, force evaluations = 50 91

MPI task timing breakdown:
Section |  min time  |  avg time  |  max time  |%varavg| %total
---------------------------------------------------------------
Pair    | 0.20148    | 0.20148    | 0.20148    |   0.0 | 87.08
Bond    | 0.012624   | 0.012624   | 0.012624   |   0.0 |  5.46
Neigh   | 0.011978   | 0.011978   | 0.011978   |   0.0 |  5.18
Comm    | 0.00214    | 0.00214    | 0.00214    |   0.0 |  0.92
Output  | 0          | 0          | 0          |   0.0 |  0.00
Modify  | 0          | 0          | 0          |   0.0 |  0.00
Other   |            | 0.003147   |            |       |  1.36

Nlocal:           4339 ave        4339 max        4339 min
Histogram: 1 0 0 0 0 0 0 0 0 0
Nghost:          12879 ave       12879 max       12879 min
Histogram: 1 0 0 0 0 0 0 0 0 0
Neighs:         698282 ave      698282 max      698282 min
Histogram: 1 0 0 0 0 0 0 0 0 0

Total # of neighbors = 698282
Ave neighs/atom = 160.93155
Ave special neighs/atom = 6.6042867
Neighbor list builds = 1
Dangerous builds = 0

# --- Phase B: Switch to FENE ---
delete_bonds    all angle 1-1 remove
System init for delete_bonds ...
Generated 0 of 1 mixed pair_coeff terms from geometric mixing rule
Deleting bonds ...
  4428 total bonds, 4428 turned on, 0 turned off
  0 total angles, 0 turned on, 0 turned off
  0 total dihedrals, 0 turned on, 0 turned off
  0 total impropers, 0 turned on, 0 turned off
bond_style      fene
special_bonds   fene
Finding 1-2 1-3 1-4 neighbors ...
  special bond factors lj:    0        1        1       
  special bond factors coul:  0        1        1       
     4 = max # of 1-2 neighbors
    12 = max # of special neighbors
  special bonds CPU = 0.000 seconds
bond_coeff      1 30.0 1.5 1.0 1.0
minimize        1.0e-4 1.0e-6 1000 10000
Generated 0 of 1 mixed pair_coeff terms from geometric mixing rule
WARNING: Inconsistent image flags
For more information see https://docs.lammps.org/err0027 (src/domain.cpp:1052)
Per MPI rank memory allocation (min/avg/max) = 22.44 | 22.44 | 22.44 Mbytes
   Step          Temp          E_pair         E_mol          TotEng         Press     
     20202   18.340094     -1.9387761      23.67994       49.244965      40.333073    
     20385   18.340094     -5.4574967      20.658964      42.705268      12.098818    
Loop time of 0.842472 on 1 procs for 183 steps with 4339 atoms

100.2% CPU use with 1 MPI tasks x 1 OpenMP threads

Minimization stats:
  Stopping criterion = energy tolerance
  Energy initial, next-to-last, final = 
      21.7411636977596   15.2029602048041    15.201466975266
  Force two-norm initial, final = 12569.812 107.72696
  Force max component initial, final = 3750.606 21.485697
  Final line search alpha, max atom move = 0.0030203075 0.064893409
  Iterations, force evaluations = 183 343

MPI task timing breakdown:
Section |  min time  |  avg time  |  max time  |%varavg| %total
---------------------------------------------------------------
Pair    | 0.74459    | 0.74459    | 0.74459    |   0.0 | 88.38
Bond    | 0.04608    | 0.04608    | 0.04608    |   0.0 |  5.47
Neigh   | 0.032531   | 0.032531   | 0.032531   |   0.0 |  3.86
Comm    | 0.007988   | 0.007988   | 0.007988   |   0.0 |  0.95
Output  | 0          | 0          | 0          |   0.0 |  0.00
Modify  | 0          | 0          | 0          |   0.0 |  0.00
Other   |            | 0.01129    |            |       |  1.34

Nlocal:           4339 ave        4339 max        4339 min
Histogram: 1 0 0 0 0 0 0 0 0 0
Nghost:          13016 ave       13016 max       13016 min
Histogram: 1 0 0 0 0 0 0 0 0 0
Neighs:         702906 ave      702906 max      702906 min
Histogram: 1 0 0 0 0 0 0 0 0 0

Total # of neighbors = 702906
Ave neighs/atom = 161.99723
Ave special neighs/atom = 2.0410233
Neighbor list builds = 3
Dangerous builds = 0

# --- Phase C: Dynamics ---
reset_timestep  0
timestep        0.005
velocity        all create 1.0 12345

fix             1 all nvt temp 1.0 1.0 1.0
thermo          1000
run             10000
Generated 0 of 1 mixed pair_coeff terms from geometric mixing rule
WARNING: Inconsistent image flags
For more information see https://docs.lammps.org/err0027 (src/domain.cpp:1052)
Per MPI rank memory allocation (min/avg/max) = 20.19 | 20.19 | 20.19 Mbytes
   Step          Temp          E_pair         E_mol          TotEng         Press     
         0   1             -5.4574967      20.658964      16.701121     -2.6368619    
      1000   0.87869859    -4.7885356      21.147502      17.676711     -1.8057237    
      2000   0.9882939     -4.6400952      21.265755      18.107759     -1.8996982    
      3000   1.0218752     -4.6776861      21.258178      18.112952     -1.7418043    
      4000   1.0157368     -4.6604044      21.239914      18.102763     -1.7417463    
      5000   1.0008711     -4.6995072      21.223323      18.024777     -1.5150034    
      6000   0.97172272    -4.7062624      21.246019      17.997005     -1.5713552    
      7000   0.96815954    -4.6846264      21.23649       18.003768     -1.5698807    
      8000   0.99568361    -4.6957586      21.233048      18.03047      -1.6415565    
      9000   1.0089472     -4.700723       21.221154      18.033503     -1.4349327    
     10000   1.0065339     -4.6758241      21.215404      18.049032     -1.6008331    
Loop time of 19.9162 on 1 procs for 10000 steps with 4339 atoms

Performance: 216909.273 tau/day, 502.105 timesteps/s, 2.179 Matom-step/s
97.3% CPU use with 1 MPI tasks x 1 OpenMP threads

MPI task timing breakdown:
Section |  min time  |  avg time  |  max time  |%varavg| %total
---------------------------------------------------------------
Pair    | 17.737     | 17.737     | 17.737     |   0.0 | 89.06
Bond    | 0.22225    | 0.22225    | 0.22225    |   0.0 |  1.12
Neigh   | 1.3294     | 1.3294     | 1.3294     |   0.0 |  6.67
Comm    | 0.24271    | 0.24271    | 0.24271    |   0.0 |  1.22
Output  | 0.000196   | 0.000196   | 0.000196   |   0.0 |  0.00
Modify  | 0.29229    | 0.29229    | 0.29229    |   0.0 |  1.47
Other   |            | 0.09238    |            |       |  0.46

Nlocal:           4339 ave        4339 max        4339 min
Histogram: 1 0 0 0 0 0 0 0 0 0
Nghost:          12977 ave       12977 max       12977 min
Histogram: 1 0 0 0 0 0 0 0 0 0
Neighs:         701514 ave      701514 max      701514 min
Histogram: 1 0 0 0 0 0 0 0 0 0

Total # of neighbors = 701514
Ave neighs/atom = 161.67642
Ave special neighs/atom = 2.0410233
Neighbor list builds = 121
Dangerous builds = 0
unfix           1

write_data      system_equilibrated.data
System init for write_data ...
Generated 0 of 1 mixed pair_coeff terms from geometric mixing rule
WARNING: Not all mixed pair coeffs generated from mixing. Use write_data with 'pair ij' option to store all pair coeffs. (src/write_data.cpp:364)
Total wall time: 0:00:21
