LAMMPS data file via write_data, version 2 Apr 2025, timestep = 23, units = lj

4325 atoms
2 atom types
4410 bonds
1 bond types
4752 angles
1 angle types

0 17.19976 xlo xhi
0 17.19976 ylo yhi
0 17.19976 zlo zhi

Masses

1 1
2 1

Pair Coeffs # soft

1 0
2 0

Bond Coeffs # harmonic

1 466.1 0.97

Angle Coeffs # harmonic

1 466.1 180

Atoms # full

127 1 1 0 0.08748295826217822 0.2997688580356128 17.199704949939576 0 0 -1
206 1 1 0 3.4035792029279746 0.03604740904952421 0.08855830648005941 0 0 0
208 1 1 0 3.3686938615603568 0.07156466580565746 0.4946732154734179 0 0 0
207 1 1 0 3.368691409398724 0.07092093977065952 0.28957928072237477 0 0 0
209 1 1 0 3.385514924420954 0.05431513123932159 0.6694559725646424 0 0 0
210 1 1 0 3.409296811812494 0.03168894439895001 0.8273775992827952 0 0 0
211 1 1 0 3.4297580968807972 0.010201462155885306 0.9843080891988988 0 0 0
3 1 2 0 6.879731892817892 0.0002664595986603751 17.199757932807348 0 0 -1
266 1 1 0 6.880160930904398 0.02834074498937145 0.15232980962637166 0 0 0
267 1 1 0 6.8802818634206915 0.0433418712703439 0.32266292830239424 0 0 0
268 1 1 0 6.879800611450406 0.04422855379069896 0.4931022392010222 0 0 0
269 1 1 0 6.87980951082883 0.03500387114392284 0.65875122229112 0 0 0
270 1 1 0 6.878888342522821 0.022196542680310644 0.8210228430594282 0 0 0
271 1 1 0 6.8795801144099045 0.007745821257614266 0.983221666858382 0 0 0
257 1 1 0 8.845245398428021 0.012952377960883239 0.008079240104143471 0 0 0
259 1 1 0 9.174243695758225 0.005735631700898298 0.0035920545508826727 0 0 0
256 1 1 0 8.68165127461031 0.005079434425337007 0.006270550601219433 0 0 0
258 1 1 0 9.009135419104561 0.015495485897016869 0.009440131937502243 0 0 0
332 1 1 0 10.319891620800531 1.146284422681592 0.0028375550856532565 0 0 0
334 1 1 0 10.319872087127848 1.4742957251796316 0.008959771032114663 0 0 0
352 1 1 0 10.318858460835914 0.0018501228517454804 1.146418402016615 0 0 0
353 1 1 0 10.317421643299001 0.00818340135697086 1.3105423725235446 0 0 0
354 1 1 0 10.318474773543809 0.007588929668595674 1.474348793860793 0 0 0
333 1 1 0 10.319871226096422 1.3106907381628015 0.010547238149092525 0 0 0
313 1 1 0 11.6300409334645 0.009463524337504135 0.009503398271024236 0 0 0
317 1 1 0 12.285007733486905 0.008096424328659481 0.008112520768809375 0 0 0
312 1 1 0 11.465591613562978 0.0036066166535415603 0.003621639992204953 0 0 0
314 1 1 0 11.79457518939449 0.008075214621602692 0.00810641829172655 0 0 0
316 1 1 0 12.121231432945764 0.006281412391924583 0.006277850997032555 0 0 0
315 1 1 0 11.958334873867745 0.006277185077544341 0.006319689661062104 0 0 0
318 1 1 0 12.449598392784873 0.009470121344061515 0.009438334999447127 0 0 0
373 1 1 0 13.759771938122984 1.3104162631621687 0.0057759655146302985 0 0 0
374 1 1 0 13.75978702932144 1.4744629716152737 0.006194273083785807 0 0 0
393 1 1 0 13.759775780005343 0.0080794544886329 1.3105217265107325 0 0 0
392 1 1 0 13.759778834330977 0.0018062525026111384 1.1462890866464794 0 0 0
394 1 1 0 13.759800168486642 0.007547457398908375 1.474315578487963 0 0 0
319 1 1 0 12.614041032903767 0.003640543893922523 0.003623036294495765 0 0 0
372 1 1 0 13.759786492264631 1.1464165690913375 0.000797414762670602 0 0 0
156 1 1 0 15.397972374247603 0.005617417538252012 0.0056217061414725825 0 0 0
158 1 1 0 15.070417020006605 0.012421005617198668 0.012403352667900264 0 0 0
159 1 1 0 14.905488228450897 0.004778284658489948 0.004706257803990363 0 0 0
157 1 1 0 15.234521088492903 0.010650677320259773 0.01059085835093371 0 0 0
151 1 1 0 16.216952098831825 0.000590567716563194 0.0005300563573462222 0 0 0
146 1 1 0 17.035938752823334 17.199278266327248 17.199469666814235 0 -1 -1
149 1 1 0 16.544571857089533 0.0003876942706220126 0.00033400633312885726 0 0 0
150 1 1 0 16.38081272114515 0.0009057366042601919 0.0008648516157427012 0 0 0
340 1 1 0 10.319850039939627 2.4567600013895303 0.0074523707869094714 0 0 0
341 1 1 0 10.319838707595068 2.6189269609090076 0.022209579221831845 0 0 0
342 1 1 0 10.319865084764551 2.781113352756901 0.03483001395523078 0 0 0
344 1 1 0 10.319779659056008 3.117217034462098 0.04335112200763726 0 0 0
335 1 1 0 10.319837623529779 1.637985351537297 0.003983065090080628 0 0 0
343 1 1 0 10.319898731991131 2.9468048005878105 0.044290830912806244 0 0 0
376 1 1 0 13.759793114781296 1.8016430610637777 0.005538438413729063 0 0 0
377 1 1 0 13.75979932530216 1.9654869241393202 0.006205786691565122 0 0 0
378 1 1 0 13.75980162245106 2.1295663075709297 0.005770406882141959 0 0 0
379 1 1 0 13.759805948093703 2.293509604566336 0.0008217721613235822 0 0 0
375 1 1 0 13.759788116372716 1.6382598601043155 0.005545049429981799 0 0 0
406 1 1 0 0.036984865882084564 3.4772277190110206 0.09518414800936348 0 0 0
407 1 1 0 0.06891863967185509 3.5085902177472206 0.2931251842397513 0 0 0
408 1 1 0 0.06987552213762684 3.5097838902210756 0.49502720442863657 0 0 0
410 1 1 0 0.031409058682347446 3.471289255332542 0.8265633965976641 0 0 0
411 1 1 0 0.009968664036810125 3.4498951939439984 0.9833716246571083 0 0 0
409 1 1 0 0.052652864984902605 3.4925490658874314 0.6692002425699772 0 0 0
7 1 2 0 3.440012 3.439992 9.5e-05 0 0 0
467 1 1 0 7.202592651025653 3.396809154083573 0.00031115994642640657 0 0 0
468 1 1 0 7.372969864582433 3.395779208246262 17.199562587349348 0 0 -1
492 1 1 0 6.882690306104873 4.586295818191996 17.19973948632867 0 0 -1
506 1 1 0 6.842262774281204 3.402398343639306 0.09485409663582368 0 0 0
507 1 1 0 6.8107139338244895 3.370815903447848 0.2933578847932569 0 0 0
508 1 1 0 6.810191569097094 3.3703012957261747 0.49518853568296356 0 0 0
509 1 1 0 6.827353520194319 3.3874043914892553 0.6689484909416444 0 0 0
510 1 1 0 6.849726059301889 3.409719083398521 0.8266553505895576 0 0 0
511 1 1 0 6.870390309429586 3.430414051388262 0.9838665413017742 0 0 0
512 1 1 0 6.884636666822846 3.44461685295828 1.1456990161296468 0 0 0
513 1 1 0 6.892358921568623 3.4523719887454667 1.310695174604878 0 0 0
514 1 1 0 6.890476008928556 3.4505029279954376 1.4747878498581493 0 0 0
486 1 1 0 6.851706321875397 3.5924240240006924 17.199571577248868 0 0 -1
475 1 1 0 8.518039551745982 3.444109688048305 17.199113419599747 0 0 -1
472 1 1 0 8.025926173882626 3.442833651098679 0.0010589493274938873 0 0 0
473 1 1 0 8.19084675558245 3.451160636328198 0.003011580013129633 0 0 0
474 1 1 0 8.354120037775317 3.4499769913013973 0.00243675386545888 0 0 0
480 1 1 0 9.336269047760753 3.4494097613910615 0.009492635510135974 0 0 0
481 1 1 0 9.493294091561582 3.4712380050630713 0.030208558106721878 0 0 0
484 1 1 0 10.026582954348246 3.5088744174874487 0.0690869478430306 0 0 0
547 1 1 0 10.613139865611853 3.5097170338528216 0.06862696742467254 0 0 0
548 1 1 0 10.81494563309573 3.50939341618018 0.0698937428006007 0 0 0
345 1 1 0 10.319812750395535 3.2875698543889422 0.028218809049740376 0 0 0
482 1 1 0 9.650757635646897 3.4922989530440964 0.05247910873729235 0 0 0
483 1 1 0 9.824762032416437 3.509965164553631 0.06963962862845872 0 0 0
485 1 1 0 10.22485048038772 3.4770136914306025 0.03770435488137083 0 0 0
546 1 1 0 10.414791251872408 3.4775847846795194 0.03728227871130537 0 0 0
550 1 1 0 11.146396964825227 3.4691080762812465 0.03131895960393623 0 0 0
551 1 1 0 11.30365657939125 3.449038395876982 0.009886170909967781 0 0 0
556 1 1 0 12.121562888858213 3.4336963201256157 0.005088916663701096 0 0 0
557 1 1 0 12.28518494240791 3.4318536342309156 0.013008593438919566 0 0 0
558 1 1 0 12.449048344285133 3.4305467900687896 0.015487340437811992 0 0 0
549 1 1 0 10.988722303389341 3.4923904558639647 0.05263406485548205 0 0 0
10 1 2 0 13.759693252919098 3.440099627776059 17.199566887426474 0 0 -1
586 1 1 0 13.760038695363743 3.4681633427937566 0.15240751961505908 0 0 0
587 1 1 0 13.76025310709106 3.483250161613549 0.3227145235975026 0 0 0
588 1 1 0 13.75967328272311 3.4840986664417777 0.49307444454352545 0 0 0
589 1 1 0 13.759585540816516 3.4749876039982426 0.6588257477539478 0 0 0
590 1 1 0 13.758725762198255 3.4621974454403173 0.82102120728437 0 0 0
591 1 1 0 13.759357653917109 3.447855556563717 0.9831740902910633 0 0 0
592 1 1 0 13.761140580285833 3.436859198417155 1.1459121505556005 0 0 0
593 1 1 0 13.763069350442384 3.4286218341417523 1.3111309509779683 0 0 0
594 1 1 0 13.76230297524374 3.4299376739412035 1.4739885045727423 0 0 0
559 1 1 0 12.614184840489123 3.4363754796570603 0.005764432277575834 0 0 0
437 1 1 0 15.234583114291981 3.430771392248649 0.010530229585161243 0 0 0
438 1 1 0 15.070273853587691 3.4298300322087214 0.012487773761359625 0 0 0
436 1 1 0 15.398169086854582 3.43348263000393 0.005698953765540039 0 0 0
439 1 1 0 14.905445837041183 3.436285546158421 0.004678288462308579 0 0 0
412 1 1 0 17.19379068682864 3.433947346527877 1.1452339630750759 -1 0 0
413 1 1 0 17.184021251684538 3.4242116977657133 1.3115176137854054 -1 0 0
414 1 1 0 17.186727660562568 3.426891820765963 1.474359544302042 -1 0 0
426 1 1 0 17.047563597234575 3.4689786157815665 17.19950527195301 0 0 -1
431 1 1 0 16.216412751273268 3.4469933279698957 0.0003412463006665237 0 0 0
429 1 1 0 16.541009753397123 3.474643832387122 0.00011759078446210361 0 0 0
430 1 1 0 16.378735820643584 3.460034509199071 0.00104451792175208 0 0 0
494 1 1 0 6.888831532475132 4.914330727366552 17.199749850282537 0 0 -1
496 1 1 0 6.8759242334699024 5.241878872867572 17.19975550537726 0 0 -1
499 1 1 0 6.877101832515754 5.73354294954057 3.197540225977758e-05 0 0 0
500 1 1 0 6.88734575360263 5.896679364049409 1.234495610709293e-05 0 0 0
498 1 1 0 6.869390251473293 5.5691548312956725 1.1362401403978043e-05 0 0 0
626 1 1 0 0.036229160289837754 6.843859489696886 0.08865335040862544 0 0 0
628 1 1 0 0.07168543312769192 6.808310023404647 0.494761019813974 0 0 0
629 1 1 0 0.05432228323327592 6.8256038392302765 0.669715783030715 0 0 0
631 1 1 0 0.010271925270519724 6.869622670519961 0.9840745663775146 0 0 0
627 1 1 0 0.07100106625061386 6.808923826482402 0.289664932825283 0 0 0
630 1 1 0 0.03178446044519952 6.848128638328974 0.8272879157467126 0 0 0
12 1 2 0 3.43965899291166 6.878951653204931 17.199149566295482 0 0 -1
706 1 1 0 3.403670326205241 6.843377800655223 0.08849521605882268 0 0 0
707 1 1 0 3.369100899496627 6.809758099647776 0.2896783363760272 0 0 0
708 1 1 0 3.368305337150703 6.808042162868752 0.49470236576217896 0 0 0
709 1 1 0 3.385634856474694 6.825458947438563 0.6698224713566633 0 0 0
710 1 1 0 3.408148350242371 6.846890501285233 0.8273434597295908 0 0 0
711 1 1 0 3.4296401380332777 6.869139825630394 0.9838042297228871 0 0 0
712 1 1 0 3.4445104057658065 6.88573023319795 1.1454682269706866 0 0 0
713 1 1 0 3.4524781053120077 6.896094161018559 1.310971742016754 0 0 0
714 1 1 0 3.4511730329778643 6.8943542071564385 1.4746076031072883 0 0 0
672 1 1 0 4.585716301223023 6.8854742952682555 0.00458563266897079 0 0 0
673 1 1 0 4.750572329256032 6.894803778067661 0.012495125772666007 0 0 0
674 1 1 0 4.914737291519763 6.892463642431878 0.01116046119039031 0 0 0
680 1 1 0 5.896740497058517 6.887763057332354 0.00045819093033110884 0 0 0
681 1 1 0 6.058858650439296 6.90213074820488 0.0010588918721818497 0 0 0
675 1 1 0 5.077942803101357 6.885235360390918 0.006050360611304162 0 0 0
682 1 1 0 6.221055410904705 6.9149551826898294 0.0002023530946559378 0 0 0
685 1 1 0 6.727480711153268 6.908201256663107 17.199561199224586 0 0 -1
726 1 1 0 6.917135883316781 6.917558363728304 0.09481918374935036 0 0 0
727 1 1 0 6.94860553053008 6.949700861016888 0.2931651154224605 0 0 0
728 1 1 0 6.949727335961223 6.9493868182632745 0.4950613838931594 0 0 0
729 1 1 0 6.932498083136441 6.932377919118021 0.6688914662590386 0 0 0
730 1 1 0 6.911209743329851 6.909103888664276 0.8265304849748225 0 0 0
731 1 1 0 6.889779916322671 6.889044981511696 0.9837714007402806 0 0 0
732 1 1 0 6.874114336149766 6.876338498215466 1.1456044930270506 0 0 0
733 1 1 0 6.864410810981298 6.870433424133695 1.3107119236990667 0 0 0
734 1 1 0 6.866882206282257 6.871827913023523 1.4746498044019538 0 0 0
14 1 2 0 10.31912341956223 6.879345475824269 0.0007330551327203777 0 0 0
766 1 1 0 10.408450152100915 6.8436997012337395 0.03617435543951769 0 0 0
767 1 1 0 10.609467854311433 6.808492216028573 0.07105293968871032 0 0 0
768 1 1 0 10.81455800190678 6.8084228413435515 0.0716519222206293 0 0 0
786 1 1 0 10.283770937176554 6.968475900472161 0.03627939716543056 0 0 0
787 1 1 0 10.24885850029035 7.169588663312745 0.0714763138891534 0 0 0
788 1 1 0 10.248213160916297 7.374654315748284 0.07152201541809575 0 0 0
789 1 1 0 10.265498123102294 7.54944543620742 0.05418097375100651 0 0 0
790 1 1 0 10.288065765898365 7.707102113510867 0.030542294094175963 0 0 0
770 1 1 0 11.147094201797364 6.849397510851776 0.0317396044168825 0 0 0
777 1 1 0 12.285348395955346 6.890526337246362 0.0024918942411003026 0 0 0
778 1 1 0 12.449467633590338 6.891980477193176 0.003225804818159891 0 0 0
769 1 1 0 10.989362837924597 6.825767298911123 0.05435038499028942 0 0 0
771 1 1 0 11.304220748421224 6.870255357135705 0.01021465126735213 0 0 0
15 1 2 0 13.760274562434816 6.8809937883411445 17.19962327078368 0 0 -1
779 1 1 0 12.613855264235582 6.884830048001113 0.0013553813499153718 0 0 0
783 1 1 0 13.26618945856173 6.793536049238613 17.19959469201197 0 0 -1
784 1 1 0 13.459983964531583 6.792374596805696 0.0005507634433201944 0 0 0
665 1 1 0 13.867112696395319 6.829437969528698 17.19952636592207 0 0 -1
827 1 1 0 13.75955770730601 7.207547196873511 0.00014808000526138687 0 0 0
828 1 1 0 13.759752888421483 7.3713273100376675 17.19975988747 0 0 -1
660 1 1 0 14.743521938502854 6.868835465900478 0.0004762427598384509 0 0 0
662 1 1 0 14.424991818521093 6.814796906356308 0.0002418146764020428 0 0 0
655 1 1 0 15.561331337482343 6.886580787928061 0.006043904035792493 0 0 0
656 1 1 0 15.398238616031243 6.887465379258806 0.0007332649334061279 0 0 0
661 1 1 0 14.58427519785736 6.843631464754829 0.0011321846928229382 0 0 0
632 1 1 0 17.195158508215293 6.884484864804533 1.1457560894400527 -1 0 0
633 1 1 0 17.18725290748086 6.892396372892831 1.3105730191009772 -1 0 0
634 1 1 0 17.188576218643693 6.891088969119133 1.4748005482981223 -1 0 0
653 1 1 0 15.889472724538251 6.888837670816389 0.01250932358923576 0 0 0
652 1 1 0 16.05403544191167 6.883244624628071 0.004584797198668042 0 0 0
654 1 1 0 15.724988624600904 6.887832956226981 0.011165549404368147 0 0 0
692 1 1 0 3.4446013916807963 8.025443669963355 0.0058442866184069565 0 0 0
693 1 1 0 3.4525347498800127 8.190840378911663 0.01613827330292372 0 0 0
700 1 1 0 3.4403994806342744 9.336830823377358 0.01200256483248845 0 0 0
694 1 1 0 3.451195988768624 8.35452450876342 0.014461229431412662 0 0 0
695 1 1 0 3.446079360791976 8.51782551321165 0.005512871023810085 0 0 0
791 1 1 0 10.309622368081769 7.864254607246494 0.009709768742394341 0 0 0
800 1 1 0 10.320334541901154 9.33614109001832 0.011020331636812309 0 0 0
833 1 1 0 13.75691091870437 8.190452110976796 0.0029446698659192677 0 0 0
834 1 1 0 13.757248053923112 8.354049724007604 0.002595080474709559 0 0 0
835 1 1 0 13.760501122121699 8.5179393698047 17.19911086021286 0 0 -1
840 1 1 0 13.750238163696029 9.33603617073982 0.009580894256568452 0 0 0
832 1 1 0 13.758559080352843 8.026473174779621 0.0012760477601167402 0 0 0
614 1 1 0 17.191011153198332 8.354625725978597 0.00872679384083836 -1 0 0
618 1 1 0 17.190513809609584 9.009736857356733 0.009252403918204893 -1 0 0
615 1 1 0 17.193090230391444 8.51847364177756 0.006687593722626484 -1 0 0
616 1 1 0 17.193355357777556 8.681300087900576 0.006400239889541095 -1 0 0
617 1 1 0 17.19170881780872 8.845199619834366 0.008085279292689282 -1 0 0
619 1 1 0 17.196428338856023 9.174011718110084 0.003365330362745274 -1 0 0
612 1 1 0 17.196193068187085 8.025713276266 0.0035065274097235547 -1 0 0
613 1 1 0 17.190232663550695 8.18996612722561 0.009500152326231212 -1 0 0
16 1 2 0 0.00014587678469085935 10.319619705660225 17.199718338110046 0 0 -1
871 1 1 0 0.007380454062579257 10.319854146516908 0.9833364499867507 0 0 0
866 1 1 0 0.028819145997802997 10.319785947866672 0.1523040567099524 0 0 0
867 1 1 0 0.043775869381113254 10.319904038363967 0.3227529691643866 0 0 0
868 1 1 0 0.043805980800369224 10.319812887649459 0.4930710026073926 0 0 0
869 1 1 0 0.034854536220252016 10.319835233240838 0.6586399157867657 0 0 0
870 1 1 0 0.020063215406671185 10.319843838674224 0.8211689775006171 0 0 0
17 1 2 0 3.4401018752257646 10.320413879274659 0.00040635470552595503 0 0 0
702 1 1 0 3.440099407456538 9.65417119237927 0.06537958849563669 0 0 0
704 1 1 0 3.4393667155613494 10.020048620940946 0.08631001795358738 0 0 0
705 1 1 0 3.4398917448867516 10.212364901085637 0.05051386827936506 0 0 0
906 1 1 0 3.4402256947034577 10.427342917143692 0.05052657218927579 0 0 0
907 1 1 0 3.4402405711212776 10.619760283360115 0.08647582912642744 0 0 0
908 1 1 0 3.4397348072140486 10.813454505566893 0.08687891432159883 0 0 0
701 1 1 0 3.4410364847038686 9.495232514909052 0.03842340235284035 0 0 0
703 1 1 0 3.440091148868528 9.826267860190748 0.08684575501804521 0 0 0
946 1 1 0 6.87955326881576 10.31991296848719 0.16377881856132942 0 0 0
947 1 1 0 6.879642295444888 10.319899376915396 0.3276390121012372 0 0 0
948 1 1 0 6.879816827102076 10.319852687551057 0.4914547259267918 0 0 0
949 1 1 0 6.880290247975908 10.319850088316178 0.655267850453674 0 0 0
950 1 1 0 6.880976204049753 10.319822205008203 0.8190116587987338 0 0 0
951 1 1 0 6.880585137202416 10.319827802039095 0.9828138746957422 0 0 0
952 1 1 0 6.878456399636264 10.319829312577573 1.1464865158318591 0 0 0
953 1 1 0 6.876431484418628 10.319832851116926 1.3105183523638853 0 0 0
954 1 1 0 6.876515222542004 10.319855901216632 1.4741154918073371 0 0 0
19 1 2 0 10.320021454220509 10.319406944160324 17.199463262509177 0 0 -1
803 1 1 0 10.32001844619113 9.826236600544329 0.08646627398275278 0 0 0
967 1 1 0 10.319758097158225 10.619764614535853 0.0866940478433108 0 0 0
801 1 1 0 10.32095661345368 9.495299987743389 0.03624216786248835 0 0 0
802 1 1 0 10.320019618478575 9.654579720233496 0.06513297995469593 0 0 0
804 1 1 0 10.319243234320767 10.020010645315613 0.08759111602665633 0 0 0
805 1 1 0 10.31978634111969 10.212588724994 0.050761223427077125 0 0 0
966 1 1 0 10.319934964576209 10.427417321042075 0.05033380978371488 0 0 0
968 1 1 0 10.319884433878508 10.813461837273218 0.08701731911180953 0 0 0
841 1 1 0 13.729585093396937 9.493237155820905 0.030255281229578393 0 0 0
843 1 1 0 13.690174132513294 9.824743068575383 0.06962244527372609 0 0 0
844 1 1 0 13.690550065243382 10.026616858654677 0.06927186445324238 0 0 0
845 1 1 0 13.722465109481956 10.22485630217081 0.037281485786679176 0 0 0
1008 1 1 0 13.69014170284934 10.814898773707151 0.06928791945861093 0 0 0
842 1 1 0 13.707248261845324 9.650947912866183 0.05255280563147374 0 0 0
905 1 1 0 13.912233143235419 10.319695107196624 0.02805208272522386 0 0 0
1006 1 1 0 13.722353291817983 10.414661291359264 0.03762742325432742 0 0 0
1007 1 1 0 13.690556448999816 10.613007947697117 0.06955769140521093 0 0 0
895 1 1 0 15.561707832187816 10.31983602448158 0.0039296972022854785 0 0 0
900 1 1 0 14.743059064742143 10.319847563176076 0.007439481540315731 0 0 0
901 1 1 0 14.580864985778542 10.3198545885268 0.022201610718632213 0 0 0
902 1 1 0 14.418550271825147 10.31982188235558 0.03484896488851296 0 0 0
904 1 1 0 14.082483584343255 10.319839027037276 0.043511008788026516 0 0 0
903 1 1 0 14.252858482138993 10.319786383343216 0.04427445082153963 0 0 0
872 1 1 0 17.19894877860023 10.319863229741625 1.1464119133849902 -1 0 0
874 1 1 0 17.19359892267336 10.31988219943679 1.4745103965795698 -1 0 0
873 1 1 0 17.194014493717937 10.3198711322497 1.3104321069112572 -1 0 0
892 1 1 0 16.05340803760374 10.319819894202974 0.0028085510188640716 0 0 0
893 1 1 0 15.889006243378361 10.319822846142694 0.010485675694634954 0 0 0
894 1 1 0 15.72543959896107 10.319822883507841 0.00893812536666128 0 0 0
910 1 1 0 3.4388499832029087 11.14445814873941 0.038450841638465474 0 0 0
916 1 1 0 3.434255036548922 12.121787601318468 0.005124054158937103 0 0 0
917 1 1 0 3.429390629836917 12.285313572110628 0.01379084919450407 0 0 0
909 1 1 0 3.439824467834667 10.985502636983924 0.06531813547573799 0 0 0
911 1 1 0 3.4395918179217784 11.302926535621683 0.011948073280238366 0 0 0
918 1 1 0 3.427479999222225 12.44869271056775 0.016094444086690703 0 0 0
971 1 1 0 10.319888105538375 11.302931544607663 0.011553492192760752 0 0 0
977 1 1 0 10.319850793275751 12.285689634022674 0.010792865096332042 0 0 0
978 1 1 0 10.31983463530752 12.448767694548179 0.011811856702605865 0 0 0
969 1 1 0 10.319891703594939 10.98547347742866 0.06512928212728336 0 0 0
970 1 1 0 10.319878778555731 11.144422870536985 0.03849208964611887 0 0 0
976 1 1 0 10.319800402533001 12.121751148290754 0.00418311848064678 0 0 0
1009 1 1 0 13.707250304579288 10.98852646559989 0.05265247807848736 0 0 0
1010 1 1 0 13.729626038733153 11.14659021440454 0.029116834667276142 0 0 0
1011 1 1 0 13.750352854395043 11.303901130057413 0.009434606823870576 0 0 0
852 1 1 0 17.19501906593711 11.46564782082616 0.004729185148454935 -1 0 0
855 1 1 0 17.19417855241565 11.958073634534074 0.005575875850420779 -1 0 0
853 1 1 0 17.187374264327467 11.63057156752954 0.01238181595416259 -1 0 0
854 1 1 0 17.189154247390242 11.794633130752153 0.010592765751410091 -1 0 0
860 1 1 0 17.19923569012326 12.776938846425805 0.000532004180454155 -1 0 0
1046 1 1 0 0.16378087122634508 13.759753719804527 17.199072357305575 0 0 -1
1049 1 1 0 0.6552236662559671 13.759808575137322 4.635853929841615e-05 0 0 0
1050 1 1 0 0.8190018953974212 13.759792444492659 0.001051964394670141 0 0 0
1051 1 1 0 0.9827134380367751 13.7597750550833 0.00015830092836936207 0 0 0
1056 1 1 0 1.8017974294426333 13.75980061243701 0.004737273657177092 0 0 0
1057 1 1 0 1.9656275510924444 13.75981321813758 0.007544191831550547 0 0 0
1059 1 1 0 2.293636982134217 13.75985220243917 0.001848017022443988 0 0 0
1055 1 1 0 1.6380235790802615 13.759779243875254 0.0007681377104100971 0 0 0
1058 1 1 0 2.1294057250845952 13.759835893729308 0.008098109931328153 0 0 0
22 1 2 0 3.4402393155684625 13.760095096911845 17.199631678705124 0 0 -1
1086 1 1 0 3.468655871968267 13.759453081759345 0.15232393322198137 0 0 0
1087 1 1 0 3.4835306570818276 13.75921943300913 0.32275064767415984 0 0 0
1088 1 1 0 3.484050604061952 13.75991782350955 0.4931114861092377 0 0 0
1089 1 1 0 3.4748234970847047 13.760057571341507 0.658792878947307 0 0 0
1090 1 1 0 3.461098965424937 13.761034086139306 0.821046686650287 0 0 0
1091 1 1 0 3.447358524064832 13.760389950441061 0.9832925029884259 0 0 0
1092 1 1 0 3.438118262000524 13.758604785662058 1.1462296168830466 0 0 0
1093 1 1 0 3.43179544240748 13.756260205609593 1.3106630605741323 0 0 0
1094 1 1 0 3.432358141936229 13.756605208383343 1.4742084977240222 0 0 0
919 1 1 0 3.4352919484376616 12.614273373066476 0.0059083832285642505 0 0 0
23 1 2 0 6.879254119503136 13.758855431892817 17.199479596397847 0 0 -1
1126 1 1 0 6.843794584237494 13.72351289932068 0.08859648464254757 0 0 0
1127 1 1 0 6.809074806354175 13.68894796009575 0.28962767633313674 0 0 0
1128 1 1 0 6.808357718533466 13.688169236223667 0.4947320980869356 0 0 0
1129 1 1 0 6.8256298158509665 13.705514360692623 0.6697183458785778 0 0 0
1130 1 1 0 6.848200729516563 13.728091514112538 0.8272976199250778 0 0 0
1131 1 1 0 6.869633656492087 13.749575636285165 0.9840923238325829 0 0 0
1132 1 1 0 6.8845443414780805 13.764487577223932 1.1457284883334855 0 0 0
1133 1 1 0 6.892413390696121 13.772385197892634 1.3105858568883375 0 0 0
1134 1 1 0 6.891122727553675 13.771078660160557 1.474830489821547 0 0 0
1113 1 1 0 8.190555809630514 13.775405273752455 0.009539339536231324 0 0 0
1114 1 1 0 8.354583726527702 13.773488316334472 0.008779703856392432 0 0 0
1116 1 1 0 8.681514072669163 13.754869626432045 0.006456460650990262 0 0 0
1118 1 1 0 9.008950943228834 13.744105412204505 0.009280300969134547 0 0 0
1112 1 1 0 8.025526579029982 13.765527205583929 0.0035143158757212738 0 0 0
1115 1 1 0 8.518048492327836 13.765340110621102 0.006717005185634297 0 0 0
1117 1 1 0 8.845246576526028 13.746808055896294 0.008112855119718326 0 0 0
1119 1 1 0 9.174283082881942 13.753796169687094 0.0033569393724127497 0 0 0
1166 1 1 0 10.319554998366995 13.788421777681389 0.15224541970145133 0 0 0
1167 1 1 0 10.319666686686773 13.803421222337887 0.32269842124858106 0 0 0
1168 1 1 0 10.320000627262845 13.803940417252408 0.4930484432581071 0 0 0
1169 1 1 0 10.319773934934599 13.79466700719857 0.6586967170231731 0 0 0
1170 1 1 0 10.320866608561465 13.780957728949456 0.8211216370178862 0 0 0
1171 1 1 0 10.319833027028578 13.767201700061642 0.9833197906088756 0 0 0
1172 1 1 0 10.318848432093278 13.758004623770994 1.1463643311700444 0 0 0
1173 1 1 0 10.31746524002544 13.751657599533226 1.3105909435607483 0 0 0
1174 1 1 0 10.31849624873502 13.752276492268262 1.474416968743148 0 0 0
979 1 1 0 10.319886481720305 12.613834992636459 0.0030289123225901706 0 0 0
1152 1 1 0 11.465416275048948 13.756262999064909 0.005783272472604983 0 0 0
1154 1 1 0 11.794524583103586 13.751767616342189 0.013010888139013336 0 0 0
1153 1 1 0 11.630594641367125 13.750401640487192 0.015533297717988262 0 0 0
1155 1 1 0 11.958127126369538 13.753582885579823 0.005105829111580688 0 0 0
1020 1 1 0 13.760131933870204 12.776455718326346 0.007087540566310606 0 0 0
1021 1 1 0 13.760834286715388 12.938823052554282 0.020107306141898935 0 0 0
1023 1 1 0 13.759919828837509 13.266762637483176 0.04392808331030821 0 0 0
1024 1 1 0 13.759542140013268 13.437071369149624 0.043772845229783496 0 0 0
1025 1 1 0 13.759516099849918 13.607590038793582 0.0287586893311266 0 0 0
1085 1 1 0 13.85482379539471 13.7971163180451 0.03729964623440668 0 0 0
1164 1 1 0 13.466649242994892 13.829468288744696 0.06872564061064763 0 0 0
1084 1 1 0 14.052948498760369 13.829126954836486 0.0691314289306525 0 0 0
1022 1 1 0 13.759947724560647 13.101163042197575 0.03469540030563391 0 0 0
1160 1 1 0 12.776079183651317 13.768910781691547 0.009844829430331475 0 0 0
1161 1 1 0 12.933298170777395 13.788918320829726 0.03128983850285123 0 0 0
1162 1 1 0 13.090957527324406 13.812200024473517 0.05255083320584839 0 0 0
1163 1 1 0 13.264796169293868 13.829223227835378 0.06977265626106258 0 0 0
1165 1 1 0 13.66481416349232 13.797252821286495 0.037131366872617734 0 0 0
1075 1 1 0 15.561743568328374 13.75911248692239 17.199089978134396 0 0 -1
1082 1 1 0 14.428721678992781 13.812377579677147 0.05250383432086152 0 0 0
1080 1 1 0 14.743575300531484 13.769342784839957 0.009527831122956631 0 0 0
1081 1 1 0 14.586392674147504 13.790051822675526 0.03021639391612901 0 0 0
1083 1 1 0 14.254929518682124 13.829470466742112 0.0695948380305844 0 0 0
185 1 1 0 0.00021771814198956463 13.923598371706579 0.00024475270167422967 0 0 0
1067 1 1 0 16.872109076976503 13.760058142624064 17.19967563177063 0 0 -1
1068 1 1 0 16.708397808593862 13.75984192669988 17.1996610165327 0 0 -1
1073 1 1 0 15.889288264610787 13.76273338154997 0.0029589626146647105 0 0 0
1074 1 1 0 15.725659646166772 13.76235202467268 0.002517122420275612 0 0 0
861 1 1 0 17.198894452688084 12.940812600528531 0.0008486014124186571 -1 0 0
862 1 1 0 17.199415128974962 13.10457983844019 0.00032485278836180687 -1 0 0
865 1 1 0 0.0004168838421882981 13.595988244528277 17.199550343676005 0 0 -1
1072 1 1 0 16.05328131297995 13.761068364658561 0.0012700736821066481 0 0 0
178 1 1 0 0.0034834320964097867 15.07038085351524 1.32682678252794e-05 0 0 0
179 1 1 0 0.0014481945755976532 14.906368928601161 2.575812786214522e-05 0 0 0
184 1 1 0 0.0003192936772040831 14.087398697905842 7.15077234348777e-05 0 0 0
183 1 1 0 3.3077654486732044e-05 14.251205634228645 9.611064683080575e-05 0 0 0
177 1 1 0 0.003358335658326588 15.234006517859399 4.8395579378598185e-06 0 0 0
236 1 1 0 3.435006892050466 15.3981102494455 0.006441387096170417 0 0 0
237 1 1 0 3.426945490151262 15.234288801640854 0.008092036520814817 0 0 0
235 1 1 0 3.4454689996567107 15.561610147781327 0.006702800365369115 0 0 0
238 1 1 0 3.424248489362687 15.070605660494655 0.009259739304357013 0 0 0
239 1 1 0 3.4339428548460944 14.905297597906108 0.0033276173386131112 0 0 0
296 1 1 0 6.885959239638914 15.398096447853295 0.006865421030553484 0 0 0
297 1 1 0 6.891112373686295 15.234598186126318 0.009813958437374669 0 0 0
298 1 1 0 6.8924176058315725 15.070199316389548 0.010181820042068567 0 0 0
295 1 1 0 6.880672002505063 15.56145343554235 0.0054663104321440404 0 0 0
299 1 1 0 6.884528806812032 14.905487212041876 0.003598956805099854 0 0 0
181 1 1 0 17.198682017485453 14.578798322553983 1.6011199659552925e-05 -1 0 0
182 1 1 0 17.199369860066167 14.415003624881468 5.015829859501507e-05 -1 0 0
180 1 1 0 17.199104315767602 14.74266082746601 1.3761622328138811e-05 -1 0 0
1 1 2 0 17.199221972208075 0.000719828197794925 0.000191798548462504 -1 0 0
167 1 1 0 0.08701462052293289 16.899884363266523 17.199729717702724 0 0 -1
168 1 1 0 0.08658572178412287 16.70611059486239 4.2007761414274254e-05 0 0 0
170 1 1 0 0.03729711464184707 16.375136278297028 1.551885634008254e-05 0 0 0
166 1 1 0 0.050458125731528275 17.09224069787521 0.00016674518708663152 0 0 0
171 1 1 0 0.011533695067736601 16.216383715803403 2.5795504265523184e-05 0 0 0
169 1 1 0 0.06523468985104261 16.534301049747057 3.275148169769154e-05 0 0 0
192 1 1 0 4.585685062294429 17.196255682309072 0.0035248384944344888 0 -1 0
214 1 1 0 3.4497178977324743 17.18851306587455 1.4748222047968764 0 -1 0
212 1 1 0 3.443532573485862 17.19510980477627 1.1456741518292204 0 -1 0
213 1 1 0 3.4501317711892145 17.187202772793356 1.3103620681503645 0 -1 0
233 1 1 0 3.455522181940426 15.88913958049095 0.009522547141175022 0 0 0
234 1 1 0 3.4536122310224147 15.72509525506126 0.008778313195046277 0 0 0
232 1 1 0 3.445641928614346 16.05415387721231 0.0035284302499334922 0 0 0
195 1 1 0 5.078557689316961 17.193094284569202 0.006719592442087243 0 -1 0
197 1 1 0 5.405182636837757 17.19168065657149 0.008121946064384837 0 -1 0
196 1 1 0 5.241361329293453 17.193365830656667 0.006432897222170565 0 -1 0
198 1 1 0 5.56970506688259 17.190500997791847 0.009269451227424024 0 -1 0
199 1 1 0 5.734045808388751 17.196378325186124 0.003407058044909886 0 -1 0
194 1 1 0 4.914703897181018 17.191056635935464 0.008750522068899775 0 -1 0
193 1 1 0 4.750086386410919 17.190270060390418 0.009538968509960511 0 -1 0
272 1 1 0 6.880990839667345 17.19682991854738 1.1460245719846527 0 -1 0
273 1 1 0 6.882943891937874 17.188532347829675 1.3109018783304605 0 -1 0
274 1 1 0 6.882314166637204 17.189692609135147 1.4741264478468472 0 -1 0
292 1 1 0 6.878557587759783 16.053389473048945 0.0005023587387346322 0 0 0
293 1 1 0 6.876710649885945 15.889346441894057 0.004887286839311405 0 0 0
294 1 1 0 6.877432067305041 15.72542427170428 0.00510419138620161 0 0 0
252 1 1 0 8.02553590670972 17.19398582431989 0.0035610158257453756 0 -1 0
253 1 1 0 8.190676435145345 17.184208816224483 0.009415147627271418 0 -1 0
255 1 1 0 8.518173771271542 17.194619983849442 0.006243977055132159 0 -1 0
254 1 1 0 8.354592658354212 17.186755698839185 0.008072306251995702 0 -1 0
346 1 1 0 10.31957790384964 17.171222231358286 0.15234676061054614 0 -1 0
348 1 1 0 10.320093729450427 17.15565199510254 0.4932085047088763 0 -1 0
350 1 1 0 10.320900336452356 17.178641225344784 0.8212112078021204 0 -1 0
347 1 1 0 10.319620120837243 17.15617285349139 0.32279308396113676 0 -1 0
349 1 1 0 10.319818062347027 17.16492401945158 0.6588530085114095 0 -1 0
351 1 1 0 10.319835778178385 17.19239203940523 0.9833654338173135 0 -1 0
386 1 1 0 13.75983345947148 17.1712229117861 0.15238081108082227 0 -1 0
387 1 1 0 13.759922039792635 17.15597705372799 0.3227455597027752 0 -1 0
388 1 1 0 13.759827406887267 17.155643663670066 0.4931244338664357 0 -1 0
389 1 1 0 13.75979550400604 17.16484205171837 0.6587539268846367 0 -1 0
390 1 1 0 13.759806018238553 17.178557052511543 0.821070673775996 0 -1 0
391 1 1 0 13.759788269069714 17.192268366272682 0.9833120478619027 0 -1 0
172 1 1 0 17.193395562638525 16.05371100045808 17.199759555875772 -1 0 -1
174 1 1 0 17.186622182686786 15.725108640028989 17.199750571613766 -1 0 -1
173 1 1 0 17.18439176921651 15.889127269623764 1.6875599710684233e-05 -1 0 0
223 1 1 0 3.396045205565839 17.199590117242522 2.946893964377863 0 -1 0
224 1 1 0 3.3959691013919002 0.0004505413434908966 3.1171758673828753 0 0 0
217 1 1 0 3.445069137749871 0.0024320159645803913 1.9656292922066139 0 0 0
218 1 1 0 3.444829241683458 0.0031596335911196387 2.1294982197693177 0 0 0
219 1 1 0 3.440483242555247 0.0012988881408845302 2.2935364784465686 0 0 0
277 1 1 0 6.869306051040442 0.011956196919358708 1.9652562533647067 0 0 0
278 1 1 0 6.867358914349396 0.014886363723018 2.129249745422673 0 0 0
279 1 1 0 6.875187150449793 0.005743443350006247 2.2941223234582524 0 0 0
276 1 1 0 6.8741467569930155 0.004923180596428398 1.8018955686773797 0 0 0
355 1 1 0 10.320571977834208 0.004767642144054305 1.638127641121414 0 0 0
361 1 1 0 10.298727440934435 0.0010520175375914188 2.6188199274530692 0 0 0
362 1 1 0 10.285091137826585 17.19973787866734 2.781230654969483 0 -1 0
356 1 1 0 10.324586120678942 0.000780432256553849 1.8018207262947998 0 0 0
360 1 1 0 10.312477808614068 2.0534409299658274e-05 2.456701773676194 0 0 0
396 1 1 0 13.759820416326537 0.0008130158694483482 1.801925314325771 0 0 0
401 1 1 0 13.759807973504026 0.0010279702345697144 2.6208748901046746 0 0 0
395 1 1 0 13.759786597790884 0.00475512232996825 1.6381482935007297 0 0 0
402 1 1 0 13.759833188330605 0.00020632027761743367 2.7847316218022606 0 0 0
416 1 1 0 0.005558892775578587 3.445460630122672 1.8021006218520947 0 0 0
418 1 1 0 0.015633723138871573 3.4555069390962094 2.128857517836568 0 0 0
419 1 1 0 0.005697721735327827 3.4455950339097003 2.294464813583733 0 0 0
417 1 1 0 0.013672823911849536 3.4535814011673285 1.9653488045886522 0 0 0
515 1 1 0 6.885556729401526 3.4455905514682668 1.638220427509979 0 0 0
516 1 1 0 6.880581368783337 3.44063742491127 1.8018516003359168 0 0 0
517 1 1 0 6.877347217569536 3.437410005749628 1.9658020837011705 0 0 0
518 1 1 0 6.876969979236786 3.437029578411541 2.1294629892134926 0 0 0
519 1 1 0 6.8786462405149535 3.4387091099498006 2.293484121038766 0 0 0
520 1 1 0 6.880423380185108 3.4404594153306056 2.457139067559117 0 0 0
521 1 1 0 6.880808041979185 3.4408415271915556 2.621002738299022 0 0 0
522 1 1 0 6.880159649506396 3.440245369368128 2.7847988343762884 0 0 0
523 1 1 0 6.87976439583424 3.4398794120253715 2.948548491378426 0 0 0
524 1 1 0 6.879514921027942 3.43968000412912 3.11234255141633 0 0 0
595 1 1 0 13.759111998968887 3.43595480723861 1.6381472146508143 0 0 0
596 1 1 0 13.75374886769909 3.445290368796959 1.801994914594459 0 0 0
597 1 1 0 13.748661278907472 3.452518515097761 1.9651576053157216 0 0 0
598 1 1 0 13.747310638073529 3.4548429836894856 2.129300372504198 0 0 0
599 1 1 0 13.755257367574615 3.4455440392327685 2.2941135743681977 0 0 0
600 1 1 0 13.770112923483278 3.4296453446810844 2.456091205483286 0 0 0
601 1 1 0 13.79161269818695 3.4071025937249795 2.612679012087169 0 0 0
602 1 1 0 13.814101349188492 3.3858000568956035 2.770151269139511 0 0 0
603 1 1 0 13.831440980061853 3.3679425285504156 2.9452816139045366 0 0 0
415 1 1 0 17.194759830384164 3.434933826054379 1.637994271334633 -1 0 0
420 1 1 0 17.189176675193586 3.4293007912335374 2.4563632502912776 -1 0 0
421 1 1 0 17.16693763633132 3.4070880027910073 2.612628709490124 -1 0 0
423 1 1 0 17.127903761879942 3.368165529107253 2.945262733844372 -1 0 0
422 1 1 0 17.145479496611667 3.3856540369593073 2.7699585153704915 -1 0 0
639 1 1 0 0.0014135863192581849 6.878489397549985 2.2935222715970465 0 0 0
643 1 1 0 4.835950119462152e-05 6.8799410343524725 2.9486266143277544 0 0 0
644 1 1 0 0.00040069834166412495 6.8796003183571655 3.112376285649072 0 0 0
637 1 1 0 0.002479991297449307 6.8774356049969505 1.9659339610384443 0 0 0
638 1 1 0 0.0031462221009322775 6.876788143412206 2.1293115513339234 0 0 0
715 1 1 0 3.446092062505437 6.885464075318305 1.6378973888475588 0 0 0
716 1 1 0 3.4407262018707394 6.873750449527101 1.8018293384880475 0 0 0
717 1 1 0 3.437540773056971 6.864359958726899 1.965662311838281 0 0 0
718 1 1 0 3.436771107524921 6.861255763258997 2.128844527377728 0 0 0
719 1 1 0 3.438655883241694 6.8723408366984104 2.294212555945681 0 0 0
720 1 1 0 3.4404234690508613 6.8919174732027715 2.4569120539524327 0 0 0
721 1 1 0 3.441053212953003 6.918401213659957 2.6153643379878817 0 0 0
722 1 1 0 3.4401075208979814 6.94530914915808 2.774222594823397 0 0 0
723 1 1 0 3.440105661022658 6.966811697968796 2.9463585078780103 0 0 0
735 1 1 0 6.874805745936363 6.873611775337717 1.6382967412985587 0 0 0
736 1 1 0 6.884964692363193 6.873646722608742 1.8018139651145124 0 0 0
737 1 1 0 6.892881619878973 6.871814165072599 1.9653754582775298 0 0 0
738 1 1 0 6.895373850729059 6.870489584815609 2.129219687896061 0 0 0
739 1 1 0 6.885661585468407 6.876321677484278 2.294360463845235 0 0 0
740 1 1 0 6.87001101413648 6.8890774761722104 2.456160909108385 0 0 0
741 1 1 0 6.848588340356198 6.909055589981152 2.613371878560382 0 0 0
742 1 1 0 6.827290882159756 6.932364750085753 2.7710646605450275 0 0 0
743 1 1 0 6.810045306082603 6.949342293690985 2.9449263770856025 0 0 0
635 1 1 0 17.193672826849866 6.8859935486420785 1.6381421687314688 -1 0 0
641 1 1 0 17.198794730593242 6.880879512699657 2.6209997890496894 -1 0 0
642 1 1 0 17.199472829555425 6.880272626058042 2.784726051634377 -1 0 0
636 1 1 0 17.199005227164193 6.880712242054713 1.8018210884452872 -1 0 0
640 1 1 0 17.199191587918214 6.880477105530447 2.4571604983521924 -1 0 0
884 1 1 0 0.043771237309612236 10.320008527827584 3.1171358226770907 0 0 0
880 1 1 0 0.007342870632197248 10.319855080500671 2.4565938089138175 0 0 0
881 1 1 0 0.020056008136413877 10.319865896209274 2.6187382916843243 0 0 0
882 1 1 0 0.03482967786415537 10.319866592232582 2.781244149346291 0 0 0
883 1 1 0 0.043834989563276916 10.319848278955464 2.9468090559182545 0 0 0
955 1 1 0 6.880549830226989 10.319841919284942 1.6380657579090943 0 0 0
956 1 1 0 6.8866719046540394 10.31988206986573 1.8017555651909538 0 0 0
957 1 1 0 6.892968328046215 10.31986923221167 1.9652905758771577 0 0 0
958 1 1 0 6.895186193186543 10.319896550894244 2.1293678308357653 0 0 0
959 1 1 0 6.88620843194029 10.319880622184549 2.293893965014345 0 0 0
960 1 1 0 6.868303259494893 10.319868069778105 2.4564821535604775 0 0 0
961 1 1 0 6.842572027326861 10.319843164937827 2.615275036832685 0 0 0
962 1 1 0 6.81464811089439 10.319824526120993 2.7744468182824797 0 0 0
963 1 1 0 6.793331904596524 10.319772119991363 2.946257677614018 0 0 0
876 1 1 0 17.194247125921333 10.319879388196277 1.8017370556335683 -1 0 0
877 1 1 0 17.19358187170118 10.319889880474788 1.965556213602502 -1 0 0
878 1 1 0 17.193973877556637 10.31986377956466 2.1296544178472723 -1 0 0
879 1 1 0 17.19892125640489 10.319872775689216 2.29358088790342 -1 0 0
875 1 1 0 17.19426834889466 10.319883488351405 1.6383260930022419 -1 0 0
1095 1 1 0 3.435212040410854 13.760457717567299 1.6381429356123307 0 0 0
1096 1 1 0 3.439186153829584 13.76667101410853 1.8017408178475398 0 0 0
1097 1 1 0 3.4413636979326707 13.772899165293921 1.965248047026319 0 0 0
1098 1 1 0 3.4423474372140674 13.775145298522563 2.1293755558551957 0 0 0
1099 1 1 0 3.440994104894735 13.766064892563888 2.2939652047150783 0 0 0
1100 1 1 0 3.4399494671219206 13.74818636613942 2.456648090424704 0 0 0
1101 1 1 0 3.438900382774374 13.722417513116246 2.615319107718787 0 0 0
1102 1 1 0 3.4400173225263404 13.69451658130931 2.7744749202942836 0 0 0
1103 1 1 0 3.4395862503195898 13.673156633574905 2.9463258393158176 0 0 0
1135 1 1 0 6.885981345575794 13.765956802451523 1.6381261639036093 0 0 0
1136 1 1 0 6.880731874603857 13.760646906213928 1.8017486314829294 0 0 0
1137 1 1 0 6.877376087822339 13.757328747229423 1.9658380200819883 0 0 0
1138 1 1 0 6.876831410544667 13.756721340841196 2.1293119596683057 0 0 0
1139 1 1 0 6.878465239478925 13.758384989117914 2.2934381163224193 0 0 0
1140 1 1 0 6.880509458578867 13.76042236255641 2.457048641260609 0 0 0
1141 1 1 0 6.8809148361754895 13.760801798623874 2.6209001821856144 0 0 0
1142 1 1 0 6.880270215535589 13.760197738182429 2.7847061374929614 0 0 0
1143 1 1 0 6.879933742326657 13.759842732683095 2.948558646710257 0 0 0
1144 1 1 0 6.879624017114251 13.759535718242804 3.112336853876479 0 0 0
1175 1 1 0 10.320627736734505 13.755086115459008 1.6382002190664924 0 0 0
1176 1 1 0 10.324628624693966 13.759096341426979 1.8018307851044 0 0 0
1177 1 1 0 10.327413693774867 13.76121840557878 1.9655974800921763 0 0 0
1178 1 1 0 10.328000891471236 13.762240124865272 2.129458220879276 0 0 0
1179 1 1 0 10.321643919138829 13.760829784299412 2.2935954053919825 0 0 0
1180 1 1 0 10.312414950393629 13.759799636078057 2.456711607674394 0 0 0
1181 1 1 0 10.298671027259553 13.758757681492492 2.6188894223865624 0 0 0
1182 1 1 0 10.284967051397896 13.759801103958104 2.7811977911766275 0 0 0
1183 1 1 0 10.275716596779057 13.759523279729436 2.9468349450027795 0 0 0
1184 1 1 0 10.276256425518405 13.759907653397098 3.117239900193583 0 0 0
216 1 1 0 3.4453749966873177 17.19894987220203 1.801628685616361 0 -1 0
215 1 1 0 3.446801546517906 17.193662122380964 1.6383596158197573 0 -1 0
220 1 1 0 3.4329942192724423 17.199262590122554 2.456474571661588 0 -1 0
221 1 1 0 3.4199128789108695 17.19867500974523 2.6189747857757224 0 -1 0
222 1 1 0 3.4053328822614017 17.199495624383236 2.7812389743822785 0 -1 0
281 1 1 0 6.9101409276661885 17.16845766700953 2.6134780090311076 0 -1 0
282 1 1 0 6.93236195327101 17.147408519516997 2.77093634669092 0 -1 0
275 1 1 0 6.879259814279298 17.195590150450748 1.6380621313648815 0 -1 0
280 1 1 0 6.8893810256876895 17.190258892798916 2.456369514896316 0 -1 0
283 1 1 0 6.949501619349845 17.12977435272924 2.9449278639673993 0 -1 0
357 1 1 0 10.32736685142683 17.198387342420133 1.9655976109145032 0 -1 0
358 1 1 0 10.327987390861894 17.197387134102947 2.1294000796641335 0 -1 0
359 1 1 0 10.321627591463537 17.198767627788865 2.2936451361495838 0 -1 0
364 1 1 0 10.276216157401146 17.199677842222975 3.11727510766019 0 -1 0
363 1 1 0 10.275897486461343 0.00019579236330358185 2.9468392181478347 0 0 0
397 1 1 0 13.759803316959523 17.198380856407038 1.9656815738063533 0 -1 0
398 1 1 0 13.759823032719744 17.19744161934305 2.1295946515544024 0 -1 0
399 1 1 0 13.759801467436464 17.198637302098785 2.2933508087006436 0 -1 0
403 1 1 0 13.759793802323069 0.00031634247745060406 2.9485295469607493 0 0 0
404 1 1 0 13.759897497492753 0.0002983470354251949 3.1123521343157 0 0 0
400 1 1 0 13.759813292859468 0.00010937230497987116 2.457130457317881 0 0 0
1210 1 1 0 0.031756499559844165 0.03175765090581023 4.267178030157627 0 0 0
1211 1 1 0 0.010296687462463852 0.010294502484536058 4.424044593896643 0 0 0
1206 1 1 0 0.03620571242461455 0.03623885329222032 3.5285030347078 0 0 0
1209 1 1 0 0.054322992904727016 0.05434466122117114 4.109555441077916 0 0 0
1207 1 1 0 0.07082282841067519 0.07095392539837783 3.7296482319465483 0 0 0
1208 1 1 0 0.07162491326020744 0.07163964934210186 3.9346410074310922 0 0 0
27 1 2 0 3.4398030514552382 17.19947279386712 3.440176789013538 0 -1 0
1266 1 1 0 3.592201561507336 17.199205324551578 3.4687154749322646 0 -1 0
1271 1 1 0 4.423168420648116 2.457187361330409e-05 3.44734503886128 0 0 0
1286 1 1 0 3.4027109350491713 0.09512367021019312 3.4771837132162817 0 0 0
1287 1 1 0 3.3710994368320493 0.29317967774090814 3.5086792872171673 0 0 0
1288 1 1 0 3.3700821213491756 0.49497887116538836 3.509896718280429 0 0 0
1289 1 1 0 3.3873819569332904 0.6691433101404355 3.492541598140642 0 0 0
1290 1 1 0 3.408554715957793 0.8265019462801954 3.47137589831729 0 0 0
1291 1 1 0 3.4300813224211972 0.9832859946440745 3.449827453395486 0 0 0
1292 1 1 0 3.445634183014168 1.1454114855635844 3.4343046854428856 0 0 0
1293 1 1 0 3.4555497532131647 1.3112656549588513 3.4243632128206807 0 0 0
1294 1 1 0 3.452892847902901 1.4745509833128758 3.427009462847656 0 0 0
1269 1 1 0 4.098709823086423 17.19973930318552 3.4748061047457846 0 -1 0
1270 1 1 0 4.261033719012578 0.0010662876113516114 3.4610814398945156 0 0 0
1276 1 1 0 5.241768743609738 0.004765266697870689 3.439187849027615 0 0 0
1277 1 1 0 5.405546364644589 0.007553035336787782 3.4413552953329853 0 0 0
1278 1 1 0 5.569385344885359 0.008141570092400453 3.4423611088046826 0 0 0
1275 1 1 0 5.078090647036452 0.0007695850202720021 3.435200587105261 0 0 0
1279 1 1 0 5.733517432152866 0.0017848229439346999 3.4409882898515125 0 0 0
1326 1 1 0 6.908512312735659 0.15225049972852026 3.43968262125353 0 0 0
1327 1 1 0 6.923369559223255 0.32265070900324305 3.4398604134282627 0 0 0
1328 1 1 0 6.92397703523242 0.49303287327711837 3.4398896488961785 0 0 0
1329 1 1 0 6.914729280145104 0.6587268230728969 3.4398855285516445 0 0 0
1330 1 1 0 6.901025398921823 0.8211101337278195 3.4399001467815706 0 0 0
1331 1 1 0 6.887349433370137 0.9832837072609846 3.4399261145302678 0 0 0
1332 1 1 0 6.878073104432104 1.1463429015240911 3.43993797211962 0 0 0
1333 1 1 0 6.8718092425505715 1.3105527188074353 3.43996401891259 0 0 0
1334 1 1 0 6.872368123443864 1.4743380415959164 3.439962694934953 0 0 0
1352 1 1 0 6.874137380978848 0.003595949437871693 4.585501975402008 0 0 0
29 1 2 0 10.31986752007891 17.199722055915597 3.4401878733212308 0 -1 0
365 1 1 0 10.291547821908788 17.19939866170711 3.2876153794396292 0 -1 0
1368 1 1 0 10.812947381508726 4.273911807735525e-05 3.484037880148153 0 0 0
1386 1 1 0 10.282718495498722 0.09501781293577491 3.4771488437300335 0 0 0
1387 1 1 0 10.24998947902663 0.2931551143026014 3.508712259731274 0 0 0
1388 1 1 0 10.250509522549715 0.4950399033219655 3.5097894107848444 0 0 0
1389 1 1 0 10.267533758215343 0.6688630105699537 3.4926456020052847 0 0 0
1390 1 1 0 10.290771367186728 0.8265553794288567 3.4713096624614037 0 0 0
1391 1 1 0 10.310847584637816 0.9838800279053063 3.4499019166085305 0 0 0
1392 1 1 0 10.323260456980334 1.1455760644502173 3.4339910051959586 0 0 0
1393 1 1 0 10.32912804429326 1.3108612861138023 3.4242774557820894 0 0 0
1394 1 1 0 10.327976580278806 1.4745800999320595 3.4270119728217012 0 0 0
1367 1 1 0 10.642547449835424 17.19975477082245 3.483533367485504 0 -1 0
1369 1 1 0 10.978593838077797 3.971308479369195e-05 3.4747773951157392 0 0 0
1370 1 1 0 11.140921210309997 3.875065202438315e-05 3.461069365147617 0 0 0
1371 1 1 0 11.303153101245268 4.25097005660733e-05 3.4473872002691643 0 0 0
1372 1 1 0 11.466214873900137 2.198443990927635e-05 3.4381092045753463 0 0 0
1373 1 1 0 11.630481220243043 2.1778873695675412e-05 3.4318673563220154 0 0 0
1374 1 1 0 11.79422774504251 17.199751109013793 3.432430313519797 0 -1 0
30 1 2 0 13.759837677931385 2.7464224495565448e-05 3.4399956983356805 0 0 0
405 1 1 0 13.76000105670921 17.199527558063455 3.276155603425623 0 -1 0
1426 1 1 0 13.759668890373291 0.0003612589037473333 3.603714865893747 0 0 0
1428 1 1 0 13.759848949508152 0.00018178185206974695 3.9313584001741853 0 0 0
1429 1 1 0 13.759831030769487 4.919749447525684e-05 4.095155198026407 0 0 0
1432 1 1 0 13.759837916678022 17.199758926187542 4.586543208049064 0 -1 0
1427 1 1 0 13.75979425944005 0.00029350512244856306 3.767552911325718 0 0 0
1236 1 1 0 15.39792010314718 17.19902537344228 3.4407496806992444 0 -1 0
1238 1 1 0 15.070482405324341 0.0031400705302497677 3.436808640547741 0 0 0
1239 1 1 0 14.906262209428972 0.0014596365934551984 3.4384845983244356 0 0 0
1244 1 1 0 14.08740384482189 0.0001245230548265743 3.4395996302902567 0 0 0
1237 1 1 0 15.233868523634637 0.0025683447807887017 3.4374262149658046 0 0 0
1243 1 1 0 14.251224724776687 17.19967219070948 3.439944142868669 0 -1 0
26 1 2 0 0.0007685238510859449 0.0006989897359889546 3.439467266368831 0 0 0
1226 1 1 0 17.11124308665451 0.036282676440205275 3.403812089243969 0 0 0
1228 1 1 0 16.705088705770443 0.07165579168706752 3.368345434507899 0 0 0
1227 1 1 0 16.910177470269048 0.07087765351331525 3.36904014576954 0 0 0
1229 1 1 0 16.530112824836127 0.05433185424744194 3.385652134628614 0 0 0
1230 1 1 0 16.372461006857492 0.031721694373204226 3.408244419371217 0 0 0
1231 1 1 0 16.215679713253778 0.010280700762502664 3.429702373552314 0 0 0
1295 1 1 0 3.445139302949115 1.637975217849004 3.434756462589415 0 0 0
1296 1 1 0 3.43474760283414 1.802008806084179 3.445127800019906 0 0 0
1297 1 1 0 3.426994243692572 1.9654327252632773 3.4528743084853635 0 0 0
1298 1 1 0 3.4243367420886255 2.1286980915534546 3.4555512037549625 0 0 0
1299 1 1 0 3.4342661693670076 2.2944946185442316 3.4456218908350134 0 0 0
1300 1 1 0 3.449804103838731 2.456570149716165 3.4301245854632807 0 0 0
1301 1 1 0 3.4713420333085603 2.6133676481737185 3.40861219092464 0 0 0
1302 1 1 0 3.4925182290099 2.7707271725131113 3.387452708828926 0 0 0
1303 1 1 0 3.509850694269662 2.944984187254759 3.370107450000535 0 0 0
1335 1 1 0 6.875162773502317 1.638188707326401 3.439971486837215 0 0 0
1336 1 1 0 6.879135017145622 1.8018742126889595 3.439955268076022 0 0 0
1337 1 1 0 6.881245249409892 1.965698827446457 3.4399711442082457 0 0 0
1338 1 1 0 6.882198745481261 2.1296011189732726 3.4399422838939024 0 0 0
1339 1 1 0 6.880836177667582 2.2933462568844645 3.439985269716363 0 0 0
1340 1 1 0 6.879814862792796 2.4571804242514825 3.439940102252811 0 0 0
1341 1 1 0 6.878848512639763 2.620931871140024 3.4399706400441286 0 0 0
1342 1 1 0 6.88003404432186 2.78478934800026 3.4399290170942582 0 0 0
1343 1 1 0 6.879937098173728 2.948548676923415 3.439977316852139 0 0 0
1344 1 1 0 6.880118575950611 3.112279276644716 3.4398577292289234 0 0 0
1395 1 1 0 10.326254049756674 1.638311781550728 3.4350413954287 0 0 0
1396 1 1 0 10.326554406821153 1.801773858276878 3.445516927055613 0 0 0
1397 1 1 0 10.328572571868115 1.9652755362928296 3.4536373510714085 0 0 0
1398 1 1 0 10.3293635334524 2.1293786556401955 3.455568126424502 0 0 0
1399 1 1 0 10.323325183486805 2.294377227344956 3.4456517485616662 0 0 0
1400 1 1 0 10.309953548247915 2.4559083685096765 3.429355656707107 0 0 0
1401 1 1 0 10.289149042630076 2.6126955316465517 3.4070922915957516 0 0 0
1402 1 1 0 10.265625438048197 2.7702582889332534 3.385538195118643 0 0 0
1403 1 1 0 10.248397416042454 2.9452878377355867 3.3680307619786096 0 0 0
1446 1 1 0 0.08856075069599714 3.403647688203115 3.476086213232778 0 0 0
1447 1 1 0 0.2897108771327682 3.36920467331738 3.51038109964628 0 0 0
1448 1 1 0 0.4946255190430439 3.368325872021658 3.5119670076946776 0 0 0
1449 1 1 0 0.6697083099683481 3.3856611844213775 3.494144770365386 0 0 0
1450 1 1 0 0.8272079942644376 3.4081774354968055 3.4727999444084383 0 0 0
1451 1 1 0 0.9838658199188848 3.4296469218769756 3.4502367580616955 0 0 0
1452 1 1 0 1.1457470973659747 3.444545399207002 3.434323164510335 0 0 0
1453 1 1 0 1.3106332358417023 3.4524603598890233 3.4250514110747172 0 0 0
1454 1 1 0 1.4748228019403247 3.451161760660749 3.42732803601716 0 0 0
1472 1 1 0 0.004597520786698371 4.585692635678371 3.436631409847621 0 0 0
1455 1 1 0 1.6379941676534777 3.446051802964099 3.43462900856659 0 0 0
1456 1 1 0 1.8018065273863035 3.440718973651244 3.4438912265329416 0 0 0
1457 1 1 0 1.965964155007409 3.4375036017877556 3.4499742424805797 0 0 0
1458 1 1 0 2.1288617224693 3.4367643920655553 3.451239288163762 0 0 0
1459 1 1 0 2.294019093828336 3.438649353125706 3.4430501286833954 0 0 0
1460 1 1 0 2.4567084170296676 3.4404576474818738 3.43202514370494 0 0 0
1461 1 1 0 2.6188574402741995 3.441034406537633 3.417733065874793 0 0 0
1462 1 1 0 2.781158444929774 3.4402114311267766 3.4048724283492064 0 0 0
1463 1 1 0 2.946868598285736 3.4401506663018964 3.3957756734435254 0 0 0
1464 1 1 0 3.117266098264944 3.4393319117784125 3.396874471168296 0 0 0
1304 1 1 0 3.508663661802488 3.1467082769077637 3.3714807076165108 0 0 0
32 1 2 0 3.4401084073444657 3.440564670357869 3.439807370681859 0 0 0
1305 1 1 0 3.477248590680665 3.3448812595773734 3.4025342893671873 0 0 0
1465 1 1 0 3.2876257484815805 3.4399107109524834 3.411526219954287 0 0 0
1486 1 1 0 3.477107499406134 3.534961073935177 3.402672384911419 0 0 0
1487 1 1 0 3.509273173776698 3.7331207585259696 3.37085380079053 0 0 0
1488 1 1 0 3.5095428157878596 3.935063060270262 3.370385634300159 0 0 0
1489 1 1 0 3.492474860141327 4.10882427115081 3.3874759315830634 0 0 0
1490 1 1 0 3.470136339604757 4.266522889804563 3.409813728567012 0 0 0
1491 1 1 0 3.4494944432059302 4.423733249657336 3.430439003752701 0 0 0
1492 1 1 0 3.4352019418435895 4.5856092931807035 3.4447195461660236 0 0 0
1506 1 1 0 3.4687878735748163 3.439865706109551 3.5922635062278383 0 0 0
1507 1 1 0 3.4837010184183064 3.439412189422834 3.7626738516458467 0 0 0
1508 1 1 0 3.4838067210202492 3.4401232103889505 3.932980080505314 0 0 0
1509 1 1 0 3.474580786713973 3.4400865708172947 4.098624938602667 0 0 0
1510 1 1 0 3.459965329877317 3.4409759160214013 4.2609901030718085 0 0 0
1511 1 1 0 3.4469612773327225 3.4402965465360347 4.423353999857848 0 0 0
1512 1 1 0 3.439185601941178 3.438851447568284 4.586326591122959 0 0 0
33 1 2 0 6.880291619298917 3.4398386552446203 3.43992290076233 0 0 0
525 1 1 0 6.879696835806192 3.4392995521191874 3.2761484285314 0 0 0
1345 1 1 0 6.880862678276186 3.276081970135097 3.439777153133526 0 0 0
1526 1 1 0 6.879829502282559 3.603727485215842 3.4400966047083066 0 0 0
1527 1 1 0 6.880065362011476 3.7675615433479064 3.4400033104122576 0 0 0
1528 1 1 0 6.880321545961697 3.931370756848166 3.4399280587718493 0 0 0
1529 1 1 0 6.880108014748913 4.095148791100434 3.439969676448658 0 0 0
1530 1 1 0 6.880944934510463 4.259021855883901 3.439975250761202 0 0 0
1531 1 1 0 6.879986798994372 4.422782178043041 3.4399842733012593 0 0 0
1532 1 1 0 6.878753128078819 4.586600468655848 3.439971660535455 0 0 0
1546 1 1 0 6.8797393651001295 3.4403841487360842 3.6037916927998195 0 0 0
1547 1 1 0 6.8793599101607334 3.440229373243464 3.767607741221663 0 0 0
1548 1 1 0 6.879752740349554 3.43989978168819 3.9313280994284505 0 0 0
1549 1 1 0 6.88014954420551 3.4396050716546713 4.095215908014645 0 0 0
1550 1 1 0 6.8808279333562545 3.438998791489831 4.258993560415287 0 0 0
1551 1 1 0 6.880447132385569 3.439407561584564 4.422805316835594 0 0 0
1552 1 1 0 6.878412344914564 3.4414330965080215 4.586448637745481 0 0 0
1404 1 1 0 10.248621082590676 3.1502684776925136 3.369606470868136 0 0 0
34 1 2 0 10.319209321675453 3.440361644519061 3.438986195404349 0 0 0
1405 1 1 0 10.283390972054166 3.351489375069948 3.403579909156108 0 0 0
1566 1 1 0 10.408486989234357 3.476158720912467 3.4035022201068137 0 0 0
1567 1 1 0 10.60959272247937 3.51043650772643 3.369774909827236 0 0 0
1568 1 1 0 10.814511982752986 3.511802577356763 3.36805882031272 0 0 0
1586 1 1 0 10.283573120746196 3.4764664736708086 3.528416774722011 0 0 0
1587 1 1 0 10.249619722150472 3.5112706841006536 3.7296090371172066 0 0 0
1588 1 1 0 10.248021896587444 3.5114137954395064 3.9345871410717566 0 0 0
1589 1 1 0 10.26539747129341 3.494081744298066 4.10961548200959 0 0 0
1590 1 1 0 10.287020906650504 3.4705749112761195 4.267168011828109 0 0 0
1591 1 1 0 10.309194300672223 3.4497092179812032 4.424024103827095 0 0 0
1592 1 1 0 10.325807290889076 3.4366653048421028 4.58547853713366 0 0 0
1569 1 1 0 10.989860550536314 3.4943958177624435 3.3855610977156982 0 0 0
1570 1 1 0 11.14716453421921 3.4729155800638747 3.4070467084469906 0 0 0
1571 1 1 0 11.303390958165329 3.450677215255735 3.4292765550080837 0 0 0
1572 1 1 0 11.465201623536691 3.4341491060580336 3.4457881647478885 0 0 0
1573 1 1 0 11.631184170563168 3.4241042892974947 3.455820294008476 0 0 0
1574 1 1 0 11.794274242872323 3.426334581337982 3.4535659650368187 0 0 0
1575 1 1 0 11.957697921680763 3.434487208915453 3.445423872873473 0 0 0
1576 1 1 0 12.121908089397238 3.4454196731351954 3.434457840565622 0 0 0
1577 1 1 0 12.285287145818057 3.4535933337890143 3.4263058718109463 0 0 0
1578 1 1 0 12.448425004311748 3.4558208960378796 3.424061467380734 0 0 0
604 1 1 0 13.830674388700336 3.3697641904697813 3.150247188627137 0 0 0
35 1 2 0 13.760068141701007 3.4392847636413655 3.4407632894899702 0 0 0
605 1 1 0 13.796087785113615 3.4037182497450225 3.351373801164542 0 0 0
1579 1 1 0 12.614565050168167 3.4457991723764962 3.4340828404455173 0 0 0
1580 1 1 0 12.776318659250679 3.429279030661764 3.4505922226166943 0 0 0
1581 1 1 0 12.932564851435863 3.4070607306217666 3.4728152038603786 0 0 0
1582 1 1 0 13.089914772859458 3.3855743934996223 3.494287651545894 0 0 0
1583 1 1 0 13.265153779568518 3.3681553828735606 3.5117427113495445 0 0 0
1584 1 1 0 13.470118995616831 3.3697334235442904 3.510086557810502 0 0 0
1585 1 1 0 13.671140357274753 3.4036367926355915 3.4762840409839346 0 0 0
1606 1 1 0 13.7962199709369 3.5284299996291457 3.476311080467157 0 0 0
1607 1 1 0 13.831090108475294 3.729669757829541 3.5100250968735223 0 0 0
1608 1 1 0 13.831215345625175 3.9346246189912586 3.511809704169127 0 0 0
1609 1 1 0 13.814016095400028 4.109558400133743 3.4943296623920768 0 0 0
1610 1 1 0 13.790464110318213 4.2672254076077 3.47277267439506 0 0 0
1611 1 1 0 13.769670037544914 4.424037701595272 3.4505514933028487 0 0 0
1612 1 1 0 13.75628559787368 4.585512267904328 3.4342727908620114 0 0 0
424 1 1 0 17.129470413477275 3.36959256193936 3.150167529688426 -1 0 0
1467 1 1 0 17.1290030998721 3.7295290419174774 3.511191915914318 -1 0 0
1468 1 1 0 17.12806713373569 3.9346081449124237 3.51147267617887 -1 0 0
1470 1 1 0 17.16798851286693 4.267206170556163 3.4704845771287838 -1 0 0
31 1 2 0 17.19895781275662 3.4394863231137047 3.440501055669885 -1 0 0
425 1 1 0 17.16340961471997 3.403827362355719 3.351240095149158 -1 0 0
1466 1 1 0 17.163358173978658 3.5283205731133442 3.4763863794221534 -1 0 0
1469 1 1 0 17.14538094753406 4.109513707936233 3.4941338657772922 -1 0 0
1471 1 1 0 17.18951563237143 4.424361572964276 3.4496980601155567 -1 0 0
1473 1 1 0 0.01253223744401168 4.750196609644032 3.4310668582876707 0 0 0
1474 1 1 0 0.011187898312474595 4.914691628913951 3.4320347551798394 0 0 0
1476 1 1 0 0.0007389971732067066 5.241469635380566 3.4323895394966986 0 0 0
1480 1 1 0 0.00044038420549093996 5.896113743158101 3.451001758343341 0 0 0
1481 1 1 0 0.001082806034465466 6.055360809227433 3.476229840718027 0 0 0
1475 1 1 0 0.006072828687632331 5.078397448460503 3.4333030548847514 0 0 0
1482 1 1 0 0.0001723170797279277 6.214685567569101 3.5050772814461553 0 0 0
1493 1 1 0 3.4275478495891374 4.75052485041973 3.452384246625131 0 0 0
1494 1 1 0 3.4293300956821695 4.914616269803532 3.450579400748721 0 0 0
1495 1 1 0 3.434341187750453 5.078138823713695 3.445590963774053 0 0 0
1496 1 1 0 3.439195227591785 5.2418220335715455 3.440698697781554 0 0 0
1497 1 1 0 3.4425462000882825 5.4057214820383015 3.4373623929242574 0 0 0
1498 1 1 0 3.4428056334731387 5.5693471477956145 3.437082138944015 0 0 0
1499 1 1 0 3.4412604172203145 5.733347511511179 3.4386489373900253 0 0 0
1500 1 1 0 3.4394038924059407 5.8970474136523094 3.440494138503623 0 0 0
1501 1 1 0 3.439060950820127 6.060843932940423 3.440863323584581 0 0 0
1502 1 1 0 3.4395858203887393 6.224669995281912 3.440333113137311 0 0 0
1533 1 1 0 6.877520856075062 4.750348802193483 3.439962438007048 0 0 0
1534 1 1 0 6.878500468733039 4.914249998752235 3.4399528479928674 0 0 0
1535 1 1 0 6.8806983204251795 5.077985871293549 3.439932413932467 0 0 0
1536 1 1 0 6.884681957280346 5.241793988075173 3.4399427294130422 0 0 0
1537 1 1 0 6.887469967435739 5.405610366522138 3.43995164199281 0 0 0
1538 1 1 0 6.888002487248644 5.569346976993615 3.439954421315643 0 0 0
1539 1 1 0 6.881744830646162 5.73352930646418 3.4399854008180037 0 0 0
1540 1 1 0 6.8724729469371715 5.896558499139357 3.4399797298609096 0 0 0
1541 1 1 0 6.858780104838986 6.058767474725805 3.4399982746396107 0 0 0
1542 1 1 0 6.8450822103633815 6.221144298683556 3.4400098214441 0 0 0
1613 1 1 0 13.750279158048713 4.750522714517404 3.4243765834396984 0 0 0
1614 1 1 0 13.751052104535237 4.9146721412749 3.426309536384495 0 0 0
1615 1 1 0 13.753112007034002 5.078177669459363 3.434426714735898 0 0 0
1616 1 1 0 13.753389388084578 5.2416445764934965 3.4449222279703426 0 0 0
1617 1 1 0 13.75171027147379 5.405439158237273 3.4529652524107983 0 0 0
1618 1 1 0 13.750561549654673 5.569132608189678 3.4556861543167994 0 0 0
1619 1 1 0 13.756455361762786 5.734335304320123 3.4459844613808155 0 0 0
1620 1 1 0 13.768861499967933 5.896067000285239 3.430040010805436 0 0 0
1621 1 1 0 13.788944895383482 6.053433365825578 3.4085986537385895 0 0 0
1622 1 1 0 13.812163101823906 6.211075109073018 3.3872498668934057 0 0 0
1477 1 1 0 17.19729852901778 5.405356708103369 3.4293506942544276 -1 0 0
1478 1 1 0 17.196537651231807 5.5695106873450495 3.42780460748706 -1 0 0
1479 1 1 0 17.198416360413706 5.733950848691971 3.4350080628268955 -1 0 0
36 1 2 0 17.19965660423319 6.880525470241513 3.4389573352834044 -1 0 0
1627 1 1 0 0.0005036183944399277 7.1797194517396274 3.527548687476768 0 0 0
1628 1 1 0 17.19958466889418 7.373505419317177 3.5263307187902955 -1 0 0
1485 1 1 0 17.199541045630266 6.772500219190223 3.4904743289982734 -1 0 0
724 1 1 0 3.439394366687666 6.966359282694729 3.1400274003549056 0 0 0
37 1 2 0 3.4399335903787973 6.880046682153114 3.440825321304401 0 0 0
725 1 1 0 3.4397328162157987 6.930468298537923 3.3324082557188204 0 0 0
1503 1 1 0 3.439978152195609 6.388503500090517 3.440025980848991 0 0 0
1504 1 1 0 3.440022798231453 6.552254036869894 3.43975464980182 0 0 0
1505 1 1 0 3.44025449376505 6.7161581950592835 3.4395916694366786 0 0 0
1646 1 1 0 3.4398698559264367 6.930566377608605 3.5473457273978704 0 0 0
1647 1 1 0 3.4398755974243165 6.966942300758221 3.739784743808412 0 0 0
1648 1 1 0 3.439910561700205 6.9665961715297104 3.9335619533961452 0 0 0
1649 1 1 0 3.4399220310457244 6.94525146465921 4.105387997301613 0 0 0
1650 1 1 0 3.4399161749752745 6.917266517347131 4.2645549731720385 0 0 0
1651 1 1 0 3.4399322428789922 6.891529691044507 4.423312438149687 0 0 0
1652 1 1 0 3.439931823967271 6.873599485335153 4.5859133408720485 0 0 0
744 1 1 0 6.811209832589716 6.949500134877443 3.1467859735224106 0 0 0
38 1 2 0 6.879738690097071 6.880103253635841 3.4401503801067217 0 0 0
745 1 1 0 6.842855157006718 6.917726826741054 3.3450600607207766 0 0 0
1543 1 1 0 6.835830430262825 6.386812462886647 3.439982735595862 0 0 0
1544 1 1 0 6.83639927237872 6.55718330956985 3.4399813253568055 0 0 0
1545 1 1 0 6.851395975035274 6.727579857432152 3.4402311599340147 0 0 0
1666 1 1 0 7.032316014088203 6.908188028364707 3.439566431029427 0 0 0
1667 1 1 0 7.202586735503331 6.923115767246195 3.43950800068643 0 0 0
1668 1 1 0 7.373015058126268 6.924066953190432 3.4401154974411843 0 0 0
1669 1 1 0 7.538710278480716 6.91486070807328 3.440080195229893 0 0 0
1670 1 1 0 7.700977220954688 6.902081705836369 3.4409725459999265 0 0 0
1686 1 1 0 6.842273743558766 6.9169752793709645 3.5349131331599795 0 0 0
1687 1 1 0 6.810161721402671 6.948646156655492 3.733056792685347 0 0 0
1688 1 1 0 6.810495031272827 6.949803911456687 3.934932583989636 0 0 0
1689 1 1 0 6.827443142950284 6.932546155021001 4.108796035531173 0 0 0
1690 1 1 0 6.850715663118555 6.911258256710953 4.266494093118675 0 0 0
1691 1 1 0 6.870714419534063 6.889788272118383 4.4236952892354084 0 0 0
1692 1 1 0 6.883458277931739 6.874170679651696 4.585532792207718 0 0 0
1671 1 1 0 7.8630720685422935 6.8876639942744955 3.440274499645547 0 0 0
1672 1 1 0 8.025998593555231 6.877008842505532 3.4388424617213946 0 0 0
1673 1 1 0 8.190889504508792 6.8687131281164895 3.4368718151392588 0 0 0
1674 1 1 0 8.354095309634817 6.8698744557383495 3.4374770155193417 0 0 0
1675 1 1 0 8.517947067434003 6.875737590341191 3.4405250090767634 0 0 0
1676 1 1 0 8.681723354528673 6.884815582883278 3.445625874859562 0 0 0
1677 1 1 0 8.845032144061753 6.891821794129667 3.4504793453478353 0 0 0
1678 1 1 0 9.009058173571686 6.894741754431386 3.452440521751961 0 0 0
1679 1 1 0 9.174085947222387 6.885588527171801 3.4446375185572444 0 0 0
1680 1 1 0 9.336313473253941 6.870358596154272 3.430475302943339 0 0 0
39 1 2 0 10.319515449511556 6.879832500160252 3.439864145682085 0 0 0
1681 1 1 0 9.49334506772976 6.848565608739766 3.409737593091942 0 0 0
1682 1 1 0 9.650822707150422 6.8275226541506315 3.387531751381257 0 0 0
1683 1 1 0 9.824807296082202 6.809948821821596 3.3704177447580785 0 0 0
1684 1 1 0 10.02668518664796 6.81099912168572 3.370621165440943 0 0 0
1685 1 1 0 10.224601004387718 6.842934985163859 3.402924934557205 0 0 0
1706 1 1 0 10.414723878065459 6.842598056494832 3.402540406726092 0 0 0
1707 1 1 0 10.61300918593593 6.810780068412924 3.3703596888816736 0 0 0
1708 1 1 0 10.81492884890961 6.810274644919928 3.370675270557397 0 0 0
1726 1 1 0 10.319959667156448 7.03226225097949 3.411467751344839 0 0 0
1727 1 1 0 10.32026158652159 7.20262939046367 3.3962760060204915 0 0 0
1728 1 1 0 10.319723120766819 7.373028641644522 3.3959473312057558 0 0 0
1729 1 1 0 10.319589366343887 7.538694582074526 3.4051333943125033 0 0 0
1730 1 1 0 10.318622167599214 7.700929253905635 3.4187916604277087 0 0 0
1746 1 1 0 10.320011950731837 6.851088561692455 3.592221689482619 0 0 0
1747 1 1 0 10.32022590525677 6.836081692231316 3.7626445854563584 0 0 0
1748 1 1 0 10.319730197882775 6.836001986729113 3.9329511302215345 0 0 0
1749 1 1 0 10.319735825382912 6.845240734623035 4.098677337594871 0 0 0
1750 1 1 0 10.318844348070167 6.859831910540031 4.26102371213508 0 0 0
1751 1 1 0 10.319535022592008 6.872866004960543 4.423336506092988 0 0 0
1752 1 1 0 10.320966912291667 6.8806415503783125 4.586324730750806 0 0 0
1709 1 1 0 10.988511136687064 6.827368878632586 3.3873288303350058 0 0 0
1710 1 1 0 11.146535430626747 6.849701253123836 3.4107977296364873 0 0 0
1711 1 1 0 11.303805489029559 6.870420151898205 3.4305272649563077 0 0 0
1712 1 1 0 11.46558691607791 6.88457445212077 3.443595978517583 0 0 0
1713 1 1 0 11.630383672388636 6.892375074749896 3.450075199971119 0 0 0
1714 1 1 0 11.794589450685981 6.890425705484878 3.4490634031606455 0 0 0
1715 1 1 0 11.958118621909005 6.88559354839659 3.4464011895516053 0 0 0
1716 1 1 0 12.121503940729237 6.880502796417713 3.4452354588168297 0 0 0
1717 1 1 0 12.285461888915272 6.877453454352191 3.4450578129968825 0 0 0
1718 1 1 0 12.449396607009483 6.876852124889264 3.4449794189039746 0 0 0
40 1 2 0 13.759869714509387 6.880022398869712 3.439659910046027 0 0 0
1623 1 1 0 13.829242544400287 6.384829882470217 3.3700750410684406 0 0 0
1624 1 1 0 13.829394271643945 6.586646437878862 3.371186146483484 0 0 0
1625 1 1 0 13.797345495237536 6.785004640308003 3.402700909828987 0 0 0
1719 1 1 0 12.613459723895557 6.8788109067356435 3.4406707455864862 0 0 0
1720 1 1 0 12.776467181848783 6.880242224841387 3.4328265488567102 0 0 0
1721 1 1 0 12.938814419037774 6.880963775843858 3.419846732736127 0 0 0
1722 1 1 0 13.101095132903035 6.880070902964767 3.4051906253481485 0 0 0
1723 1 1 0 13.26672982718774 6.880042563065747 3.3959599374520217 0 0 0
1724 1 1 0 13.437046067419026 6.879646943817204 3.396054321908481 0 0 0
1725 1 1 0 13.607552000996625 6.879790004866638 3.4109923646713884 0 0 0
1766 1 1 0 13.796900180291463 6.974922150632567 3.402475193416522 0 0 0
1767 1 1 0 13.828465943013866 7.173023397341521 3.370622362287823 0 0 0
1768 1 1 0 13.829581956481224 7.374883398602993 3.3702761140421633 0 0 0
1769 1 1 0 13.812490211891113 7.548892522313715 3.387422406921433 0 0 0
1770 1 1 0 13.791298474451965 7.706507796002415 3.409703072015006 0 0 0
1786 1 1 0 13.787947030438687 6.879903327567608 3.5922622687532044 0 0 0
1787 1 1 0 13.803215940260625 6.879840193372862 3.7626028315395676 0 0 0
1788 1 1 0 13.804002775242632 6.879921441529995 3.9330781829400934 0 0 0
1789 1 1 0 13.794569540124808 6.8798895184851485 4.098821116335102 0 0 0
1790 1 1 0 13.781970809597215 6.879853701552353 4.261059682350972 0 0 0
1791 1 1 0 13.76722531919783 6.879877154141426 4.423191128648392 0 0 0
1792 1 1 0 13.757007355816869 6.879852790115783 4.586288520101418 0 0 0
645 1 1 0 0.00031721265968087664 6.879562192141024 3.27614803356973 0 0 0
1483 1 1 0 0.00017469772543066142 6.386370884218796 3.5263691030004614 0 0 0
1629 1 1 0 17.199677152424336 7.545137399025965 3.5051848155754164 -1 0 0
1484 1 1 0 17.19939102580766 6.5801549023843435 3.527557666202621 -1 0 0
1626 1 1 0 0.00011226516955886723 6.987250752024665 3.4905107360361214 0 0 0
1630 1 1 0 17.198706404340395 7.7045299331053645 3.4762535843679827 -1 0 0
1633 1 1 0 0.0030194127778963675 8.190254729465348 3.427626777310967 0 0 0
1632 1 1 0 0.001104828848691224 8.025794125116214 3.434783191662174 0 0 0
1634 1 1 0 0.002449599250403083 8.354493506582578 3.4293141975499912 0 0 0
1635 1 1 0 17.19914096773427 8.518304189097233 3.432489134806197 -1 0 0
1640 1 1 0 0.009446299680114687 9.335827900035584 3.448924813020073 0 0 0
1731 1 1 0 10.319306388223701 7.863206363300995 3.4325503883336332 0 0 0
1732 1 1 0 10.321076105519307 8.026111738820639 3.441759043631009 0 0 0
1733 1 1 0 10.32342725703831 8.19058972724683 3.4480991701570716 0 0 0
1734 1 1 0 10.32305295467095 8.354140355776723 3.447532621069307 0 0 0
1735 1 1 0 10.319197266063128 8.518071011210587 3.444725517265438 0 0 0
1736 1 1 0 10.312968782920361 8.681728396066093 3.440747080746669 0 0 0
1737 1 1 0 10.306751031604907 8.845217964400325 3.4386163522216173 0 0 0
1738 1 1 0 10.304496481143305 9.009345504595508 3.4376125927678016 0 0 0
1739 1 1 0 10.313591251028491 9.17383241714852 3.43897762883159 0 0 0
1740 1 1 0 10.3314457100017 9.336537998396553 3.440003342172903 0 0 0
1771 1 1 0 13.769854061883546 7.863504078943599 3.430445582982739 0 0 0
1772 1 1 0 13.753900808868785 8.02533564018409 3.444620187258304 0 0 0
1773 1 1 0 13.74371782849723 8.190939795781214 3.4524374001144933 0 0 0
1774 1 1 0 13.745996549449035 8.354382581030462 3.4505022093553874 0 0 0
1775 1 1 0 13.75470206430064 8.517987248693885 3.4456317289782543 0 0 0
1776 1 1 0 13.76607413001547 8.681878986498692 3.440524050426029 0 0 0
1777 1 1 0 13.77535508641533 8.845423521178523 3.437479322776669 0 0 0
1778 1 1 0 13.77822136524127 9.008918206476832 3.4368987654277388 0 0 0
1779 1 1 0 13.767175792798305 9.173980828157383 3.438862339525573 0 0 0
1780 1 1 0 13.747892096469187 9.336729898894907 3.4403241044293718 0 0 0
1636 1 1 0 17.19407294861138 8.681507986935399 3.4336430897009045 -1 0 0
1637 1 1 0 17.189195073105655 8.845200726150876 3.4326404735405633 -1 0 0
1631 1 1 0 17.19940354170647 7.863608170061846 3.45113923116931 -1 0 0
1638 1 1 0 17.18725443963328 9.009508952192661 3.431063571528299 -1 0 0
1639 1 1 0 17.195027691828493 9.17409833072541 3.436531494349084 -1 0 0
41 1 2 0 0.00019478355810429284 10.31970938981915 3.440094500889547 0 0 0
1641 1 1 0 0.030206464329131974 9.493356143786853 3.4689847368920645 0 0 0
1642 1 1 0 0.05254070984029335 9.651184012215236 3.492367024715542 0 0 0
885 1 1 0 0.029004244177303202 10.319948304555938 3.287665153707693 0 0 0
1643 1 1 0 0.06962471816898012 9.824788520931785 3.5094803518751387 0 0 0
1644 1 1 0 0.06935440689937819 10.026706401161945 3.5097498364238784 0 0 0
1645 1 1 0 0.037080611860828595 10.224880025019317 3.4773980754175677 0 0 0
1806 1 1 0 0.03729610517252678 10.41495242286413 3.4770301442186207 0 0 0
1807 1 1 0 0.06929578389961151 10.613037692509865 3.508622712638252 0 0 0
1808 1 1 0 0.06960979779520238 10.814888394836236 3.509708763417594 0 0 0
42 1 2 0 3.439991 10.319757 3.439876 0 0 0
964 1 1 0 6.7928826614741356 10.319860299041746 3.140095210817315 0 0 0
43 1 2 0 6.880539495384334 10.319562527203882 3.4401517793686662 0 0 0
965 1 1 0 6.829462279130178 10.31962886220568 3.332471433197362 0 0 0
1846 1 1 0 7.043687206347746 10.319692957103667 3.439895093324534 0 0 0
1847 1 1 0 7.207527208818736 10.319852468457078 3.4398921839528516 0 0 0
1848 1 1 0 7.371386382925339 10.319807185529775 3.4399737436644457 0 0 0
1849 1 1 0 7.535169189413704 10.319869479804433 3.4399799862431144 0 0 0
1850 1 1 0 7.698940184970129 10.319883067499559 3.439985104095309 0 0 0
1866 1 1 0 6.829280617807595 10.319820343819188 3.5472604934336616 0 0 0
1867 1 1 0 6.792369615711024 10.320269753292667 3.7397790482671587 0 0 0
1868 1 1 0 6.793490105041346 10.319600582224261 3.9335859357806693 0 0 0
1869 1 1 0 6.814670288915829 10.319726791810073 4.1052184212893525 0 0 0
1870 1 1 0 6.843608316928629 10.318759280335978 4.264526129647681 0 0 0
1871 1 1 0 6.868728495754009 10.319470053094813 4.42365879130325 0 0 0
1872 1 1 0 6.885102743722417 10.320910163300004 4.585835422478866 0 0 0
1851 1 1 0 7.862751799756611 10.319878670485581 3.4399650843439216 0 0 0
1852 1 1 0 8.026513167315757 10.319855808791 3.439936656378568 0 0 0
1853 1 1 0 8.190333879888069 10.319852112984007 3.439912944635211 0 0 0
1854 1 1 0 8.354213688558833 10.31985634021543 3.4399109290062317 0 0 0
1855 1 1 0 8.51801649867654 10.31984647259279 3.439924803925278 0 0 0
1856 1 1 0 8.681809464646888 10.319821634347413 3.4399470308212323 0 0 0
1857 1 1 0 8.845556534301613 10.319811496120169 3.439962676535183 0 0 0
1858 1 1 0 9.009333837606102 10.31980719773168 3.4399668689665095 0 0 0
1859 1 1 0 9.173128921628107 10.319832305903581 3.439973694220665 0 0 0
1860 1 1 0 9.336945836002807 10.319855645714272 3.4399725796285168 0 0 0
44 1 2 0 10.319828220783423 10.319590701743019 3.439805064125444 0 0 0
1741 1 1 0 10.357222539990797 9.495228320754144 3.4410344509814523 0 0 0
1742 1 1 0 10.385110015853552 9.654385838746908 3.4398723751711695 0 0 0
1743 1 1 0 10.406466229824618 9.826196966492308 3.440257188650181 0 0 0
1744 1 1 0 10.40674981816658 10.019959992975853 3.4396296086036693 0 0 0
1745 1 1 0 10.370406860970805 10.212359734310196 3.439566452507392 0 0 0
1861 1 1 0 9.500791510625662 10.319886028317597 3.43995490829797 0 0 0
1862 1 1 0 9.66458952527409 10.319904362285115 3.439907533318724 0 0 0
1863 1 1 0 9.828457668663338 10.319901785332018 3.4398490690765913 0 0 0
1864 1 1 0 9.992253167374729 10.319922026588056 3.439804745058067 0 0 0
1865 1 1 0 10.156031724942384 10.319909662170337 3.439839411772796 0 0 0
1886 1 1 0 10.370231377431274 10.427356265405466 3.44007498756128 0 0 0
1887 1 1 0 10.406300698208181 10.619609790091989 3.4402799808153643 0 0 0
1888 1 1 0 10.406703420215093 10.813336302876502 3.4397117840291145 0 0 0
45 1 2 0 13.759470626353718 10.319939974659853 3.4403013904475412 0 0 0
1781 1 1 0 13.721399861333447 9.495181750257895 3.4410607947509084 0 0 0
1782 1 1 0 13.69452978387023 9.654152830862762 3.4400936999178935 0 0 0
1783 1 1 0 13.672962517153076 9.826261161333479 3.440235098389159 0 0 0
1784 1 1 0 13.673406086991012 10.019940706347679 3.439510687734469 0 0 0
1785 1 1 0 13.709323983689687 10.212305198157303 3.4399290735687393 0 0 0
1845 1 1 0 13.923618898169678 10.319972056500953 3.440553790817015 0 0 0
1906 1 1 0 13.709318659199461 10.427419026120745 3.439964518986376 0 0 0
1907 1 1 0 13.673477160717148 10.619739773088737 3.4394122546692953 0 0 0
1908 1 1 0 13.67294051045677 10.813436042993095 3.440181422555105 0 0 0
1835 1 1 0 15.561602642365425 10.319824180888267 3.4352235633417036 0 0 0
1836 1 1 0 15.397869317584941 10.319802880832462 3.439176314218171 0 0 0
1837 1 1 0 15.234127378383121 10.319822996287419 3.441400665926249 0 0 0
1838 1 1 0 15.070233696964562 10.319826656638353 3.4422561433764094 0 0 0
1839 1 1 0 14.906492628269488 10.319839105535168 3.441073699068951 0 0 0
1840 1 1 0 14.742666809453143 10.319854497596149 3.439765635000535 0 0 0
1841 1 1 0 14.578938148406541 10.319882669010685 3.4389220848322806 0 0 0
1842 1 1 0 14.415074845253132 10.31990975610358 3.439781380129712 0 0 0
1843 1 1 0 14.251263783174982 10.319955289775084 3.439850761689604 0 0 0
1844 1 1 0 14.087424121235713 10.319963828678345 3.4397927742133696 0 0 0
1826 1 1 0 17.047410913011017 10.319798796691927 3.468551165122719 0 0 0
1827 1 1 0 16.87699597907183 10.319964444627027 3.4835880125875853 0 0 0
1828 1 1 0 16.70657490673856 10.319902196585986 3.4840017110657358 0 0 0
1829 1 1 0 16.540947128145188 10.319890584053846 3.47481359727461 0 0 0
1830 1 1 0 16.37867793959082 10.319870068617183 3.461092705751117 0 0 0
1831 1 1 0 16.21641869381001 10.31986284835926 3.4474164158141942 0 0 0
1832 1 1 0 16.053417900802575 10.319833727581326 3.438132757862987 0 0 0
1833 1 1 0 15.889165910731196 10.319838571099 3.431860201368302 0 0 0
1834 1 1 0 15.725400017710319 10.319810034384384 3.4324145586705823 0 0 0
1811 1 1 0 0.009469576848059862 11.303389705058002 3.4499989551639723 0 0 0
1816 1 1 0 17.199190221970635 12.121769552837069 3.446244663854398 -1 0 0
1817 1 1 0 0.00244129758805305 12.285339861021498 3.4555638729994747 0 0 0
1809 1 1 0 0.05244947295267923 10.98891023665251 3.492597314740207 0 0 0
1810 1 1 0 0.030240541560675516 11.146394673159815 3.4714296215157936 0 0 0
1818 1 1 0 0.0030729507349860144 12.448865050638759 3.4584186921282862 0 0 0
1889 1 1 0 10.385179205146406 10.985520690163279 3.4398050603340358 0 0 0
1890 1 1 0 10.35832539130489 11.144457321836148 3.4388219744711597 0 0 0
1891 1 1 0 10.331841059337405 11.3028607587603 3.4395572203642386 0 0 0
1892 1 1 0 10.31254786678143 11.465646312426069 3.441003248329365 0 0 0
1893 1 1 0 10.301467478283884 11.630776245034195 3.442965893598566 0 0 0
1894 1 1 0 10.304332489363825 11.794249423556566 3.442382416938243 0 0 0
1895 1 1 0 10.313592724599632 11.957875122195603 3.4393496391673732 0 0 0
1896 1 1 0 10.324988374594696 12.121802363486518 3.434245281139406 0 0 0
1897 1 1 0 10.333672833559534 12.285286329102814 3.429396904437125 0 0 0
1898 1 1 0 10.335962755438096 12.448777878908354 3.4274840447296424 0 0 0
1909 1 1 0 13.694400135629177 10.985517962043689 3.4401338786410087 0 0 0
1910 1 1 0 13.721349061912063 11.144505391815501 3.4410461496224625 0 0 0
1911 1 1 0 13.747807159798237 11.30295203150473 3.4403964410443755 0 0 0
1912 1 1 0 13.767407167703686 11.465502583993201 3.4386431809559603 0 0 0
1913 1 1 0 13.778471499310513 11.630909052905672 3.4367315403397805 0 0 0
1914 1 1 0 13.775422271613008 11.794084882968694 3.4375251525214128 0 0 0
1915 1 1 0 13.765996762171705 11.95787197890183 3.440717112046872 0 0 0
1916 1 1 0 13.754319404465157 12.121822480688413 3.446103328615299 0 0 0
1917 1 1 0 13.745374782434217 12.285160980665657 3.4511965628643946 0 0 0
1918 1 1 0 13.743657197977456 12.44881407691815 3.4525170613869824 0 0 0
1813 1 1 0 17.187243524033434 11.630956282520751 3.4238762812810624 -1 0 0
1814 1 1 0 17.189201569302995 11.794375245090402 3.4261451540534122 -1 0 0
1812 1 1 0 17.195078260209904 11.465355468855005 3.4340216481165533 -1 0 0
1815 1 1 0 17.194045002666698 11.957902407642008 3.434889946303783 -1 0 0
1819 1 1 0 0.0010778731738836328 12.613992972578037 3.44737398893023 0 0 0
1823 1 1 0 17.199506137646527 13.266245873209673 3.35311151452541 -1 0 0
1926 1 1 0 17.19928021089974 13.759830362742644 3.6036666170009073 -1 0 0
1929 1 1 0 0.00035539099637950155 13.759779228352233 4.095155462917535 0 0 0
1931 1 1 0 0.0006922277981440097 13.759765273331714 4.422849310083863 0 0 0
1824 1 1 0 0.000450561050238617 13.45997108132751 3.3533539045059775 0 0 0
1930 1 1 0 0.0010926606226024697 13.7597906355137 4.258935656552289 0 0 0
1264 1 1 0 0.0005184331194043151 14.059622511855007 3.3524103556450244 0 0 0
1104 1 1 0 3.4401798940701402 13.672851137105031 3.140067207479038 0 0 0
47 1 2 0 3.4399015162491184 13.759908852055943 3.439197613159031 0 0 0
1105 1 1 0 3.4402009443219694 13.709223376082445 3.3325036684445593 0 0 0
1325 1 1 0 3.4395369864431378 13.923570316004197 3.440370857322836 0 0 0
1946 1 1 0 3.439865605366017 13.70955023672041 3.5475561449339903 0 0 0
1947 1 1 0 3.439902123011548 13.673326000335276 3.739789955359814 0 0 0
1948 1 1 0 3.439877019083252 13.67287184352821 3.9334842523554143 0 0 0
1949 1 1 0 3.439909532929245 13.694743404358702 4.105593029051661 0 0 0
1950 1 1 0 3.4399107359807233 13.721389219399368 4.264531752443843 0 0 0
1951 1 1 0 3.439938694980174 13.748269913047976 4.422976586732798 0 0 0
1952 1 1 0 3.439920316417483 13.767088479708413 4.586021197319678 0 0 0
48 1 2 0 6.880263797947246 13.760160772289368 3.445338578315054 0 0 0
1145 1 1 0 6.879559321578529 13.759486225268146 3.2761896817337526 0 0 0
49 1 2 0 10.319575540970444 13.759646035422014 3.440177385199837 0 0 0
1185 1 1 0 10.29129361352412 13.760109117086987 3.2876568588873116 0 0 0
1425 1 1 0 10.282210454591857 13.854478640183284 3.477490903532683 0 0 0
1899 1 1 0 10.325794815658524 12.6143809131829 3.4353022897057865 0 0 0
1900 1 1 0 10.309827741104732 12.776251278612632 3.449486569682796 0 0 0
1901 1 1 0 10.288364515041923 12.933243276121354 3.4702337502847986 0 0 0
1902 1 1 0 10.267201774917206 13.090722428183945 3.4924630845176146 0 0 0
1903 1 1 0 10.250072674104269 13.264701057369589 3.509602676272449 0 0 0
1904 1 1 0 10.251062164643313 13.466609667738405 3.5092878946017825 0 0 0
1905 1 1 0 10.282607351386355 13.66472753434931 3.4773097331635934 0 0 0
1966 1 1 0 10.472275520025455 13.759829295494955 3.468246398004506 0 0 0
1967 1 1 0 10.642628894781005 13.760158920249236 3.4831817118088706 0 0 0
1968 1 1 0 10.813002518890688 13.759618970409356 3.4841319908753534 0 0 0
1424 1 1 0 10.25019260018029 14.052999253622282 3.509626141355756 0 0 0
1969 1 1 0 10.978674322831152 13.759556845441793 3.474985440536624 0 0 0
1970 1 1 0 11.140899712671175 13.758732137201639 3.4621480209050985 0 0 0
1971 1 1 0 11.303081796503887 13.759355693521146 3.4478078256198645 0 0 0
1972 1 1 0 11.465844962990342 13.761155122310248 3.4368043879329355 0 0 0
1973 1 1 0 11.630954504056275 13.763058773234986 3.4285905217280828 0 0 0
1974 1 1 0 11.793875280244858 13.762285712198242 3.429925555654684 0 0 0
1975 1 1 0 11.958018916527488 13.759079354321084 3.4359819721280718 0 0 0
1976 1 1 0 12.121764620689856 13.753707106480354 3.44530093150181 0 0 0
1977 1 1 0 12.284942011906088 13.748596194746936 3.452572603676581 0 0 0
1978 1 1 0 12.44920063073113 13.74724852157599 3.4548776934991996 0 0 0
50 1 2 0 13.760308380238781 13.76061142727378 3.4394154304849107 0 0 0
1919 1 1 0 13.753957311169028 12.614315711106384 3.4445402734914903 0 0 0
1920 1 1 0 13.770574949059634 12.776022408303126 3.429666324185936 0 0 0
1921 1 1 0 13.792795083671342 12.932487089517396 3.4081695984943443 0 0 0
1922 1 1 0 13.814222630072782 13.089963515787993 3.3856588742332216 0 0 0
1923 1 1 0 13.83157580245743 13.265124289696839 3.3682647398667265 0 0 0
1924 1 1 0 13.830151129986872 13.47007723043084 3.3692346523817953 0 0 0
1925 1 1 0 13.796043173169465 13.671219878835313 3.4035128088395146 0 0 0
1979 1 1 0 12.613986219365783 13.75518502311974 3.445588325201199 0 0 0
1980 1 1 0 12.775914068684813 13.770061000117982 3.429677400076352 0 0 0
1981 1 1 0 12.932577721052334 13.791575002693595 3.407102680109931 0 0 0
1982 1 1 0 13.08998040236776 13.814078466842139 3.3858068428972947 0 0 0
1983 1 1 0 13.265083394280671 13.83147559827518 3.367990293154185 0 0 0
1984 1 1 0 13.470108944434818 13.830538318235993 3.3695295247487334 0 0 0
1985 1 1 0 13.67123611244463 13.796249259439698 3.403893083938535 0 0 0
1986 1 1 0 13.796288535969282 13.796094685692733 3.5284444830693427 0 0 0
1987 1 1 0 13.83101527074462 13.83009934017294 3.729669524182632 0 0 0
1988 1 1 0 13.831234471113952 13.831661593389272 3.93461888767232 0 0 0
1989 1 1 0 13.814035549014955 13.814194977825677 4.109554929596485 0 0 0
1990 1 1 0 13.790475751026813 13.792643546350043 4.267180208920844 0 0 0
1991 1 1 0 13.769684830662822 13.770397949383366 4.42402024552798 0 0 0
1992 1 1 0 13.756307761712632 13.754132241498992 4.585526141455498 0 0 0
1265 1 1 0 17.19972241570021 13.86713133750825 3.389245443818765 -1 0 0
1821 1 1 0 17.1986641289519 12.935162952603598 3.4015699474578156 -1 0 0
1825 1 1 0 1.028680906145496e-05 13.652361526647809 3.3895176214708598 0 0 0
1927 1 1 0 17.199557091774068 13.759699927440337 3.7675145631664093 -1 0 0
46 1 2 0 17.199470972554945 13.760354761685548 3.4402023101760664 -1 0 0
1820 1 1 0 17.199423945413216 12.776712064071415 3.4280727700771143 -1 0 0
1822 1 1 0 17.19965275472012 13.094088593950113 3.374664085316684 -1 0 0
1928 1 1 0 17.19958676588824 13.75987475671496 3.9312902891927344 -1 0 0
1932 1 1 0 17.198322899263324 13.759805886582248 4.586576578381254 -1 0 0
1257 1 1 0 0.0024696131929983238 15.234345158314913 3.4505947067391736 0 0 0
1258 1 1 0 0.003215044967744246 15.07018968919877 3.4521404424262814 0 0 0
1259 1 1 0 0.0013396762901429428 14.905689726113573 3.444935929431924 0 0 0
1263 1 1 0 17.199524767946567 14.253493522408876 3.353521327830676 -1 0 0
1315 1 1 0 3.445555246333063 15.561571956993008 3.43433595132474 0 0 0
1316 1 1 0 3.440611861034892 15.39791457033821 3.4392271673895496 0 0 0
1317 1 1 0 3.4373733465585943 15.233964329269655 3.442511687246599 0 0 0
1318 1 1 0 3.4370215815542378 15.070385758925621 3.44283667581546 0 0 0
1319 1 1 0 3.43869900490104 14.90630971771966 3.441189473678365 0 0 0
1320 1 1 0 3.440498759511477 14.742618476106198 3.439390731968311 0 0 0
1321 1 1 0 3.4408719625931448 14.578804344303292 3.4390052272378804 0 0 0
1322 1 1 0 3.4403301350773052 14.415017493925793 3.4395522905622053 0 0 0
1323 1 1 0 3.439898003011422 14.251138886909475 3.439903006636963 0 0 0
1324 1 1 0 3.439852322472875 14.087377726266196 3.4401955914765012 0 0 0
1415 1 1 0 10.326164600181984 15.561219101327845 3.433647188441269 0 0 0
1416 1 1 0 10.32617005056584 15.398365564291089 3.433669548856808 0 0 0
1417 1 1 0 10.327981427727417 15.234611133124384 3.4318726735041043 0 0 0
1418 1 1 0 10.329362451921787 15.070060155976295 3.430510398155258 0 0 0
1419 1 1 0 10.323494275514907 14.90557020733888 3.4363601153504133 0 0 0
1420 1 1 0 10.310809718362483 14.74405819716146 3.449063488861895 0 0 0
1421 1 1 0 10.290747283682933 14.586469354478428 3.469114384884814 0 0 0
1422 1 1 0 10.26736453043305 14.428330327210778 3.4924900622534714 0 0 0
1423 1 1 0 10.250408990099823 14.254937926327216 3.5094390457692213 0 0 0
1261 1 1 0 17.19867039905516 14.584338893674063 3.4036998559289833 -1 0 0
1262 1 1 0 17.199554397738684 14.425143691945763 3.374844847664093 -1 0 0
1255 1 1 0 17.193683196957952 15.561361604377337 3.4466308922588107 -1 0 0
1256 1 1 0 17.199010275057493 15.398243621561306 3.4475538620703823 -1 0 0
1260 1 1 0 17.19930573122195 14.743565834121625 3.428926002412868 -1 0 0
1247 1 1 0 0.07080256761365382 16.91012762083935 3.3685310370539696 0 0 0
1248 1 1 0 0.07161354194405488 16.705028260933037 3.3684689548178195 0 0 0
1246 1 1 0 0.036240937165087445 17.11127954206251 3.4036792253522856 0 0 0
1249 1 1 0 0.05431147716338964 16.530228757972456 3.3857729199835345 0 0 0
1250 1 1 0 0.03174238289433002 16.372613041968712 3.4094016083262226 0 0 0
1251 1 1 0 0.010216186453858129 16.215389882709015 3.430224318648189 0 0 0
1268 1 1 0 3.933022706469795 0.00021329470312636545 3.4840326348727846 0 0 0
1272 1 1 0 4.586229236522263 17.19877793929124 3.438104792595755 0 -1 0
225 1 1 0 3.4110472816642754 0.0002713832196938881 3.28768288777233 0 0 0
1267 1 1 0 3.7626728971038848 17.19973251413133 3.483570965205633 0 -1 0
1306 1 1 0 3.4027818658652995 17.104784655622215 3.47738288631679 0 0 0
1307 1 1 0 3.370751327720147 16.906599745650382 3.5092046754486774 0 0 0
1308 1 1 0 3.3703407871754463 16.704663198225756 3.5096078297132416 0 0 0
1309 1 1 0 3.3874693084761023 16.530900012674987 3.492523414702812 0 0 0
1310 1 1 0 3.40976712270128 16.3732219430935 3.4701615373260597 0 0 0
1311 1 1 0 3.4304560774204518 16.215974114741307 3.4495133977188313 0 0 0
1312 1 1 0 3.444677950971666 16.05404312074757 3.435236515998633 0 0 0
1313 1 1 0 3.4523735750288567 15.889065470844336 3.427545559948722 0 0 0
1314 1 1 0 3.4505177366159883 15.724999801711261 3.429363881145736 0 0 0
1273 1 1 0 4.750449193095376 17.197386775459236 3.431785231039231 0 -1 0
1274 1 1 0 4.914322941128534 17.198407475145544 3.4323634915689074 0 -1 0
1280 1 1 0 5.896565893065146 17.192331752455658 3.4399617396703905 0 -1 0
1281 1 1 0 6.058728038862794 17.17858156861477 3.438935169819791 0 -1 0
1282 1 1 0 6.221107502483437 17.164888843241666 3.4399672789583353 0 -1 0
284 1 1 0 6.9490794384142305 17.130868812377628 3.146812825831706 0 -1 0
285 1 1 0 6.917393478559151 17.16287426387678 3.3448243090254373 0 -1 0
1284 1 1 0 6.557120459671522 17.156141402190546 3.440111025878587 0 -1 0
1285 1 1 0 6.727551753321227 17.17113426957668 3.440415783384327 0 -1 0
1346 1 1 0 6.9170423045115585 17.16211162749723 3.534848555648967 0 -1 0
1347 1 1 0 6.948507786005603 17.130060326728948 3.733117766021604 0 -1 0
1349 1 1 0 6.932482065413435 17.147331137620192 4.108757492601369 0 -1 0
1350 1 1 0 6.911196619157921 17.1706094259185 4.266435152786633 0 -1 0
28 1 2 0 6.880072542561199 17.199614083714085 3.439828031410305 0 -1 0
1283 1 1 0 6.38673386585641 17.155668567371663 3.4396854299528017 0 -1 0
1348 1 1 0 6.949744039304717 17.130342393335724 3.9350063888215945 0 -1 0
1351 1 1 0 6.889742067190492 17.190635729126242 4.423672490373908 0 -1 0
1366 1 1 0 10.472185472548015 1.0625181595003141e-05 3.468472258915221 0 0 0
1406 1 1 0 10.282736566478354 17.104918180067646 3.4775414183393876 0 0 0
1407 1 1 0 10.250071176965168 16.906626432141167 3.5095838986450567 0 0 0
1408 1 1 0 10.250464973429857 16.70462237132397 3.5093762516544014 0 0 0
1409 1 1 0 10.267363830527225 16.53118029778345 3.4924107777698827 0 0 0
1410 1 1 0 10.29068253313925 16.373102375445868 3.4690539677678784 0 0 0
1411 1 1 0 10.310728210110225 16.21546641049845 3.448988548802616 0 0 0
1412 1 1 0 10.323442943924174 16.05396053567271 3.436302173550199 0 0 0
1413 1 1 0 10.329293251092622 15.889583301514932 3.4304450120216923 0 0 0
1414 1 1 0 10.32793978521465 15.724972697114667 3.431844737273131 0 0 0
1378 1 1 0 12.449389019821437 17.199726707043844 3.442329716039652 0 -1 0
1375 1 1 0 11.958006894005496 17.199757895912864 3.435252535355574 0 -1 0
1376 1 1 0 12.121776210812758 17.19974021159922 3.439226663523535 0 -1 0
1377 1 1 0 12.28551221733037 17.199725913937982 3.4414289166589995 0 -1 0
1245 1 1 0 13.92357979901796 0.00021781902878714732 3.439383902197517 0 0 0
1379 1 1 0 12.61319989200202 17.199726553112907 3.4411186033765078 0 -1 0
1381 1 1 0 12.940761055927174 17.199742020417503 3.438992700284421 0 -1 0
1382 1 1 0 13.10458837120356 17.19972405744654 3.439833792092487 0 -1 0
1385 1 1 0 13.59607573902633 17.19963289139293 3.4406057651975614 0 -1 0
1431 1 1 0 13.759839159132271 17.19971383855631 4.42275821394404 0 -1 0
1380 1 1 0 12.77705585563751 17.1997477928309 3.439848900036301 0 -1 0
1383 1 1 0 13.26839539240631 17.199680499040475 3.4398020014668447 0 -1 0
1384 1 1 0 13.432223258582939 17.199649455399165 3.4399304266510082 0 -1 0
1430 1 1 0 13.759833730612039 17.19973870573353 4.258952183159149 0 -1 0
1235 1 1 0 15.561586652378626 17.19374276635445 3.44606537248833 0 -1 0
1240 1 1 0 14.742675799247777 17.199188464732675 3.4405040890041 0 -1 0
1241 1 1 0 14.578854137623676 17.198769985273405 3.440895930994386 0 -1 0
1242 1 1 0 14.415105932906698 17.19936274237809 3.44027026653125 0 -1 0
1212 1 1 0 17.19514791992117 17.195144955095202 4.585691432147742 -1 -1 0
1232 1 1 0 16.05404366008038 17.195126750398366 3.444635952554111 0 -1 0
1233 1 1 0 15.88927441130319 17.187273068397385 3.4525044550834867 0 -1 0
1234 1 1 0 15.724968479286336 17.188590711162924 3.451199024378345 0 -1 0
1252 1 1 0 17.195137311524565 16.054007269361367 3.443274639261673 -1 0 0
1253 1 1 0 17.187226048218047 15.889424685682691 3.4488694674017686 -1 0 0
1254 1 1 0 17.188561804281235 15.725019237210576 3.447892953603074 -1 0 0
1219 1 1 0 0.0014671478194680408 0.0014093791632966493 5.733416246584632 0 0 0
1217 1 1 0 0.0025458934527711717 0.002528399501531316 5.405858809086441 0 0 0
1218 1 1 0 0.0031318120210145723 0.0030713131892412017 5.569240107013051 0 0 0
1353 1 1 0 6.864384100134614 0.009449086076488299 4.750666990060532 0 0 0
1358 1 1 0 6.8954567239389615 0.009433722293249227 5.569228735276014 0 0 0
1354 1 1 0 6.866922715229701 0.008090922166972919 4.914595018122085 0 0 0
1355 1 1 0 6.874819984819866 0.006263844598690929 5.07820994596064 0 0 0
1356 1 1 0 6.885015713947804 0.006260807440264561 5.241642220202474 0 0 0
1357 1 1 0 6.8929217248857935 0.008083830490421128 5.405272296317151 0 0 0
1359 1 1 0 6.885706129526823 0.0035793308423730944 5.7343819702822945 0 0 0
1433 1 1 0 13.759836137902688 2.2349776698307367e-05 4.7503620849123385 0 0 0
1434 1 1 0 13.759834280229805 2.5573149167068816e-06 4.914255940430053 0 0 0
1440 1 1 0 13.759771921608742 2.6422169385310542e-05 5.897041959004459 0 0 0
1441 1 1 0 13.75979964567921 2.3527728658615203e-05 6.060884582707561 0 0 0
1442 1 1 0 13.75988903537402 1.1304039290232235e-05 6.224738716571454 0 0 0
1439 1 1 0 13.759800364977142 1.3245913660556718e-05 5.733244542316351 0 0 0
1513 1 1 0 3.4348615771024273 3.436903963252217 4.750345241477056 0 0 0
1514 1 1 0 3.43483602083921 3.437498901523881 4.914331699696797 0 0 0
1515 1 1 0 3.4346374649273015 3.44055462288758 5.078267205469092 0 0 0
1516 1 1 0 3.433534775226412 3.44564686180612 5.241565613334471 0 0 0
1517 1 1 0 3.4308277466411052 3.4505178235594247 5.405172011851771 0 0 0
1518 1 1 0 3.4298532183607224 3.45246924122394 5.569479598858444 0 0 0
1519 1 1 0 3.436304521933132 3.444673225151999 5.734282194165402 0 0 0
1520 1 1 0 3.449393085851407 3.43049205933425 5.895964278518459 0 0 0
1521 1 1 0 3.469079140154836 3.4097428913567356 6.053179000691641 0 0 0
1522 1 1 0 3.4925693723884264 3.387371565627821 6.211169875649387 0 0 0
1553 1 1 0 6.8767237249963395 3.443094011053122 4.750617944290378 0 0 0
1554 1 1 0 6.877351603638151 3.442477770317927 4.914035266474551 0 0 0
1555 1 1 0 6.8806502288024705 3.439157096329809 5.078079382135536 0 0 0
1556 1 1 0 6.885989979000971 3.4338502936033355 5.241677761450477 0 0 0
1557 1 1 0 6.891086569835443 3.4287277420411533 5.40503103789745 0 0 0
1558 1 1 0 6.892422099774936 3.4274173943603605 5.569296639778549 0 0 0
1559 1 1 0 6.884524487489061 3.435281191521439 5.734109938820484 0 0 0
1560 1 1 0 6.869625491078579 3.4501906547369763 5.895777641372425 0 0 0
1561 1 1 0 6.848133017781657 3.4716437086054963 6.052581349350183 0 0 0
1562 1 1 0 6.825574297797456 3.49420230928816 6.21018467945889 0 0 0
1593 1 1 0 10.335641756292109 3.430608107794146 4.7506960028450695 0 0 0
1594 1 1 0 10.33354079590291 3.4312129273451966 4.914515699563956 0 0 0
1595 1 1 0 10.32524049525574 3.433154225109557 5.078140365501361 0 0 0
1596 1 1 0 10.314497967654718 3.4331552820120126 5.241620031469905 0 0 0
1597 1 1 0 10.306184398295256 3.4312355396416563 5.405334798939234 0 0 0
1598 1 1 0 10.304077767611957 3.430661415980265 5.569166261747556 0 0 0
1599 1 1 0 10.313897942840489 3.4367090108069354 5.734343528874959 0 0 0
1600 1 1 0 10.330500302544314 3.449786111255044 5.895784243514266 0 0 0
1601 1 1 0 10.352680014308717 3.470660118551843 6.052672496924482 0 0 0
1602 1 1 0 10.374274066285162 3.4941602278949593 6.210220929286229 0 0 0
1653 1 1 0 3.439944939750445 6.864576136651546 4.750531709087682 0 0 0
1654 1 1 0 3.4399447067153193 6.866798989927904 4.914613946547879 0 0 0
1655 1 1 0 3.43998246441092 6.873112883129306 5.078147659290741 0 0 0
1656 1 1 0 3.4399714991241366 6.879238344076014 5.241837205405542 0 0 0
1657 1 1 0 3.439996187266781 6.883304230348233 5.405691068662005 0 0 0
1658 1 1 0 3.4399601820493837 6.883408460235035 5.569317743020549 0 0 0
1659 1 1 0 3.439998129761853 6.881366954536554 5.7333374337248015 0 0 0
1660 1 1 0 3.439969432740778 6.879252140658134 5.897009438711682 0 0 0
1661 1 1 0 3.4399821977528697 6.878824716371889 6.060893125706569 0 0 0
1662 1 1 0 3.4399194253256 6.879506994763395 6.2246640143226575 0 0 0
1693 1 1 0 6.889303901260757 6.864405133257693 4.750734364112329 0 0 0
1694 1 1 0 6.88797428058935 6.866928693837494 4.914642062309132 0 0 0
1695 1 1 0 6.886159399971043 6.87481127628641 5.078223843901063 0 0 0
1696 1 1 0 6.8861740020525595 6.885000482049944 5.24166730312862 0 0 0
1697 1 1 0 6.88799531241606 6.8928815177090925 5.405283320503493 0 0 0
1698 1 1 0 6.889359919669289 6.895403073707522 5.569181088359896 0 0 0
1699 1 1 0 6.883491635559507 6.885638410429902 5.734299095993835 0 0 0
1700 1 1 0 6.870780764375527 6.870032513330302 5.896083899645821 0 0 0
1701 1 1 0 6.850748201226981 6.8485687568846005 6.053295530046067 0 0 0
1702 1 1 0 6.827462973935939 6.827288477893791 6.211062436664864 0 0 0
1753 1 1 0 10.322899749528878 6.885023488823427 4.750293279498134 0 0 0
1754 1 1 0 10.322299215226021 6.885034205705502 4.914274677573352 0 0 0
1755 1 1 0 10.319235352800824 6.885281428378032 5.078275086028531 0 0 0
1756 1 1 0 10.31415334167897 6.886360390716522 5.241629105399274 0 0 0
1757 1 1 0 10.30930299473924 6.889071285894561 5.405136016378556 0 0 0
1758 1 1 0 10.307365161338778 6.88999580006376 5.569470172442609 0 0 0
1759 1 1 0 10.315163373253798 6.883558266378753 5.734256683310734 0 0 0
1760 1 1 0 10.32932653810712 6.870411420878694 5.895870870356229 0 0 0
1761 1 1 0 10.350057941974601 6.850710168320804 6.053114290453258 0 0 0
1762 1 1 0 10.372426253167438 6.827188602824753 6.211139860750113 0 0 0
1793 1 1 0 13.749288640298126 6.879886862180494 4.750713978584632 0 0 0
1794 1 1 0 13.750876460727504 6.879866375483319 4.914336069654607 0 0 0
1795 1 1 0 13.755840479041183 6.879912445464243 5.077987805468702 0 0 0
1796 1 1 0 13.763792718462275 6.879885340783147 5.241873669745167 0 0 0
1797 1 1 0 13.768760293369573 6.879926823175536 5.405561747910243 0 0 0
1798 1 1 0 13.770342694369582 6.87989831160679 5.569135191290079 0 0 0
1799 1 1 0 13.762604711415625 6.87992152632436 5.733587921799509 0 0 0
1800 1 1 0 13.75237031431528 6.879894018895883 5.89675709841792 0 0 0
1801 1 1 0 13.73760448762733 6.879920311738806 6.058894579704922 0 0 0
1802 1 1 0 13.724978216521215 6.879893825032451 6.221072035333366 0 0 0
1873 1 1 0 6.8922413219527865 10.322844334094741 4.750308545332602 0 0 0
1874 1 1 0 6.89056431465039 10.322248086346253 4.914527262956054 0 0 0
1875 1 1 0 6.887359176435039 10.319204822678632 5.0783260149752625 0 0 0
1876 1 1 0 6.886217151779606 10.31412140894213 5.2414946424690525 0 0 0
1877 1 1 0 6.887185584096933 10.309277987911344 5.405175100303395 0 0 0
1878 1 1 0 6.888789759775631 10.307338881927683 5.569506174295228 0 0 0
1879 1 1 0 6.883313227618785 10.315144730656655 5.734183345689901 0 0 0
1880 1 1 0 6.870952640644574 10.32931637449589 5.895870558700169 0 0 0
1881 1 1 0 6.850900331815104 10.350077471425646 6.053310861884098 0 0 0
1882 1 1 0 6.82755738633871 10.372401608965033 6.211165437306658 0 0 0
1936 1 1 0 0.006787361313026944 13.759834360277637 5.241751062532348 0 0 0
1937 1 1 0 0.013114284296777318 13.759821586944975 5.4052881198739495 0 0 0
1938 1 1 0 0.015319116157455629 13.759838679754083 5.569332857362684 0 0 0
1939 1 1 0 0.0063183391567364295 13.75981989840966 5.733925690407733 0 0 0
1953 1 1 0 3.4399461115508236 13.77762992931163 4.750570323126077 0 0 0
1954 1 1 0 3.4399189836382944 13.77426963514028 4.914555562477613 0 0 0
1955 1 1 0 3.4399471880031163 13.765967975435784 5.077939127642205 0 0 0
1956 1 1 0 3.4399192030934227 13.755652752232606 5.241803957142282 0 0 0
1957 1 1 0 3.4399550528281098 13.749033867807691 5.405783994038542 0 0 0
1958 1 1 0 3.439929323565215 13.748058627701075 5.568857705121119 0 0 0
1959 1 1 0 3.439962575213919 13.756796736312708 5.733909633095058 0 0 0
1960 1 1 0 3.439924117176538 13.767750422082399 5.896746070851194 0 0 0
1961 1 1 0 3.439944372498795 13.782171456396267 6.058876049221483 0 0 0
1962 1 1 0 3.4399047655125106 13.794841292992142 6.221147476208654 0 0 0
1993 1 1 0 13.750280006489543 13.744232658229596 4.750603195151883 0 0 0
1994 1 1 0 13.751045808806147 13.746163266048567 4.914683135862027 0 0 0
1995 1 1 0 13.753100474588 13.754294954225768 5.078155950327918 0 0 0
1996 1 1 0 13.753369205784404 13.76475007564156 5.24162553657636 0 0 0
1997 1 1 0 13.75169286578285 13.772776273867521 5.40534430113734 0 0 0
1998 1 1 0 13.750539089387608 13.775476325162114 5.5690888599896144 0 0 0
1999 1 1 0 13.756441139089942 13.765750299136355 5.734365228775336 0 0 0
2000 1 1 0 13.768853726373242 13.749810463252395 5.896116753075283 0 0 0
2001 1 1 0 13.788937207785418 13.728400511572692 6.053410388282116 0 0 0
2002 1 1 0 13.812168267938135 13.707062363395462 6.211035069686175 0 0 0
1933 1 1 0 17.19630698437701 13.759784432176104 4.750556154273397 -1 0 0
1934 1 1 0 17.19637302762239 13.75982194262159 4.914105057010115 -1 0 0
1935 1 1 0 0.0007014296888137039 13.759818180232836 5.078040946751772 0 0 0
1940 1 1 0 17.18816415398444 13.759827421682438 5.896477542111962 -1 0 0
1941 1 1 0 17.162441718782617 13.759804282015864 6.05525775163343 -1 0 0
1942 1 1 0 17.134457353328678 13.759798100491192 6.21441668449899 -1 0 0
1360 1 1 0 6.870090825288295 17.19060732716852 5.896181522300959 0 -1 0
1361 1 1 0 6.848611364139352 17.17057100252412 6.053384477808747 0 -1 0
1362 1 1 0 6.827313368566272 17.147273551399383 6.2110872544180165 0 -1 0
1438 1 1 0 13.75984659353695 17.1997504581036 5.56943377114478 0 -1 0
1435 1 1 0 13.759846036202184 17.19973054454928 5.078062457638504 0 -1 0
1436 1 1 0 13.759862068401741 17.199717154836474 5.241865946933858 0 -1 0
1437 1 1 0 13.759868358530293 17.199723430551202 5.405628539060422 0 -1 0
1213 1 1 0 17.187284570321182 17.18727131219043 4.7505310595595205 -1 -1 0
1214 1 1 0 17.188575319763316 17.18857996319061 4.914782187704928 -1 -1 0
1216 1 1 0 17.198987880698553 17.198969822249975 5.2417597960911095 -1 -1 0
1215 1 1 0 17.193703736085027 17.19371313012353 5.078159818480731 -1 -1 0
1220 1 1 0 17.19917356981123 17.199118733873906 5.897021226501872 -1 -1 0
1222 1 1 0 17.199388214039967 17.199348760067274 6.224663219211668 -1 -1 0
1221 1 1 0 17.198788150907916 17.198734104343462 6.0609040791045095 -1 -1 0
51 1 2 0 17.19944664690589 17.199408264074517 6.8853258791846805 -1 -1 0
1224 1 1 0 0.0003049059154092299 0.0002552040296304525 6.552241495636788 0 0 0
1223 1 1 0 17.19975176527013 17.19970775994571 6.388530969132799 -1 -1 0
52 1 2 0 3.439878 7.9e-05 6.879872 0 0 0
2026 1 1 0 6.851123668351609 0.15221460170816703 6.880447999314683 0 0 0
2027 1 1 0 6.835836814343754 0.32267923646432317 6.8804016101899865 0 0 0
2028 1 1 0 6.835972485696211 0.4929925053168083 6.879747375907819 0 0 0
2029 1 1 0 6.8452771589128565 0.6587604771762929 6.8796514065525844 0 0 0
2030 1 1 0 6.859876011245268 0.8210823860550706 6.878789846150298 0 0 0
2031 1 1 0 6.8729575715571825 0.9834851350790753 6.8793748122254295 0 0 0
2032 1 1 0 6.880474956538329 1.1463496371626534 6.881163567267557 0 0 0
2033 1 1 0 6.884832888109417 1.3103827828204435 6.883044085084456 0 0 0
2034 1 1 0 6.8850866529182335 1.4742440602897615 6.882314471694501 0 0 0
2012 1 1 0 8.026269129541689 0.0018512807006604095 6.878868466697517 0 0 0
2013 1 1 0 8.190436729053975 0.008175230648294594 6.87752454450057 0 0 0
2014 1 1 0 8.354323182951568 0.007620144923849366 6.878494269610052 0 0 0
2015 1 1 0 8.518107464210686 0.0047859481185389555 6.88071762770334 0 0 0
2016 1 1 0 8.681763982602263 0.000810128548247364 6.884647061411464 0 0 0
2020 1 1 0 9.336578528721953 3.618975845476873e-05 6.872489403376677 0 0 0
54 1 2 0 10.319871905198157 0.0004154984173115534 6.87973845870485 0 0 0
2021 1 1 0 9.498797202017105 0.0010309071736141488 6.858782802772001 0 0 0
2025 1 1 0 10.167526698545068 17.199422386753078 6.85132687286585 0 -1 0
2066 1 1 0 10.35709862705206 0.0951759730619152 6.842988000226501 0 0 0
2067 1 1 0 10.389732650914944 0.2931776243663813 6.811114439853579 0 0 0
2068 1 1 0 10.389236700252585 0.4950157345671025 6.810074026392896 0 0 0
2069 1 1 0 10.372204555667961 0.668903642776125 6.827228076447235 0 0 0
2070 1 1 0 10.349022858475132 0.8265372827479159 6.848543443915823 0 0 0
2071 1 1 0 10.328923426709807 0.9837960192769326 6.86995727840988 0 0 0
2072 1 1 0 10.316548206819512 1.1454994850870006 6.885865781112176 0 0 0
2073 1 1 0 10.31062660269245 1.3108351755349061 6.895591470980167 0 0 0
2074 1 1 0 10.311790364876547 1.47451327417502 6.892873114825928 0 0 0
2089 1 1 0 10.354491956236549 0.0001600042290948233 7.538649067542147 0 0 0
2022 1 1 0 9.661183703148684 1.9501793771681443e-05 6.84504689821392 0 0 0
2086 1 1 0 10.348577514124438 0.00010734330618834161 7.032169008257606 0 0 0
2090 1 1 0 10.339886356240173 0.001027176622836458 7.700917783908429 0 0 0
2126 1 1 0 13.759225136109459 0.16382481233190874 6.879555013055099 0 0 0
2127 1 1 0 13.759441016684907 0.32762519315471644 6.879680776652047 0 0 0
2128 1 1 0 13.759637877654132 0.4914119236407828 6.879893425145616 0 0 0
2129 1 1 0 13.76006802098144 0.6552002092842933 6.880224162451311 0 0 0
2130 1 1 0 13.760735867003891 0.8190505097487527 6.880804496618945 0 0 0
2131 1 1 0 13.760376197489078 0.9828685457154187 6.880391801654331 0 0 0
2132 1 1 0 13.758612457745945 1.146541844472778 6.8786315984009745 0 0 0
2133 1 1 0 13.756909623257155 1.310518732999386 6.876960231651643 0 0 0
2134 1 1 0 13.757282499432668 1.4741162839888087 6.877357590924826 0 0 0
2148 1 1 0 13.760023875635898 9.088520506269791e-06 7.371298020224052 0 0 0
2147 1 1 0 13.760025289107315 0.00030672861357664385 7.207540207163878 0 0 0
2035 1 1 0 6.885406721366379 1.638259645916376 6.8791165107266465 0 0 0
2036 1 1 0 6.886830841527462 1.8016044329931635 6.8738154445643636 0 0 0
2037 1 1 0 6.8897322619294865 1.9651483212173384 6.868700708538218 0 0 0
2038 1 1 0 6.890131769527117 2.1296350042255585 6.8673818940145965 0 0 0
2039 1 1 0 6.883493621289642 2.2942774759774465 6.875305036945493 0 0 0
2040 1 1 0 6.869709852962434 2.4557308162807994 6.890155832834784 0 0 0
2041 1 1 0 6.849225299126879 2.612593184026989 6.911643461306128 0 0 0
2042 1 1 0 6.825444009537963 2.7704580132987533 6.934250670338337 0 0 0
2043 1 1 0 6.808631049328494 2.945315290244407 6.951529846232438 0 0 0
2075 1 1 0 10.313450958297267 1.6382473782131015 6.884856182609046 0 0 0
2076 1 1 0 10.313172965762451 1.801709940635544 6.87437603452388 0 0 0
2077 1 1 0 10.311105998986871 1.9652278101778868 6.8662589015421025 0 0 0
2078 1 1 0 10.310357778486413 2.129322907511231 6.864314076719436 0 0 0
2079 1 1 0 10.316355152375671 2.294367691491681 6.874217404035402 0 0 0
2080 1 1 0 10.329768708972507 2.455913120291165 6.890489266134275 0 0 0
2081 1 1 0 10.35054378748618 2.612650400522971 6.9127426493434525 0 0 0
2082 1 1 0 10.37408633996494 2.770233882024862 6.934279486025004 0 0 0
2083 1 1 0 10.391282251712054 2.9452500548559986 6.951748679755236 0 0 0
2135 1 1 0 13.760477049294321 1.638048683940964 6.880608745797438 0 0 0
2136 1 1 0 13.765430318412225 1.801777574253712 6.885558076849483 0 0 0
2137 1 1 0 13.770348357275129 1.9652796870469598 6.8904852835878385 0 0 0
2138 1 1 0 13.772213467396409 2.129328605933543 6.8923447543806775 0 0 0
2139 1 1 0 13.764486218109196 2.294194582902991 6.884615696256831 0 0 0
2140 1 1 0 13.750261086986725 2.456100015473864 6.870400392401985 0 0 0
2141 1 1 0 13.729588655159137 2.613335245984823 6.84973200463036 0 0 0
2142 1 1 0 13.70727280003035 2.7710340082443694 6.827410209173079 0 0 0
2143 1 1 0 13.69016647208928 2.944804395923211 6.810319310373656 0 0 0
56 1 2 0 4.203565010210565e-05 3.43981759169989 6.879876283647993 0 0 0
2186 1 1 0 0.09501502802182867 3.402528771395602 6.842913039277829 0 0 0
2187 1 1 0 0.29312094292743535 3.3702977069909896 6.81053944095512 0 0 0
2188 1 1 0 0.4950860017290556 3.370644538262475 6.810330222168432 0 0 0
2189 1 1 0 0.6687042818460193 3.387272555703481 6.827369828106304 0 0 0
2190 1 1 0 0.8267493417257755 3.4107860313694927 6.8496921997059 0 0 0
2191 1 1 0 0.9839584937093064 3.4304841256554384 6.870426894135125 0 0 0
2192 1 1 0 1.1456556625735668 3.44360372566672 6.884580818067381 0 0 0
2193 1 1 0 1.3105186601780487 3.4500595998611927 6.892395337129229 0 0 0
2194 1 1 0 1.4748163205694622 3.4491084748950653 6.890444051261385 0 0 0
2212 1 1 0 0.0013386576952686034 4.586358017979335 6.880432995399585 0 0 0
2229 1 1 0 0.0002843078645010216 3.4051297189265144 7.5386028951867745 0 0 0
2230 1 1 0 0.001282091485565223 3.418798777118154 7.700908774999598 0 0 0
2207 1 1 0 0.00038699221990170563 3.7627230399345564 6.835864343696577 0 0 0
2208 1 1 0 17.19967569343152 3.93298906992818 6.836045864483887 -1 0 0
2226 1 1 0 17.199541880849377 3.411493864150592 7.03225573517721 -1 0 0
2195 1 1 0 1.6383733015909492 3.446417905072736 6.885615918664394 0 0 0
2196 1 1 0 1.801700634487453 3.4453068535819407 6.8805159785323795 0 0 0
2197 1 1 0 1.96561860899673 3.4451072229345807 6.877491684969381 0 0 0
2198 1 1 0 2.1295949021908553 3.4450766760501947 6.876870035082099 0 0 0
2199 1 1 0 2.293601123757455 3.440721137189283 6.878838231991055 0 0 0
2200 1 1 0 2.4565435592042824 3.43293413460153 6.880262099160683 0 0 0
2201 1 1 0 2.618927774374203 3.419888571722751 6.880966926392795 0 0 0
2202 1 1 0 2.7812525280721725 3.4052614728647037 6.88005724785155 0 0 0
2203 1 1 0 2.9468557946674157 3.3960296154873064 6.880061071925214 0 0 0
2204 1 1 0 3.1171741054847506 3.395967979528915 6.87961685017634 0 0 0
57 1 2 0 3.4400179952525103 3.4397296353400106 6.8801141357897055 0 0 0
1523 1 1 0 3.5091990282508125 3.370254715543208 6.384775051285147 0 0 0
1524 1 1 0 3.509534617884696 3.3705596495977974 6.586751225614634 0 0 0
1525 1 1 0 3.477332360775211 3.4026147068699593 6.7849822843731245 0 0 0
2205 1 1 0 3.2876971213744937 3.4111132648264215 6.879722413402487 0 0 0
2266 1 1 0 3.468400864207029 3.5922233989293004 6.880032063131622 0 0 0
2267 1 1 0 3.4836135533805943 3.762594075532109 6.879900823219403 0 0 0
2268 1 1 0 3.4839681251724666 3.93299577780885 6.879971005774021 0 0 0
2269 1 1 0 3.4747559993335484 4.098681236151567 6.879913571002077 0 0 0
2270 1 1 0 3.461061749456037 4.261012682057059 6.879920346025147 0 0 0
2271 1 1 0 3.447365539893664 4.423279206161718 6.87989001463299 0 0 0
2272 1 1 0 3.4380663091371266 4.586347192193984 6.879888047533373 0 0 0
2286 1 1 0 3.4769775838876105 3.4026917602448945 6.975037393663439 0 0 0
2287 1 1 0 3.5092379065804473 3.370546989501933 7.173169014003199 0 0 0
2288 1 1 0 3.509495627235356 3.3702863676486867 7.375061765650172 0 0 0
2289 1 1 0 3.49245755779757 3.387377983318323 7.548782811685675 0 0 0
2290 1 1 0 3.470136392653015 3.409752069555759 7.706536074712873 0 0 0
2044 1 1 0 6.808517683461797 3.150448936379388 6.950780203389034 0 0 0
58 1 2 0 6.87926908408824 3.440545228791575 6.880634761733601 0 0 0
1563 1 1 0 6.8082450440517706 3.5115118116301525 6.385216350867053 0 0 0
1564 1 1 0 6.808845901357542 3.5108075109753156 6.590286106157428 0 0 0
1565 1 1 0 6.843773841867246 3.4760090212468153 6.791282716356735 0 0 0
2045 1 1 0 6.8435677537257265 3.351467754524631 6.916005963026566 0 0 0
2306 1 1 0 6.968418513939152 3.476081788991993 6.916138514813268 0 0 0
2307 1 1 0 7.169553520950821 3.5113919639902544 6.95128828780349 0 0 0
2308 1 1 0 7.374552725595924 3.511365662145829 6.951307515649096 0 0 0
2309 1 1 0 7.549233263716836 3.494127540698675 6.934054051425845 0 0 0
2310 1 1 0 7.706981369993844 3.4706305770698656 6.910505287470045 0 0 0
2311 1 1 0 7.864482081528306 3.4497202152782616 6.889618711005467 0 0 0
2312 1 1 0 8.025650088244326 3.436687323611316 6.8765694176676 0 0 0
2313 1 1 0 8.190001983039293 3.4306590382722413 6.870568175367622 0 0 0
2314 1 1 0 8.354650059577079 3.4312525233713322 6.871145248065974 0 0 0
2315 1 1 0 8.518562076929307 3.4331509976022128 6.873096545545553 0 0 0
2316 1 1 0 8.681178684746653 3.4331564868943003 6.873053259851291 0 0 0
2317 1 1 0 8.84518028764089 3.431217430675024 6.8711670616801435 0 0 0
2318 1 1 0 9.009821598735309 3.430624515786593 6.870537170362162 0 0 0
2319 1 1 0 9.174000155313298 3.4366485988055646 6.876594748700044 0 0 0
2320 1 1 0 9.335144063009487 3.4496958720088724 6.889624735176171 0 0 0
2084 1 1 0 10.391249329138207 3.150297805654647 6.950383725656874 0 0 0
59 1 2 0 10.320480655225337 3.440388859440747 6.880791879301244 0 0 0
1603 1 1 0 10.391612520148984 3.5114605056791364 6.385206972397772 0 0 0
1604 1 1 0 10.390189009692994 3.51151195960059 6.590206037196205 0 0 0
1605 1 1 0 10.355902467906093 3.4762743482934257 6.791270708819699 0 0 0
2085 1 1 0 10.356126983968396 3.3513547552121454 6.915998006798425 0 0 0
2321 1 1 0 9.492655981242981 3.470612228384776 6.910547385714338 0 0 0
2322 1 1 0 9.650464998781127 3.4941407186795947 6.934076469635352 0 0 0
2323 1 1 0 9.825142255579557 3.5113674560962784 6.951374991335586 0 0 0
2324 1 1 0 10.030219895365988 3.5115125968022953 6.951130591589012 0 0 0
2325 1 1 0 10.231448491116256 3.476113478374421 6.916239289943664 0 0 0
2144 1 1 0 13.690584133859039 3.146678652054586 6.810827998510598 0 0 0
60 1 2 0 13.759719968581257 3.440346548448433 6.8798208159818675 0 0 0
2145 1 1 0 13.722666180762578 3.344943587255791 6.842519375684898 0 0 0
2265 1 1 0 13.911985753635143 3.439709559665546 6.851134325237846 0 0 0
2326 1 1 0 13.722556982008584 3.5350280242082115 6.84298287150124 0 0 0
2327 1 1 0 13.689927483239744 3.733160097831124 6.81112090135466 0 0 0
2328 1 1 0 13.690404619241395 3.935004164239287 6.810144673386929 0 0 0
2329 1 1 0 13.707375909476992 4.108798191352172 6.827366825433832 0 0 0
2330 1 1 0 13.730645676027017 4.266499889685067 6.848644656164335 0 0 0
2331 1 1 0 13.750699446207673 4.4237142375216525 6.870071571976073 0 0 0
2332 1 1 0 13.763402580259063 4.5855683101792835 6.885701155814793 0 0 0
2346 1 1 0 13.731293964570023 3.439884321771484 7.032278180838005 0 0 0
2347 1 1 0 13.716095417088441 3.4394141789894146 7.202647921885763 0 0 0
2348 1 1 0 13.715781512636806 3.4400216639406294 7.372997140032819 0 0 0
2349 1 1 0 13.724955103171947 3.440186826829396 7.5386879304606795 0 0 0
2350 1 1 0 13.738628009930096 3.441144347878181 7.701003663240262 0 0 0
2255 1 1 0 15.561448439102854 3.4456466529715577 6.886378467422165 0 0 0
2256 1 1 0 15.398116382629121 3.4405598941809745 6.885226665804526 0 0 0
2257 1 1 0 15.234243376228438 3.4375106053947992 6.885050886702725 0 0 0
2258 1 1 0 15.070243665370272 3.436904788447197 6.88497550582309 0 0 0
2259 1 1 0 14.90617508414056 3.4388600107255836 6.880661357698695 0 0 0
2260 1 1 0 14.743176342603979 3.4402977454418617 6.872841523514524 0 0 0
2261 1 1 0 14.580848818831198 3.4409762961081394 6.859866108336661 0 0 0
2262 1 1 0 14.418536643383655 3.440080356537959 6.845239346321468 0 0 0
2263 1 1 0 14.252833057322023 3.4400948579798523 6.836053167394203 0 0 0
2264 1 1 0 14.082433321732651 3.4394250759615406 6.836111103570767 0 0 0
2206 1 1 0 0.00031179699909600345 3.5922902225198103 6.851333326691075 0 0 0
2209 1 1 0 17.199542095666033 4.0986579126549785 6.845314709772813 -1 0 0
2227 1 1 0 17.19946300728584 3.3962650017585236 7.202649034169105 -1 0 0
2228 1 1 0 0.00012673547308850175 3.395932809915163 7.372965386120037 0 0 0
2210 1 1 0 17.198706353571822 4.261023824407091 6.85986274968528 -1 0 0
2211 1 1 0 17.199278047067214 4.423467476839074 6.872946897612198 -1 0 0
2246 1 1 0 17.10479373901836 3.4027817676319727 6.8426574771749165 0 0 0
2247 1 1 0 16.906642551958996 3.370621741563323 6.81025276425394 0 0 0
2248 1 1 0 16.70465963642043 3.3703607461761704 6.810684163282484 0 0 0
2249 1 1 0 16.531119542485822 3.3874348227248534 6.827279236641372 0 0 0
2250 1 1 0 16.373013771188972 3.4097907316044056 6.8507621413604 0 0 0
2251 1 1 0 16.21575051980224 3.4305294913477646 6.870479283167699 0 0 0
2252 1 1 0 16.054115864673 3.4446778168273675 6.883547549817868 0 0 0
2253 1 1 0 15.889312295677186 3.4524624163008015 6.890034573116016 0 0 0
2254 1 1 0 15.72498319571116 3.450509900457882 6.889040956837988 0 0 0
2213 1 1 0 0.0031853329230046613 4.75039999820491 6.884792884309578 0 0 0
2221 1 1 0 0.03173872045056689 6.05256344680475 6.849214393573244 0 0 0
2222 1 1 0 0.05436040916944655 6.210473892170687 6.8254270951381555 0 0 0
2214 1 1 0 0.002475722092307723 4.914249908172726 6.8850314901948835 0 0 0
2220 1 1 0 0.010280274241815162 5.895626356379763 6.8696680604730185 0 0 0
2273 1 1 0 3.431830679865814 4.750604532594042 6.879857993670145 0 0 0
2274 1 1 0 3.432349204082087 4.914382948628825 6.879875180177135 0 0 0
2275 1 1 0 3.435185162084978 5.078146222400962 6.879848558254631 0 0 0
2276 1 1 0 3.439131789014039 5.241898695761694 6.8798842235576325 0 0 0
2277 1 1 0 3.4413379303499454 5.405670690624653 6.879862406340387 0 0 0
2278 1 1 0 3.442247360369384 5.56951784943806 6.879888696279956 0 0 0
2279 1 1 0 3.4410015817516575 5.7332604651331796 6.879873339830856 0 0 0
2280 1 1 0 3.4398162312977956 5.897124597900692 6.87990650892297 0 0 0
2281 1 1 0 3.438954706429757 6.060829337093177 6.879894850354144 0 0 0
2282 1 1 0 3.4399661218568336 6.224684743794771 6.879953011917068 0 0 0
2333 1 1 0 13.769298183370339 4.750695028245186 6.8953841923527035 0 0 0
2334 1 1 0 13.767910827777344 4.914550939819854 6.892880854047963 0 0 0
2335 1 1 0 13.766137415305428 5.078129765161885 6.884954031807529 0 0 0
2336 1 1 0 13.76610467667535 5.24165880155708 6.874778747009552 0 0 0
2337 1 1 0 13.767957695294072 5.405309193898713 6.866865474294614 0 0 0
2338 1 1 0 13.76928156981542 5.569150982220414 6.864379570414652 0 0 0
2339 1 1 0 13.763445028218765 5.734259828757889 6.874115084839051 0 0 0
2340 1 1 0 13.750679783959873 5.89606517025756 6.889778193077787 0 0 0
2341 1 1 0 13.730666729708181 6.053344434172417 6.91121895542226 0 0 0
2342 1 1 0 13.707331082905647 6.2110613240479395 6.932554924982362 0 0 0
2215 1 1 0 17.198999229131477 5.078234685739305 6.885359714841293 -1 0 0
2218 1 1 0 17.187282843271912 5.569469119873547 6.890077909215882 -1 0 0
2219 1 1 0 17.195167581716664 5.734162482652646 6.88346506457865 -1 0 0
2216 1 1 0 17.19372702485069 5.241573734643369 6.886769580654601 -1 0 0
2217 1 1 0 17.188572595988315 5.405039908304669 6.889688750148054 -1 0 0
2223 1 1 0 0.07161727269003998 6.385255544472899 6.808593228578079 0 0 0
2225 1 1 0 0.036184912078635015 6.7915048142082055 6.843363420854723 0 0 0
2368 1 1 0 0.07140800469658797 6.9517893840080625 7.374516304429195 0 0 0
2370 1 1 0 0.030687205420321384 6.912749340817731 7.707182580948889 0 0 0
2224 1 1 0 0.07086036527046174 6.590274678056135 6.80879576571327 0 0 0
2366 1 1 0 0.03629982108215497 6.916122659578057 6.968450688111299 0 0 0
2367 1 1 0 0.07126744369006946 6.950320809946979 7.169528420458852 0 0 0
2369 1 1 0 0.05423500356399 6.934311139963615 7.549558223688138 0 0 0
62 1 2 0 3.440100456869479 6.879297067136101 6.880526992279032 0 0 0
1663 1 1 0 3.4398592973426276 6.879889921130043 6.388509194685666 0 0 0
1664 1 1 0 3.439824542492456 6.880200232545347 6.552270942414953 0 0 0
1665 1 1 0 3.439916515576229 6.8803660101235025 6.716138295868329 0 0 0
2283 1 1 0 3.4400000858082933 6.3884922478851776 6.879914710466464 0 0 0
2284 1 1 0 3.44018036589657 6.552252959920083 6.879945968042123 0 0 0
2285 1 1 0 3.4406514734660205 6.7161032322693615 6.880164376036937 0 0 0
2406 1 1 0 3.4401148939576114 7.043722057786486 6.879378123089617 0 0 0
2407 1 1 0 3.4401504672756817 7.207546551545576 6.879566454415523 0 0 0
2408 1 1 0 3.4401260821295243 7.371281939490155 6.879854979990744 0 0 0
2409 1 1 0 3.4399716575043104 7.535064596748573 6.880293604947154 0 0 0
2410 1 1 0 3.4399364654315803 7.6988689619719475 6.880990560683446 0 0 0
2426 1 1 0 3.439563586572469 6.879632871109491 7.0437775124149065 0 0 0
2427 1 1 0 3.43959190062036 6.879931899564494 7.207595949117424 0 0 0
2428 1 1 0 3.439777876595518 6.8799032487321785 7.371375264578559 0 0 0
2429 1 1 0 3.4402752824781087 6.879944418888609 7.535169107808933 0 0 0
2430 1 1 0 3.4410196368102914 6.87991959698363 7.698869202289512 0 0 0
63 1 2 0 6.879852687509135 6.879805930294439 6.879883469548096 0 0 0
1703 1 1 0 6.810492328738582 6.810050507592626 6.384977195480813 0 0 0
1704 1 1 0 6.810127631354496 6.811159220030263 6.586854209621799 0 0 0
1705 1 1 0 6.842583230240685 6.843008764237678 6.784838367656159 0 0 0
2446 1 1 0 7.0322001895880115 6.850918618946216 6.880012959263879 0 0 0
2447 1 1 0 7.2026385706996745 6.836246621478029 6.88002603291354 0 0 0
2448 1 1 0 7.372960624031125 6.836129506547711 6.879906524486617 0 0 0
2449 1 1 0 7.538575545253361 6.8450526327812495 6.879941749261981 0 0 0
2450 1 1 0 7.7010378201032355 6.859809005384533 6.879956687199854 0 0 0
2466 1 1 0 6.850909284359321 7.03219751728344 6.879797098819977 0 0 0
2467 1 1 0 6.836100219814944 7.20260839766917 6.8799004261741885 0 0 0
2468 1 1 0 6.836076188246277 7.3729484650651775 6.879909425464465 0 0 0
2469 1 1 0 6.844994911511421 7.538566082408556 6.879885243430171 0 0 0
2470 1 1 0 6.859750009112723 7.7010890938638825 6.879891172957401 0 0 0
2486 1 1 0 6.8431610258434095 6.842595343314016 6.97519709794852 0 0 0
2487 1 1 0 6.810995604226688 6.810718732047627 7.173202238834829 0 0 0
2488 1 1 0 6.8099425033253125 6.810305221240619 7.374983865561599 0 0 0
2489 1 1 0 6.827545799008688 6.827434680419898 7.548907175487634 0 0 0
2490 1 1 0 6.848585981684709 6.849662336243956 7.706415661878761 0 0 0
2451 1 1 0 7.863290760994973 6.872494670570254 6.8799613645205175 0 0 0
2452 1 1 0 8.026330483436622 6.880683734724316 6.879960419347347 0 0 0
2453 1 1 0 8.19029084940585 6.885630773187232 6.879968983296663 0 0 0
2454 1 1 0 8.354371594732033 6.886042930748115 6.879958572354731 0 0 0
2455 1 1 0 8.51821687638788 6.885389499467045 6.879945880431138 0 0 0
2456 1 1 0 8.681588819478856 6.885398670881373 6.879933136614523 0 0 0
2457 1 1 0 8.845406875358623 6.8860799921704565 6.87990691167952 0 0 0
2458 1 1 0 9.009508507185556 6.885680908418743 6.879880016551136 0 0 0
2459 1 1 0 9.173453471022597 6.880726832978647 6.879876328655533 0 0 0
2460 1 1 0 9.336443113090617 6.872524770492852 6.879856737490788 0 0 0
64 1 2 0 10.320047861564609 6.879666250541548 6.879808092374533 0 0 0
1763 1 1 0 10.389540678580454 6.810568708038576 6.3846926812629095 0 0 0
1764 1 1 0 10.38907178713201 6.810032219342939 6.586660437227615 0 0 0
1765 1 1 0 10.357256969282542 6.842570546098806 6.784976604514323 0 0 0
2461 1 1 0 9.498631807505939 6.8598089545026095 6.879882384662774 0 0 0
2462 1 1 0 9.661107757441416 6.845020948111763 6.879884070904714 0 0 0
2463 1 1 0 9.826744451977236 6.836065132316438 6.879894596925896 0 0 0
2464 1 1 0 9.997162607034747 6.836019429640546 6.880013474896688 0 0 0
2465 1 1 0 10.167648728795461 6.8509339342941225 6.879884957734956 0 0 0
2506 1 1 0 10.348557567052817 7.032161628436363 6.879881654442033 0 0 0
2507 1 1 0 10.363461661215243 7.202641886796857 6.880000665511841 0 0 0
2508 1 1 0 10.363970153210884 7.373046144839972 6.879892269084248 0 0 0
2509 1 1 0 10.354748990605618 7.538663839265262 6.879885457753005 0 0 0
2510 1 1 0 10.341005818640285 7.700996398607677 6.879879194233079 0 0 0
2526 1 1 0 10.35706443506216 6.842768269122829 6.9750345929854465 0 0 0
2527 1 1 0 10.388651763614634 6.810464388923488 7.173050988355402 0 0 0
2528 1 1 0 10.389868615136939 6.810265481313006 7.374968689079864 0 0 0
2529 1 1 0 10.372249404367565 6.827386665197788 7.548932179636437 0 0 0
2530 1 1 0 10.351173262223345 6.849638465368343 7.706431737183477 0 0 0
65 1 2 0 13.759548849244997 6.8794701160693625 6.880230540520196 0 0 0
1803 1 1 0 13.715489046640588 6.87989119844883 6.3867206791016855 0 0 0
1804 1 1 0 13.716389816561168 6.880029273275331 6.557114437885485 0 0 0
1805 1 1 0 13.73156641492281 6.879688070761943 6.727479151693295 0 0 0
2343 1 1 0 13.69035234893107 6.38490701511271 6.949808173994942 0 0 0
2344 1 1 0 13.69003934385627 6.586760284405665 6.94849303019666 0 0 0
2345 1 1 0 13.722092360152791 6.785034305039797 6.917292266784083 0 0 0
2405 1 1 0 13.912156909168756 6.880149766723584 6.908398061311754 0 0 0
2546 1 1 0 13.722402208957682 6.974850708228741 6.9177297636269754 0 0 0
2547 1 1 0 13.69117733062918 7.173076825744552 6.948337393963837 0 0 0
2548 1 1 0 13.689894942112634 7.374886588134983 6.949782152814073 0 0 0
2549 1 1 0 13.707175478722847 7.549126388004321 6.9325247203888 0 0 0
2550 1 1 0 13.728431196299733 7.706395187512855 6.911269197281404 0 0 0
2395 1 1 0 15.56181757652134 6.873764947348358 6.8851943654667735 0 0 0
2396 1 1 0 15.398047261012673 6.879113451894702 6.875909790139187 0 0 0
2397 1 1 0 15.23386826678903 6.882334092292078 6.869845015898671 0 0 0
2398 1 1 0 15.070889290479133 6.883092822354335 6.8685489968365205 0 0 0
2399 1 1 0 14.90577721544156 6.881210259748901 6.876766295340862 0 0 0
2400 1 1 0 14.743082403021846 6.879425233929275 6.887798579078414 0 0 0
2401 1 1 0 14.580901481913807 6.878840993127782 6.902107653954354 0 0 0
2402 1 1 0 14.418665251708473 6.8796804645342595 6.914984891786471 0 0 0
2403 1 1 0 14.252882198555236 6.879726862246574 6.924154061711674 0 0 0
2404 1 1 0 14.08256124373799 6.8804980147512005 6.922854757539142 0 0 0
61 1 2 0 0.0004213057155233457 6.880781360451742 6.879327101762808 0 0 0
2386 1 1 0 17.11103328039494 6.916313862118117 6.843994134463662 0 0 0
2387 1 1 0 16.910046281069327 6.950752973158632 6.809411127289143 0 0 0
2388 1 1 0 16.705076974082697 6.951581875590558 6.8079778531593655 0 0 0
2389 1 1 0 16.529927517475087 6.934192814645355 6.825768003234587 0 0 0
2390 1 1 0 16.372521209064214 6.911667113120803 6.847062551611176 0 0 0
2391 1 1 0 16.215929751686037 6.890162979580592 6.869609591373549 0 0 0
2392 1 1 0 16.053966797237283 6.875266393703738 6.885513947873275 0 0 0
2393 1 1 0 15.889140110871338 6.867322588279445 6.894778060480076 0 0 0
2394 1 1 0 15.724956391029632 6.868656943425038 6.892488800088753 0 0 0
2411 1 1 0 3.4398776893714014 7.862713068835714 6.880606678670545 0 0 0
2412 1 1 0 3.439912581502842 8.026448770097602 6.8784915767834685 0 0 0
2413 1 1 0 3.4399199684104764 8.190426512276831 6.876483696601121 0 0 0
2414 1 1 0 3.4399512801802214 8.35405985578564 6.876566048314438 0 0 0
2415 1 1 0 3.4399365249497524 8.517980491879083 6.880650518519739 0 0 0
2416 1 1 0 3.4399359636159916 8.68169135139343 6.886736790922304 0 0 0
2417 1 1 0 3.4399293659989465 8.845264958942572 6.89306050943382 0 0 0
2418 1 1 0 3.4399373446549637 9.00935100393887 6.895250284274246 0 0 0
2419 1 1 0 3.4399433369367434 9.173899163506835 6.886268413958983 0 0 0
2420 1 1 0 3.4399536129807067 9.336438188162811 6.868312897325723 0 0 0
2471 1 1 0 6.8724592773126485 7.863311523163982 6.879901693815389 0 0 0
2472 1 1 0 6.880655855529375 8.026334867708734 6.8799118941890045 0 0 0
2473 1 1 0 6.88562198487918 8.19031009909764 6.879926507798839 0 0 0
2474 1 1 0 6.886045241374468 8.354411378963748 6.879948140885738 0 0 0
2475 1 1 0 6.885380793555843 8.518240442439348 6.879965469482046 0 0 0
2476 1 1 0 6.88539307412042 8.681600301588821 6.879971676281646 0 0 0
2477 1 1 0 6.886048372810804 8.845386476645622 6.879975561818358 0 0 0
2478 1 1 0 6.885633709125996 9.009485212293937 6.879965654516525 0 0 0
2479 1 1 0 6.880693637381297 9.173484582594513 6.879943374899013 0 0 0
2480 1 1 0 6.872495374867297 9.336472378678558 6.879917337044112 0 0 0
2511 1 1 0 10.327338274596952 7.863209281501491 6.879877450729296 0 0 0
2512 1 1 0 10.318019870690339 8.026282055457987 6.879873307991633 0 0 0
2513 1 1 0 10.311779507110773 8.190469505489803 6.879891441374134 0 0 0
2514 1 1 0 10.312310178039818 8.354201092218071 6.879900997113438 0 0 0
2515 1 1 0 10.315130613140086 8.51803308509502 6.879921650253101 0 0 0
2516 1 1 0 10.31908349667895 8.681745601024257 6.879931256339851 0 0 0
2517 1 1 0 10.321274869289134 8.845557611779386 6.879912514933394 0 0 0
2518 1 1 0 10.322186683512303 9.009496660740801 6.879905109602422 0 0 0
2519 1 1 0 10.320971176108984 9.173269769215194 6.879854170572028 0 0 0
2520 1 1 0 10.319728807268596 9.33709201459911 6.879852179244152 0 0 0
2551 1 1 0 13.74983820455119 7.863174130995327 6.889900636264884 0 0 0
2552 1 1 0 13.765786932189306 8.025086378177129 6.873940669720354 0 0 0
2553 1 1 0 13.775546022890234 8.191344099348804 6.86419820498315 0 0 0
2554 1 1 0 13.772842284213798 8.354276083249221 6.866875256581139 0 0 0
2555 1 1 0 13.764802279959708 8.517951180029995 6.874915754713257 0 0 0
2556 1 1 0 13.754258358513598 8.682095085632334 6.885426492731056 0 0 0
2557 1 1 0 13.746150053962737 8.845257583097853 6.893537203959886 0 0 0
2558 1 1 0 13.74421095125518 9.008722214911126 6.895463349067511 0 0 0
2559 1 1 0 13.754156957202193 9.174377483456459 6.88553741523602 0 0 0
2560 1 1 0 13.770443304740104 9.336251616599654 6.869250398490689 0 0 0
66 1 2 0 4.5e-05 10.319903 6.879834 0 0 0
67 1 2 0 3.439781782269756 10.320230721115795 6.879844040891393 0 0 0
2421 1 1 0 3.43996340599859 9.495178071426883 6.842613913949897 0 0 0
2422 1 1 0 3.4399688070118306 9.654308535682873 6.81460209799338 0 0 0
2423 1 1 0 3.4399583846726944 9.826155817655726 6.793227803355383 0 0 0
2424 1 1 0 3.4400222055962844 10.019957563912309 6.792929404884986 0 0 0
2425 1 1 0 3.4398087155758597 10.21249674805119 6.82921153151456 0 0 0
2566 1 1 0 3.439809318202107 10.427410617718378 6.829522422916021 0 0 0
2567 1 1 0 3.44001130823339 10.61973770514335 6.793226472812841 0 0 0
2568 1 1 0 3.439947964630819 10.813509353068659 6.792908965114672 0 0 0
2586 1 1 0 3.440249842611274 10.31954670775627 7.043674864365038 0 0 0
2587 1 1 0 3.440106576938685 10.31975150135828 7.207529988501984 0 0 0
2588 1 1 0 3.4399928991704836 10.319898405251546 7.3712304517958716 0 0 0
2589 1 1 0 3.4395930292765264 10.320222952633008 7.535076022737853 0 0 0
2590 1 1 0 3.4390706729354634 10.320799154098344 7.698970646159498 0 0 0
68 1 2 0 6.879850072662009 10.319970793412292 6.8798357234122856 0 0 0
1883 1 1 0 6.810471693656005 10.389489508070248 6.384845233588191 0 0 0
1884 1 1 0 6.810062308077663 10.389168598989873 6.58677479566767 0 0 0
1885 1 1 0 6.842727644863206 10.356948101897764 6.78488495555777 0 0 0
2481 1 1 0 6.8598036105608 9.498678348093247 6.879886749281176 0 0 0
2482 1 1 0 6.8450426926434185 9.661183134146544 6.87985487565745 0 0 0
2483 1 1 0 6.83610659882973 9.826767905969033 6.879849768505562 0 0 0
2484 1 1 0 6.836110156044731 9.99717104434274 6.879788331298831 0 0 0
2485 1 1 0 6.851112691084656 10.167573246773479 6.879745968721345 0 0 0
2606 1 1 0 7.0323080072006485 10.348325455452581 6.879915728467552 0 0 0
2607 1 1 0 7.202677798737075 10.36355572283281 6.879893536585016 0 0 0
2608 1 1 0 7.373064857067292 10.36388753495712 6.8798525457477835 0 0 0
2609 1 1 0 7.538668630321807 10.354680925999112 6.879907086394431 0 0 0
2610 1 1 0 7.700958244669036 10.340975209039287 6.87991012269115 0 0 0
2626 1 1 0 6.8429599886628605 10.357253966934591 6.9748896603139094 0 0 0
2627 1 1 0 6.810538239191553 10.389705326643709 7.173069430028313 0 0 0
2628 1 1 0 6.810290163009964 10.389340632224371 7.374968687512914 0 0 0
2629 1 1 0 6.827337031033132 10.372225450977991 7.548575741321248 0 0 0
2630 1 1 0 6.849638052266368 10.348835514507797 7.706500510220466 0 0 0
2611 1 1 0 7.8631978623683185 10.327286249437481 6.8799236922139695 0 0 0
2612 1 1 0 8.026300033064567 10.31797353877302 6.879931966094515 0 0 0
2613 1 1 0 8.190541674938423 10.311732049928498 6.879935382139701 0 0 0
2614 1 1 0 8.354291624567441 10.312264693610253 6.879926711458889 0 0 0
2615 1 1 0 8.518065403469361 10.315082562510623 6.879924850850299 0 0 0
2616 1 1 0 8.681821007511095 10.319048916458831 6.879910276147906 0 0 0
2617 1 1 0 8.84557147461464 10.321278083532487 6.8799017925578045 0 0 0
2618 1 1 0 9.009476429843446 10.322169536735464 6.879883134825263 0 0 0
2619 1 1 0 9.173213337936588 10.320995115820129 6.879910894823147 0 0 0
2620 1 1 0 9.337054767183254 10.319720046140736 6.8798967379611975 0 0 0
69 1 2 0 10.319887608581006 10.318923392425868 6.880272460001174 0 0 0
2521 1 1 0 10.318867466256089 9.500837567110874 6.879871355191402 0 0 0
2522 1 1 0 10.31973456545316 9.664708198087084 6.879965952829992 0 0 0
2523 1 1 0 10.31968930724719 9.828481608449014 6.880070384439693 0 0 0
2524 1 1 0 10.319844119847666 9.99224691737666 6.880028894835228 0 0 0
2525 1 1 0 10.320472904155775 10.156091108003013 6.8803706596081655 0 0 0
2621 1 1 0 9.500794052232767 10.318884834554298 6.879898465840199 0 0 0
2622 1 1 0 9.664601459262437 10.319766040515997 6.879869267568114 0 0 0
2623 1 1 0 9.828404850869067 10.319726533413425 6.879848890938604 0 0 0
2624 1 1 0 9.992215072416979 10.320083013282103 6.879691795346756 0 0 0
2625 1 1 0 10.156033657573927 10.320516472803504 6.880084349958268 0 0 0
2646 1 1 0 10.483643968111176 10.320006727461362 6.879700643928702 0 0 0
2647 1 1 0 10.647448846122042 10.320217455609507 6.879389704706678 0 0 0
2648 1 1 0 10.811200929692951 10.31983037404553 6.879803689605503 0 0 0
2666 1 1 0 10.319256623286279 10.483664906366165 6.879982593842966 0 0 0
2667 1 1 0 10.319673153436893 10.647447553310077 6.879930244460698 0 0 0
2668 1 1 0 10.319827424173269 10.81121535322303 6.880096993523027 0 0 0
2649 1 1 0 10.975070699424222 10.319515507433408 6.880204449026526 0 0 0
2650 1 1 0 11.138867413454449 10.318894682171537 6.880834156573749 0 0 0
2651 1 1 0 11.302727122069694 10.319308270646927 6.880481624612924 0 0 0
2652 1 1 0 11.466392963648008 10.32134160340398 6.878430137682022 0 0 0
2653 1 1 0 11.630551943237576 10.32299319372323 6.876793795935028 0 0 0
2654 1 1 0 11.793944377464884 10.322390823885936 6.877384798525898 0 0 0
2655 1 1 0 11.957969817115359 10.319059957749493 6.880720945641309 0 0 0
2656 1 1 0 12.12158964714163 10.313754778168992 6.886000195466927 0 0 0
2657 1 1 0 12.285045978969809 10.308626597170452 6.891128829182855 0 0 0
2658 1 1 0 12.449339499503402 10.307320930243149 6.892391377075056 0 0 0
70 1 2 0 13.760409009248452 10.320417793771556 6.879335985913633 0 0 0
2561 1 1 0 13.792678613409022 9.492574742106335 6.847042671779291 0 0 0
2562 1 1 0 13.814134547889488 9.64995935575786 6.825590615276925 0 0 0
2563 1 1 0 13.831638353335219 9.825179887061045 6.808108474031902 0 0 0
2564 1 1 0 13.830115647609418 10.030196681373203 6.809636567716733 0 0 0
2565 1 1 0 13.796019836901795 10.231185487603096 6.843741754123869 0 0 0
2659 1 1 0 12.614143175999525 10.315212595327079 6.884527780223081 0 0 0
2660 1 1 0 12.775757724881128 10.330118502856648 6.869582917338007 0 0 0
2661 1 1 0 12.932597298268263 10.351584013191491 6.848143311779473 0 0 0
2662 1 1 0 13.090219362400711 10.374161507183452 6.825563273668251 0 0 0
2663 1 1 0 13.265125732128448 10.391465091211654 6.808263814492155 0 0 0
2664 1 1 0 13.47016185929303 10.390565801027666 6.8091980452250205 0 0 0
2665 1 1 0 13.671288036621329 10.356178123375747 6.843564850076642 0 0 0
2686 1 1 0 13.796152286411118 10.356166724595147 6.968459101802308 0 0 0
2687 1 1 0 13.830513665782128 10.390585421480337 7.1696550253807025 0 0 0
2688 1 1 0 13.831421256080635 10.391482847392968 7.374636716286803 0 0 0
2689 1 1 0 13.814074475082498 10.37416228061096 7.549635219255278 0 0 0
2690 1 1 0 13.791544438487957 10.351596455775649 7.707244797595183 0 0 0
2569 1 1 0 3.439956225737592 10.985528527010972 6.814726610229223 0 0 0
2570 1 1 0 3.439963069900195 11.14441951516998 6.8414468314262935 0 0 0
2571 1 1 0 3.4399688894844167 11.30291864171157 6.868284729269762 0 0 0
2572 1 1 0 3.43996909221405 11.465945858493164 6.887204886144556 0 0 0
2573 1 1 0 3.439965413002381 11.630571133088223 6.897670229855866 0 0 0
2574 1 1 0 3.4399594709580343 11.79452438594447 6.8944249331664285 0 0 0
2575 1 1 0 3.43994971302734 11.957835071783547 6.886007609767289 0 0 0
2576 1 1 0 3.439945038831911 12.121690201166995 6.875810947884693 0 0 0
2577 1 1 0 3.4399289608826793 12.285608411519913 6.86909211048679 0 0 0
2578 1 1 0 3.4399292914260142 12.448747803921576 6.868193949881094 0 0 0
2669 1 1 0 10.320240466622716 10.975084318606234 6.880316001826414 0 0 0
2670 1 1 0 10.320759925090064 11.138813774662227 6.880822135763489 0 0 0
2671 1 1 0 10.320418092785054 11.302621204745938 6.880359846445277 0 0 0
2672 1 1 0 10.318585801867785 11.46636657932088 6.878567902941797 0 0 0
2673 1 1 0 10.316971388752917 11.63046367113804 6.876952308619774 0 0 0
2674 1 1 0 10.317286093650583 11.794081286372851 6.87730302020821 0 0 0
2675 1 1 0 10.320582423822628 11.95793419162856 6.880598725452975 0 0 0
2676 1 1 0 10.32547512855968 12.121605843156711 6.885507367427955 0 0 0
2677 1 1 0 10.330455912110267 12.285089033788832 6.890470176558568 0 0 0
2678 1 1 0 10.332269260000945 12.449196252755463 6.892311088940306 0 0 0
2706 1 1 0 0.16380854565931866 13.760012423442546 6.880284378904976 0 0 0
2707 1 1 0 0.32763406834356273 13.759941031225909 6.880135595915284 0 0 0
2708 1 1 0 0.49137247824974767 13.759806281901044 6.879903311269963 0 0 0
2709 1 1 0 0.6551816574713781 13.75946087035038 6.879574032023686 0 0 0
2710 1 1 0 0.8190492281427652 13.758939100033198 6.879005711201042 0 0 0
2711 1 1 0 0.9828355040164537 13.75932716993554 6.8794011020206245 0 0 0
2712 1 1 0 1.146544713234958 13.761107633071733 6.881205428875503 0 0 0
2713 1 1 0 1.3105384981375108 13.76272919060537 6.882831512278169 0 0 0
2714 1 1 0 1.474217550048877 13.762370505283416 6.882477217369669 0 0 0
2715 1 1 0 1.638105556950728 13.759093192366555 6.879184457926819 0 0 0
2716 1 1 0 1.801700848589118 13.754176046652828 6.8742447957892265 0 0 0
2717 1 1 0 1.9651530792112615 13.749246359782457 6.8692909195388125 0 0 0
2718 1 1 0 2.129259041632676 13.747409014843964 6.8674469355395065 0 0 0
2719 1 1 0 2.2941972221036555 13.755132018107313 6.875133367734016 0 0 0
2720 1 1 0 2.456132393984203 13.769369538168462 6.889399556530658 0 0 0
2721 1 1 0 2.6133391302045865 13.790042448104618 6.910047784799832 0 0 0
2722 1 1 0 2.7710786150626783 13.812369880474344 6.932416653937257 0 0 0
2723 1 1 0 2.944896472635022 13.829456707654144 6.949534967329501 0 0 0
2724 1 1 0 3.1467538562276673 13.82895128626722 6.9490716555901315 0 0 0
72 1 2 0 3.439872870255717 13.760049230223048 6.880244719293217 0 0 0
1963 1 1 0 3.4399072259241152 13.80392183914329 6.386807338998178 0 0 0
1964 1 1 0 3.4398857176291724 13.802886238466202 6.557205302631574 0 0 0
1965 1 1 0 3.439880574140838 13.78808195437299 6.727523887415404 0 0 0
2579 1 1 0 3.4399201263750165 12.613791499528778 6.876858106444593 0 0 0
2580 1 1 0 3.4399044111823276 12.776608426511793 6.8878957657780076 0 0 0
2581 1 1 0 3.439901903538502 12.938664845334651 6.902262793181996 0 0 0
2582 1 1 0 3.439892146439733 13.100958282614645 6.915020684219355 0 0 0
2583 1 1 0 3.439881830135166 13.266730276793556 6.924098384522657 0 0 0
2584 1 1 0 3.439875461296356 13.437150528460203 6.923102445550212 0 0 0
2585 1 1 0 3.43987380178134 13.607448005006642 6.9082775146131565 0 0 0
2725 1 1 0 3.345134138580533 13.797271110095135 6.917459054730965 0 0 0
2746 1 1 0 3.5347313633143083 13.797321380181579 6.917499344807326 0 0 0
2747 1 1 0 3.7331339905657055 13.828964218157157 6.9491057553327655 0 0 0
2748 1 1 0 3.935034037156869 13.829475098475719 6.949554570329537 0 0 0
2749 1 1 0 4.108785075459813 13.812368366525298 6.932426492356668 0 0 0
2750 1 1 0 4.266482522994641 13.790041618235705 6.91006782596295 0 0 0
2751 1 1 0 4.423718676876735 13.769349073020141 6.889383259159174 0 0 0
2752 1 1 0 4.585610540419471 13.755086433136826 6.875136577594349 0 0 0
2753 1 1 0 4.750574435475769 13.747346763795312 6.867421895531045 0 0 0
2754 1 1 0 4.914687289022537 13.749190539775404 6.869295702906159 0 0 0
2755 1 1 0 5.078132450202161 13.754099490867015 6.874226814697567 0 0 0
2756 1 1 0 5.241831065210156 13.759074354543548 6.879198917593209 0 0 0
2757 1 1 0 5.405703839605502 13.762321919463377 6.882454762733931 0 0 0
2758 1 1 0 5.569320676898308 13.762708605374455 6.882833035250975 0 0 0
2759 1 1 0 5.733372525933152 13.761066292154279 6.8811926421232625 0 0 0
2760 1 1 0 5.897082187338657 13.759290786498191 6.879425524158002 0 0 0
2761 1 1 0 6.0609420085284675 13.758887225719345 6.879027757516699 0 0 0
2762 1 1 0 6.224713563306338 13.759452155621673 6.879627140169341 0 0 0
73 1 2 0 6.885432117790588 13.759470914803215 6.879496020884689 0 0 0
2763 1 1 0 6.388465969875276 13.759798037550336 6.879951741641406 0 0 0
2764 1 1 0 6.552245606536575 13.759964231883544 6.880118258745726 0 0 0
2765 1 1 0 6.716150714931716 13.760191194133888 6.880278367129312 0 0 0
74 1 2 0 10.319501286088961 13.759660488809212 6.8797337080727905 0 0 0
2125 1 1 0 10.282342829400772 13.85468323290033 6.842485311504052 0 0 0
2679 1 1 0 10.324560339466638 12.614159301983499 6.884605278969068 0 0 0
2680 1 1 0 10.310284562633612 12.776031811630304 6.870357346617886 0 0 0
2681 1 1 0 10.28962106677548 12.933238669671795 6.849696104015522 0 0 0
2682 1 1 0 10.267235085885149 13.090958706982189 6.827343757297487 0 0 0
2683 1 1 0 10.250093246740226 13.264767161515364 6.8102923264658575 0 0 0
2684 1 1 0 10.25072191473843 13.466611947563697 6.810533297978087 0 0 0
2685 1 1 0 10.282158051132463 13.664853583196269 6.842674554225641 0 0 0
2766 1 1 0 10.47214153722387 13.759286175962874 6.85138742914506 0 0 0
2767 1 1 0 10.642603517365677 13.759654828670042 6.836246867184632 0 0 0
2768 1 1 0 10.812992939441026 13.759957216580021 6.835808705799114 0 0 0
2786 1 1 0 10.291414029800949 13.760030891003632 7.032297712584061 0 0 0
2787 1 1 0 10.276630267765253 13.76000488496276 7.202678244985941 0 0 0
2788 1 1 0 10.275604365245123 13.759650185010955 7.373010976344333 0 0 0
2789 1 1 0 10.284868824556915 13.759623627792635 7.538716868879297 0 0 0
2790 1 1 0 10.297669480152965 13.758758910248108 7.701022329504651 0 0 0
2124 1 1 0 10.251097609843212 14.053033352553147 6.8101145447665195 0 0 0
2769 1 1 0 10.978602197400226 13.759764772786058 6.845049797306563 0 0 0
2770 1 1 0 11.14095572570932 13.760848505807706 6.8587585732120235 0 0 0
2771 1 1 0 11.30311796131951 13.759848007742551 6.8725085510861685 0 0 0
2772 1 1 0 11.466225020128014 13.758823613219457 6.881748233973216 0 0 0
2773 1 1 0 11.630363884278438 13.757457923596835 6.888077421542326 0 0 0
2774 1 1 0 11.794267861230827 13.75844462478086 6.88748925183312 0 0 0
2775 1 1 0 11.958081064811132 13.760595120040023 6.884672345685131 0 0 0
2776 1 1 0 12.12170968437774 13.764552244821225 6.88068591743741 0 0 0
2777 1 1 0 12.285427852433585 13.7673772494675 6.878544669076832 0 0 0
2778 1 1 0 12.449269815315262 13.767932179423639 6.877537184274417 0 0 0
75 1 2 0 13.75994456939281 13.759591147344443 6.879985173924399 0 0 0
2003 1 1 0 13.829246514348563 13.68990969355417 6.384906266467777 0 0 0
2004 1 1 0 13.829477142947 13.691067587167334 6.5867961448273 0 0 0
2005 1 1 0 13.797379399660782 13.72263803459073 6.784949599808073 0 0 0
2185 1 1 0 13.78833043408541 13.912101437602269 6.879807777766287 0 0 0
2779 1 1 0 12.613491037626552 13.761613727911778 6.87891744061921 0 0 0
2780 1 1 0 12.776558610924678 13.7523751615195 6.87992508755093 0 0 0
2781 1 1 0 12.93871191512347 13.738649288111143 6.880939340988573 0 0 0
2782 1 1 0 13.101036419392695 13.724933748349013 6.879854646140478 0 0 0
2783 1 1 0 13.266644028645887 13.715714997857992 6.880064609110893 0 0 0
2784 1 1 0 13.437033188192121 13.716166643151682 6.879716390261755 0 0 0
2785 1 1 0 13.60747016552095 13.731195542899359 6.8796065839 0 0 0
2806 1 1 0 13.796812260169245 13.722241356689565 6.974921249851183 0 0 0
2807 1 1 0 13.828593885459687 13.689980236651593 7.173092248554784 0 0 0
2808 1 1 0 13.829642356789735 13.690356747836383 7.374946780271451 0 0 0
2809 1 1 0 13.81250944956358 13.70746014461703 7.5487646011556215 0 0 0
2810 1 1 0 13.79115168365986 13.730698237781999 7.706453867832638 0 0 0
1943 1 1 0 17.113144773528447 13.759761711741449 6.386194140414919 -1 0 0
1945 1 1 0 17.14918654803018 13.759585776369105 6.772456644252237 -1 0 0
2726 1 1 0 17.149154397451913 13.759581292849772 6.987288632271487 -1 0 0
2727 1 1 0 17.112710740884204 13.759796473986793 7.179713929540571 -1 0 0
71 1 2 0 0.00023442067651657794 13.759549107831953 6.879340019932612 0 0 0
1944 1 1 0 17.11270030565696 13.759803366353626 6.579984210432232 -1 0 0
2728 1 1 0 17.11304880502079 13.759761403716944 7.373479270203382 -1 0 0
2729 1 1 0 17.13443267193225 13.759773460570633 7.545331584138436 -1 0 0
2730 1 1 0 17.16240155279468 13.75979281482327 7.704527293871062 -1 0 0
2115 1 1 0 10.314765073792785 15.561466391382757 6.886189233476753 0 0 0
2116 1 1 0 10.32495554511787 15.397984610459101 6.886160960564446 0 0 0
2117 1 1 0 10.332846777176208 15.234436680949148 6.887996410015516 0 0 0
2118 1 1 0 10.335375654899826 15.070553676349856 6.889318213790044 0 0 0
2119 1 1 0 10.325610311518941 14.905354334387658 6.8834888031484915 0 0 0
2120 1 1 0 10.309988635117184 14.743562307087982 6.870733417994374 0 0 0
2121 1 1 0 10.288522059980224 14.586392129340172 6.850744474631713 0 0 0
2122 1 1 0 10.267203246346863 14.428719124995581 6.827436850102134 0 0 0
2123 1 1 0 10.24991698263406 14.254882272772095 6.8104567621244065 0 0 0
2175 1 1 0 13.759013206971003 15.561671737076203 6.879877824885476 0 0 0
2176 1 1 0 13.755033557551696 15.397918997353285 6.879911744188028 0 0 0
2177 1 1 0 13.752245127690328 15.234162033298691 6.879874600517294 0 0 0
2178 1 1 0 13.751695477811154 15.0703994635196 6.879893226069294 0 0 0
2179 1 1 0 13.757932920030637 14.906198922240453 6.879877335830654 0 0 0
2180 1 1 0 13.767203743867245 14.743170776081586 6.8798706621455565 0 0 0
2181 1 1 0 13.780885904455738 14.580971781006257 6.879841332669479 0 0 0
2182 1 1 0 13.794579420987802 14.418635696092378 6.879858256763937 0 0 0
2183 1 1 0 13.803831687418972 14.252928087224428 6.879877652087827 0 0 0
2184 1 1 0 13.803336204104026 14.082537068804841 6.879711086913759 0 0 0
1364 1 1 0 6.811065255176371 17.12994097722384 6.586751206994343 0 -1 0
2006 1 1 0 7.032223940866401 17.171114322745694 6.879338569508533 0 -1 0
2007 1 1 0 7.202597561954871 17.156075794188734 6.879803693309499 0 -1 0
2010 1 1 0 7.700965178977631 17.178612808917535 6.880926271759383 0 -1 0
2047 1 1 0 6.810101775064459 17.131039253241845 7.1731009602960425 0 -1 0
2048 1 1 0 6.8105307367470775 17.129921504798464 7.374987891018367 0 -1 0
2049 1 1 0 6.827469218484548 17.1471857516173 7.548745524998328 0 -1 0
2050 1 1 0 6.850727672045836 17.16846025113001 7.7064099807576385 0 -1 0
53 1 2 0 6.879780520257862 17.1995759564286 6.879898734313032 0 -1 0
1363 1 1 0 6.81003820157531 17.130286282702773 6.384890073650196 0 -1 0
1365 1 1 0 6.843045102756883 17.16203371154922 6.784900448415673 0 -1 0
2008 1 1 0 7.3729749068501365 17.155686926112423 6.88018727100957 0 -1 0
2009 1 1 0 7.538589961985971 17.164895164554387 6.879922565366934 0 -1 0
2046 1 1 0 6.842415658836072 17.162867017314973 6.974938162923344 0 -1 0
2017 1 1 0 8.845497316499184 17.198408091030714 6.887529126056931 0 -1 0
2018 1 1 0 9.009262615069737 17.197392520913336 6.888062779347597 0 -1 0
2011 1 1 0 7.863193888139075 17.192360016591298 6.879925770479785 0 -1 0
2019 1 1 0 9.173467826771592 17.198762273110468 6.881764027340196 0 -1 0
2023 1 1 0 9.826821150190879 0.00032285129527309664 6.835872544740934 0 0 0
2087 1 1 0 10.363722555455103 17.199428353674683 7.202604921191443 0 -1 0
2088 1 1 0 10.363678072794304 0.00016812531976029277 7.372983895181186 0 0 0
2024 1 1 0 9.997128671430213 17.199500670853254 6.83626121609159 0 -1 0
2106 1 1 0 10.356785343343685 17.104810761554873 6.84221337114928 0 0 0
2107 1 1 0 10.388565490498411 16.906561064572802 6.810263542758717 0 0 0
2108 1 1 0 10.389674067228622 16.70471221843866 6.810442079646857 0 0 0
2109 1 1 0 10.372418836465515 16.530868719242644 6.827465911859842 0 0 0
2110 1 1 0 10.351151524662786 16.373230566672625 6.850738877876229 0 0 0
2111 1 1 0 10.329705621401505 16.216009947096502 6.870789465362611 0 0 0
2112 1 1 0 10.314078292546492 16.05412854173622 6.88348947048803 0 0 0
2113 1 1 0 10.304344046559105 15.889016543101592 6.889384465443043 0 0 0
2114 1 1 0 10.306862057247049 15.725096244303607 6.887988584564649 0 0 0
1445 1 1 0 13.760043774069787 17.19969363289623 6.716110477370646 0 -1 0
2146 1 1 0 13.760034812873991 0.00031451725753939286 7.043679629652156 0 0 0
2150 1 1 0 13.759845968534801 17.198646931938136 7.698844678823022 0 -1 0
55 1 2 0 13.759881976484683 17.19918148826997 6.880400098153284 0 -1 0
1443 1 1 0 13.760038736021047 17.19973125155154 6.3885316422674014 0 -1 0
1444 1 1 0 13.760090598008151 5.199671297972941e-05 6.552348459936094 0 0 0
2149 1 1 0 13.759888241693362 17.19938946397447 7.5350864413307574 0 -1 0
2166 1 1 0 13.760153405810797 17.035913857824358 6.879960682652473 0 0 0
2167 1 1 0 13.759610372888242 16.872130063645898 6.879837054797395 0 0 0
2168 1 1 0 13.759466626172255 16.708383021336537 6.879970217453888 0 0 0
2169 1 1 0 13.759638085787323 16.544531170119587 6.879906436034569 0 0 0
2170 1 1 0 13.758772159753583 16.380699864632028 6.879918526120249 0 0 0
2171 1 1 0 13.759714712530771 16.216981137665286 6.879902976167064 0 0 0
2172 1 1 0 13.760936249868521 16.053144773906993 6.879914568691088 0 0 0
2173 1 1 0 13.762165552349629 15.889389863601227 6.879892879774137 0 0 0
2174 1 1 0 13.761209353320224 15.72550507563394 6.87992020757983 0 0 0
1225 1 1 0 0.00035890395648863205 0.000324382289644376 6.7160771832452335 0 0 0
2052 1 1 0 6.883479002685246 0.005767921918688736 8.025534292890404 0 0 0
2060 1 1 0 6.870811048456778 0.009868143659114094 9.33613076983694 0 0 0
2053 1 1 0 6.88936615495067 0.015502716229309262 8.190598607273554 0 0 0
2054 1 1 0 6.888005253928416 0.01298275506245488 8.354491168645543 0 0 0
2055 1 1 0 6.886195975722827 0.0050863985644536164 8.518160948881388 0 0 0
2098 1 1 0 10.309714531368739 0.012493880711223428 9.009436307536648 0 0 0
2099 1 1 0 10.31618617365547 0.004700485999006493 9.174177761253029 0 0 0
2091 1 1 0 10.326881994113263 0.0003083190458530856 7.863246562734971 0 0 0
2096 1 1 0 10.31338198455643 0.00565977970535942 8.681511492736595 0 0 0
2097 1 1 0 10.310693355618776 0.010531711925846295 8.845142599196878 0 0 0
2152 1 1 0 13.7598243312195 0.0014031297652442652 8.026457169836169 0 0 0
2160 1 1 0 13.759773367505554 0.011599159900582348 9.336435304536003 0 0 0
2153 1 1 0 13.759805438794624 0.003484858586278573 8.190428662359164 0 0 0
2154 1 1 0 13.759833547518358 0.0033028813269733886 8.354038404964781 0 0 0
2155 1 1 0 13.759802376979012 17.199075756286796 8.51794471114234 0 -1 0
2231 1 1 0 0.0005773037448826314 3.4325537411125135 7.863175776185101 0 0 0
2237 1 1 0 0.013105798206960553 3.4385647228450464 8.845275342541658 0 0 0
2236 1 1 0 0.006899522004952096 3.4406952134270874 8.681763370726634 0 0 0
2238 1 1 0 0.015394882886993935 3.4375613071129827 9.009368072635676 0 0 0
2239 1 1 0 0.00627921996346402 3.4389409172269505 9.17384905965135 0 0 0
2291 1 1 0 3.4494930423015524 3.430412447949228 7.86377298799671 0 0 0
2292 1 1 0 3.4352321332764038 3.4447112971126947 8.025618325375412 0 0 0
2293 1 1 0 3.427562784748276 3.452368086504457 8.190515181991836 0 0 0
2294 1 1 0 3.4293599756737216 3.4505755185615246 8.354598538615567 0 0 0
2295 1 1 0 3.4343493963251652 3.4455573107541304 8.51808883238843 0 0 0
2296 1 1 0 3.43921443580211 3.440686254567427 8.681803864390291 0 0 0
2297 1 1 0 3.4425386967454585 3.4373233204412372 8.8456554650834 0 0 0
2298 1 1 0 3.4428132976993 3.437080952218628 9.009297248129464 0 0 0
2299 1 1 0 3.4412355888635613 3.4386403703446895 9.173295131487244 0 0 0
2300 1 1 0 3.439402339627156 3.4405079940187973 9.336967000576834 0 0 0
2351 1 1 0 13.752372644143035 3.4405055128895787 7.863226828511468 0 0 0
2352 1 1 0 13.76158102761325 3.438692816906346 8.026176948499597 0 0 0
2353 1 1 0 13.767925738587195 3.4363702790165864 8.190581213764851 0 0 0
2354 1 1 0 13.767351958916977 3.4367028411420737 8.354144076744006 0 0 0
2355 1 1 0 13.764542044445239 3.4405867114608033 8.518082488868757 0 0 0
2356 1 1 0 13.760562947836986 3.446790953364118 8.681749524608387 0 0 0
2357 1 1 0 13.758416855285386 3.4530498092370965 8.84520372000108 0 0 0
2358 1 1 0 13.75741058651768 3.4552920888186334 9.009295871207442 0 0 0
2359 1 1 0 13.758775711638831 3.446231319344913 9.173833847926737 0 0 0
2360 1 1 0 13.75979756255129 3.4283594175706056 9.336446985595018 0 0 0
2232 1 1 0 17.198569730968828 3.441753868250832 8.026073946635478 -1 0 0
2233 1 1 0 17.19618630703333 3.448082881808189 8.190524528029263 -1 0 0
2235 1 1 0 0.0006401383633409807 3.4446824304744257 8.518077059324769 0 0 0
2240 1 1 0 17.188219344493813 3.439970216174321 9.336457604019992 -1 0 0
2234 1 1 0 17.196574677960513 3.4475037576012717 8.354102747879997 -1 0 0
2371 1 1 0 0.009921892406645528 6.890490198875031 7.8639904690093445 0 0 0
2380 1 1 0 0.009027921594960063 6.86995469827605 9.336027385641996 0 0 0
2431 1 1 0 3.440614630148222 6.879936165048771 7.862718429675282 0 0 0
2432 1 1 0 3.43851898382574 6.879897182437426 8.026506508245728 0 0 0
2433 1 1 0 3.4364688902910228 6.879905649046376 8.19051078579538 0 0 0
2434 1 1 0 3.4366023341302916 6.879872516892199 8.354046944850898 0 0 0
2435 1 1 0 3.4406574743025433 6.879879484450732 8.51798355978741 0 0 0
2436 1 1 0 3.4468027189485504 6.879876384516827 8.681729283320482 0 0 0
2437 1 1 0 3.4530944176898277 6.879890174835526 8.845315554692705 0 0 0
2438 1 1 0 3.455309627116862 6.879895243797789 9.009353283516747 0 0 0
2439 1 1 0 3.4463046446655907 6.879898832387293 9.17386347815694 0 0 0
2440 1 1 0 3.4283892435522305 6.8798983246139676 9.336408891614612 0 0 0
2491 1 1 0 6.870361304625323 6.870401725686727 7.86341026571292 0 0 0
2492 1 1 0 6.885598148442181 6.884595190340555 8.025633849325255 0 0 0
2493 1 1 0 6.89474425976541 6.892421878522252 8.190616134478935 0 0 0
2494 1 1 0 6.891837640033949 6.890487014168395 8.354603440286004 0 0 0
2495 1 1 0 6.88482384654335 6.885656970608656 8.51796646522907 0 0 0
2496 1 1 0 6.875764381037173 6.88056720091106 8.68176034260344 0 0 0
2497 1 1 0 6.869896470535037 6.877524286373385 8.845683019685072 0 0 0
2498 1 1 0 6.8687422501842565 6.876918718314166 9.008943066140132 0 0 0
2499 1 1 0 6.877045239134595 6.878862391154632 9.173861480035281 0 0 0
2500 1 1 0 6.887711383808951 6.8802785189437365 9.336707969228103 0 0 0
2531 1 1 0 10.32937883077926 6.870373603901576 7.863436747352599 0 0 0
2532 1 1 0 10.31415445157586 6.884590513076973 8.025683453692277 0 0 0
2533 1 1 0 10.304975827681279 6.892382422387509 8.19068618900001 0 0 0
2534 1 1 0 10.307915263174001 6.89046697000067 8.354700357359626 0 0 0
2535 1 1 0 10.314915462822665 6.885580019390884 8.518003797677183 0 0 0
2536 1 1 0 10.323990944518899 6.880528486300432 8.68180026594378 0 0 0
2537 1 1 0 10.329853244280365 6.87745012058659 8.845673807852574 0 0 0
2538 1 1 0 10.33101236442671 6.8768836319447315 9.008829911217335 0 0 0
2539 1 1 0 10.322702154415074 6.87882655800549 9.173763405094297 0 0 0
2540 1 1 0 10.31205120642259 6.8802919660944335 9.336678318632956 0 0 0
2372 1 1 0 17.196282008204097 6.874215796622651 8.025508977894557 -1 0 0
2374 1 1 0 17.19103482658035 6.866259608984033 8.354572787071072 -1 0 0
2376 1 1 0 17.193355496467067 6.88485673035091 8.68151232824902 -1 0 0
2377 1 1 0 17.191690614419745 6.89290568949755 8.845321246087767 -1 0 0
2379 1 1 0 17.19639750641663 6.885891261923711 9.174286486606846 -1 0 0
2373 1 1 0 17.190278452170585 6.864313540610308 8.190478542439852 -1 0 0
2375 1 1 0 17.193109788078527 6.874398312451279 8.518063851701795 -1 0 0
2378 1 1 0 17.19050987488589 6.8956064075248555 9.009044114105272 -1 0 0
2591 1 1 0 3.439439697209589 10.320386772023877 7.862797489012832 0 0 0
2592 1 1 0 3.441265671860713 10.318600252714685 8.026465335947487 0 0 0
2593 1 1 0 3.4428602458714885 10.316949345266883 8.19048195867306 0 0 0
2594 1 1 0 3.4425410640683363 10.31731022789391 8.354125394525276 0 0 0
2595 1 1 0 3.439237941652256 10.320563124221577 8.517966613409623 0 0 0
2596 1 1 0 3.4343119125601946 10.325509842090648 8.681606713418727 0 0 0
2597 1 1 0 3.429356505951152 10.330439776498476 8.845060560037524 0 0 0
2598 1 1 0 3.427522138424967 10.332298056297091 9.009122578687665 0 0 0
2599 1 1 0 3.4352254232120485 10.324580555433128 9.174063084736066 0 0 0
2600 1 1 0 3.449487823547373 10.310344185485889 9.336006802024968 0 0 0
2631 1 1 0 6.870408044399763 10.328782732493794 7.86400748947487 0 0 0
2632 1 1 0 6.884550469191175 10.316420495335974 8.025698280380068 0 0 0
2633 1 1 0 6.892349183819656 10.310976357458966 8.190346471882851 0 0 0
2634 1 1 0 6.890403587149972 10.312571929728419 8.354662150380378 0 0 0
2635 1 1 0 6.885583146261278 10.31357376705598 8.518308572084024 0 0 0
2636 1 1 0 6.880497265950566 10.31242233148305 8.681496581181534 0 0 0
2637 1 1 0 6.877486193806607 10.309222033414372 8.845305205553958 0 0 0
2638 1 1 0 6.876897328031106 10.307535108887489 9.009563930908591 0 0 0
2639 1 1 0 6.878854759868384 10.314668323994555 9.173982496470972 0 0 0
2640 1 1 0 6.8802937145917635 10.331030066726171 9.33615392296962 0 0 0
2691 1 1 0 13.770065915048185 10.33013857920917 7.8640151320005875 0 0 0
2692 1 1 0 13.755220907379998 10.3152530396919 8.0255751228861 0 0 0
2693 1 1 0 13.747311226561845 10.307348336640981 8.190376162260176 0 0 0
2694 1 1 0 13.748662542010237 10.30865613850174 8.354735981159502 0 0 0
2695 1 1 0 13.753731923178382 10.313758760891004 8.518133233928818 0 0 0
2696 1 1 0 13.75906422135664 10.319056846276478 8.681758149234758 0 0 0
2697 1 1 0 13.762319198159446 10.322364268481046 8.845804429162397 0 0 0
2698 1 1 0 13.762966190210204 10.322962817106815 9.00924616176263 0 0 0
2699 1 1 0 13.761254944887158 10.321274288079092 9.17342808182638 0 0 0
2700 1 1 0 13.759245519633971 10.31922805874811 9.337025207808418 0 0 0
2732 1 1 0 0.006337178492423438 13.7597851174346 8.025928927692084 0 0 0
2733 1 1 0 0.015358302734590957 13.759773859110462 8.190438625891264 0 0 0
2734 1 1 0 0.01314310444230446 13.759780122214506 8.354493820068084 0 0 0
2740 1 1 0 0.0006273900625492916 13.759815272585938 9.33698065835204 0 0 0
2735 1 1 0 0.006854361671898571 13.759764408367753 8.518039120530888 0 0 0
2791 1 1 0 10.312131260211359 13.759437352380715 7.863151316381747 0 0 0
2792 1 1 0 10.322760605146312 13.760928292923786 8.025981714035789 0 0 0
2793 1 1 0 10.331083619076097 13.762853433884898 8.190862072953921 0 0 0
2794 1 1 0 10.329889025687285 13.762296317149202 8.35403737431859 0 0 0
2795 1 1 0 10.32402113594384 13.759191622984396 8.517973995385756 0 0 0
2796 1 1 0 10.314911206450887 13.754136564410294 8.681782040582732 0 0 0
2797 1 1 0 10.307931395487163 13.74922382056628 8.845090064365367 0 0 0
2798 1 1 0 10.304984267086498 13.747316433123201 9.009159672445756 0 0 0
2799 1 1 0 10.314169721046467 13.755085503296803 9.174076428268323 0 0 0
2800 1 1 0 10.329392811912022 13.769324861095113 9.336299309953542 0 0 0
2811 1 1 0 13.769743779631812 13.750816712095595 7.8637894772877335 0 0 0
2812 1 1 0 13.753795898025961 13.763203786703933 8.025515569870892 0 0 0
2813 1 1 0 13.744097974390703 13.769112657313977 8.19078417274302 0 0 0
2814 1 1 0 13.746801846055062 13.76792904363899 8.354387467825617 0 0 0
2815 1 1 0 13.754848623630528 13.766260724129653 8.518126950890915 0 0 0
2816 1 1 0 13.76531500141862 13.76651455085861 8.681623653517592 0 0 0
2817 1 1 0 13.773463417116496 13.76858730150973 8.845119552412536 0 0 0
2818 1 1 0 13.775371094468786 13.769333582860378 9.009162866822123 0 0 0
2819 1 1 0 13.76549735947643 13.7633330428702 9.174202430461223 0 0 0
2820 1 1 0 13.749193267781505 13.749915934867165 9.335754278899527 0 0 0
2736 1 1 0 0.0007188734592276091 13.759799540271073 8.681742084761513 0 0 0
2739 1 1 0 17.198312689188313 13.759806465953279 9.1732845095438 -1 0 0
2731 1 1 0 17.188183927036835 13.759783886892778 7.863355344705606 -1 0 0
2737 1 1 0 17.1964379733194 13.759802146967026 8.845726694389782 -1 0 0
2738 1 1 0 17.196271301659888 13.759818832136586 9.009320248293681 -1 0 0
2057 1 1 0 6.88804167100806 17.186762588097988 8.845243255100975 0 -1 0
2058 1 1 0 6.88938240180028 17.18424577505356 9.009160154933335 0 -1 0
2059 1 1 0 6.883557286192796 17.193996328275713 9.17430945422258 0 -1 0
2051 1 1 0 6.870777896525015 17.189912690562593 7.8636650304374465 0 -1 0
2056 1 1 0 6.886201610831799 17.1946550920048 8.681648454291478 0 -1 0
2092 1 1 0 10.319090814675748 17.1986270041171 8.026284042480965 0 -1 0
2093 1 1 0 10.31476054940488 17.19665354645891 8.190352412316269 0 -1 0
2094 1 1 0 10.31471251990915 17.197268339551865 8.354343358026968 0 -1 0
2095 1 1 0 10.314516192830542 0.0005636135248288099 8.518204614240242 0 0 0
2100 1 1 0 10.329290564995938 17.190313551655098 9.335852021545865 0 -1 0
2156 1 1 0 13.759791988250406 17.192891867500876 8.68165658517818 0 -1 0
2157 1 1 0 13.759763045848466 17.18664849747706 8.845244601450688 0 -1 0
2151 1 1 0 13.759785756848473 17.199102067439572 7.86269581380861 0 -1 0
2158 1 1 0 13.759763320815278 17.18441578991587 9.009296210862132 0 -1 0
2159 1 1 0 13.759760497793852 17.19345859389338 9.173887549624991 0 -1 0
2827 1 1 0 0.32768498190177026 0.0003334509078573515 10.319604003443493 0 0 0
2828 1 1 0 0.49141294496957233 7.668394199620556e-05 10.319872584961786 0 0 0
2834 1 1 0 1.4740183137479996 0.0024711573527222107 10.317283868010145 0 0 0
2832 1 1 0 1.1464070873816152 0.0014240999099040014 10.318371735315194 0 0 0
2833 1 1 0 1.3105844562902667 0.003061350173714486 10.316704092720425 0 0 0
2840 1 1 0 2.4558087603043797 0.010274124561856722 10.309589415014862 0 0 0
2842 1 1 0 2.7702135483169994 0.054323471079819 10.265537337508498 0 0 0
2843 1 1 0 2.945206164183697 0.07163650778836747 10.248235028028004 0 0 0
2841 1 1 0 2.612604971620004 0.03175122674858397 10.288120848098153 0 0 0
2845 1 1 0 3.351395220514005 0.036139720423941875 10.28375332313411 0 0 0
2846 1 1 0 3.4762911282640054 0.03615481347434448 10.408318035267628 0 0 0
2844 1 1 0 3.1503296048034004 0.07093193445144616 10.248813047655606 0 0 0
2847 1 1 0 3.511363308739386 0.07087336950080625 10.60950632657592 0 0 0
2848 1 1 0 3.5112311708830877 0.07162367355153706 10.81465225404203 0 0 0
78 1 2 0 6.879812693036457 0.00027659888404243417 10.320171856110836 0 0 0
2061 1 1 0 6.850779569150638 0.03132201502145375 9.493322821846318 0 0 0
2064 1 1 0 6.809926014111753 0.06850341043232316 10.02658393835569 0 0 0
2065 1 1 0 6.842644321448734 0.03758155640059229 10.224947994296166 0 0 0
2886 1 1 0 7.032201666476235 0.028305784976739364 10.32006688569011 0 0 0
2888 1 1 0 7.372985098374358 0.044304374369096546 10.319978304928576 0 0 0
2908 1 1 0 6.810463251672786 0.06989642774364734 10.8148253128754 0 0 0
2062 1 1 0 6.827494862849922 0.05262524950115558 9.650963220364748 0 0 0
2063 1 1 0 6.810509901685297 0.06993670605566459 9.824735065646946 0 0 0
2887 1 1 0 7.202544749924543 0.04335397377304835 10.31987894560814 0 0 0
2889 1 1 0 7.53867903355958 0.03481648825048736 10.319922956219154 0 0 0
2890 1 1 0 7.700958766633672 0.02217045580107937 10.319933811254952 0 0 0
2906 1 1 0 6.842876360363787 0.03757066275025576 10.41484870265269 0 0 0
2907 1 1 0 6.809816746016283 0.0685470736543311 10.612951047539397 0 0 0
2891 1 1 0 7.863050287783919 0.00741267437296282 10.31988187624773 0 0 0
2898 1 1 0 9.009151210509486 0.010501060662272101 10.319913713443684 0 0 0
2896 1 1 0 8.681823530589753 0.003932076907956807 10.319913244861363 0 0 0
2897 1 1 0 8.845543475518554 0.00892505367722201 10.319865520124921 0 0 0
2899 1 1 0 9.17355663621745 0.002795798044969054 10.319866132661016 0 0 0
2946 1 1 0 10.34856749127337 0.15230329092500036 10.31977284081577 0 0 0
2947 1 1 0 10.363973160059462 0.32277036359456 10.319810500469497 0 0 0
2948 1 1 0 10.363887174455595 0.493135302822945 10.319879040982364 0 0 0
2949 1 1 0 10.354489341229737 0.6587572660261674 10.319893495866939 0 0 0
2950 1 1 0 10.339838895515292 0.8209900941503256 10.319904141635224 0 0 0
2951 1 1 0 10.32671573231189 0.9834181675965774 10.319929136698445 0 0 0
2952 1 1 0 10.31931078216653 1.1464547069739552 10.319926166832008 0 0 0
2953 1 1 0 10.315279876397396 1.3102746349438155 10.319931038375895 0 0 0
2954 1 1 0 10.315538966887633 1.4743873045307063 10.319926623263784 0 0 0
80 1 2 0 13.760010225614945 17.199290541902624 10.319530153809636 0 -1 0
2161 1 1 0 13.75977301262442 0.03737755406512803 9.495200667720713 0 0 0
2162 1 1 0 13.759793958319815 0.0653219306656375 9.654417753085257 0 0 0
2163 1 1 0 13.75980848290307 0.08667772098088204 9.826300278810576 0 0 0
2164 1 1 0 13.759739865951019 0.08717718045590986 10.020100128043353 0 0 0
2165 1 1 0 13.759948015279253 0.05055968384131096 10.212464821579566 0 0 0
2988 1 1 0 13.75983451874437 0.08632027079519401 10.81353614815581 0 0 0
2986 1 1 0 13.759948485327065 0.050785116050632906 10.42717986223731 0 0 0
2987 1 1 0 13.759751226732796 0.08742817557871962 10.619628084107115 0 0 0
76 1 2 0 17.194224938954363 17.199356928815778 10.32033992823452 -1 -1 0
2955 1 1 0 10.314457624344609 1.6383153013226401 10.31992599801909 0 0 0
2956 1 1 0 10.312265745822602 1.8017445235597636 10.319923055659936 0 0 0
2957 1 1 0 10.30812312184869 1.9653731554576856 10.319922969138336 0 0 0
2958 1 1 0 10.306876430779619 2.1296162155801963 10.319920135556137 0 0 0
2959 1 1 0 10.31457398305524 2.2940396904758615 10.319920892638315 0 0 0
2960 1 1 0 10.331358461740049 2.4562631738364944 10.319910577706903 0 0 0
2961 1 1 0 10.356132530982377 2.615244206273805 10.31991021033199 0 0 0
2962 1 1 0 10.385276973736495 2.774681978223758 10.31989192473317 0 0 0
2963 1 1 0 10.406188147376016 2.9463268356563557 10.319858404026727 0 0 0
3026 1 1 0 0.16384736428524588 3.4400505266424966 10.319858186915544 0 0 0
3027 1 1 0 0.327604682846282 3.4397195468363204 10.319877610674164 0 0 0
3028 1 1 0 0.491355010463163 3.439971432367472 10.31978051255874 0 0 0
3029 1 1 0 0.655161763022564 3.4399501188270625 10.319799482101844 0 0 0
3030 1 1 0 0.818987214215957 3.439992504545457 10.31982560298949 0 0 0
3031 1 1 0 0.9828442748997628 3.4399948845211705 10.319851536503458 0 0 0
3032 1 1 0 1.1466399358938577 3.4399731264177724 10.31986375107568 0 0 0
3033 1 1 0 1.3104623765588506 3.439956756408179 10.319856222787037 0 0 0
3034 1 1 0 1.4742467123333378 3.4399264257973288 10.319841881401075 0 0 0
3035 1 1 0 1.6380962690861822 3.439907732546678 10.319830311767141 0 0 0
3036 1 1 0 1.801939099911617 3.439905838265363 10.31983941256521 0 0 0
3037 1 1 0 1.965766126421227 3.4399248207139506 10.319862488067814 0 0 0
3038 1 1 0 2.1295521397369335 3.4399528637442036 10.319894325117806 0 0 0
3039 1 1 0 2.293337308020761 3.4399496468685546 10.319897201796293 0 0 0
3040 1 1 0 2.457161339970039 3.43992999562341 10.3198812871921 0 0 0
3041 1 1 0 2.6209325455288606 3.439938027545739 10.31986903032482 0 0 0
3042 1 1 0 2.7847236030349025 3.4399873782179236 10.319868892226994 0 0 0
3043 1 1 0 2.9485716667412807 3.4400974954128447 10.319880239624252 0 0 0
3044 1 1 0 3.112377830409048 3.440018152350894 10.31985881418474 0 0 0
82 1 2 0 3.439449420108063 3.440224689568821 10.320403162665922 0 0 0
2301 1 1 0 3.439041412291831 3.4408282980645937 9.500799916971808 0 0 0
2302 1 1 0 3.4395801940091077 3.440247555422336 9.664626938056179 0 0 0
2303 1 1 0 3.4399341252885858 3.4397919002263615 9.828459319990467 0 0 0
2304 1 1 0 3.440194919619176 3.4395350208681985 9.992187462895858 0 0 0
2305 1 1 0 3.4404911012639148 3.439617049161184 10.156052651294944 0 0 0
3045 1 1 0 3.276107344126472 3.440374410648377 10.320101971107263 0 0 0
3066 1 1 0 3.6037594489339453 3.4399439127366853 10.319329698676306 0 0 0
3067 1 1 0 3.7676139885256354 3.4398997009167287 10.319637655159177 0 0 0
3068 1 1 0 3.9313677201938635 3.4400579297723244 10.319858163022738 0 0 0
3069 1 1 0 4.095166090673689 3.4403786499139164 10.320226903788935 0 0 0
3070 1 1 0 4.258933967716929 3.4408366156500008 10.320741851122943 0 0 0
3071 1 1 0 4.422822082478792 3.4404813535010583 10.320378878751127 0 0 0
3072 1 1 0 4.586518255306062 3.4386467477228178 10.318564864403369 0 0 0
3086 1 1 0 3.4397561123767724 3.4400220732520683 10.483657099969637 0 0 0
3087 1 1 0 3.439993875676349 3.4396458083909267 10.647467028873 0 0 0
3088 1 1 0 3.439987557296089 3.4398376023484496 10.811227099040243 0 0 0
3073 1 1 0 4.750512281205386 3.4370616688606583 10.316936560043267 0 0 0
3074 1 1 0 4.914135068362905 3.4373754040936984 10.317293196463933 0 0 0
3075 1 1 0 5.078054277901974 3.440672089108715 10.32055452587549 0 0 0
3076 1 1 0 5.2417402894078355 3.445539391847439 10.325502467940678 0 0 0
3077 1 1 0 5.405239006846922 3.450531641073182 10.330445143237148 0 0 0
3078 1 1 0 5.5693101840018615 3.452332947642825 10.33230471737688 0 0 0
3079 1 1 0 5.734238636594081 3.4446586803015524 10.324593321332207 0 0 0
3080 1 1 0 5.896098543381421 3.430381038094113 10.310358069956001 0 0 0
3081 1 1 0 6.053298087555623 3.409728734929683 10.289662244806179 0 0 0
3082 1 1 0 6.211006063518553 3.3873731830570852 10.26733384340109 0 0 0
83 1 2 0 6.8797339751995015 3.4396856226863166 10.319551613417332 0 0 0
3083 1 1 0 6.3847896430047895 3.370295849246575 10.250180206936076 0 0 0
3084 1 1 0 6.586758056117662 3.3705930765491505 10.250615753803068 0 0 0
3085 1 1 0 6.785066655053575 3.4025672650059224 10.282415148090163 0 0 0
3106 1 1 0 6.974783364306445 3.402541043999224 10.28224512273133 0 0 0
3107 1 1 0 7.173156880204703 3.370729512887442 10.25064139241569 0 0 0
3108 1 1 0 7.375066329115649 3.3703036796697328 10.250168921228585 0 0 0
3109 1 1 0 7.548782676365261 3.3873890572240235 10.267258126228466 0 0 0
3110 1 1 0 7.70648915166687 3.409760039373883 10.289643635822824 0 0 0
3126 1 1 0 6.88016860427311 3.5922983428523603 10.291462681088323 0 0 0
3127 1 1 0 6.880289469402036 3.762644855815543 10.276535925860216 0 0 0
3128 1 1 0 6.879761893968627 3.93303447650356 10.275629470608564 0 0 0
3129 1 1 0 6.879741211297629 4.098758631984303 10.284855916711503 0 0 0
3130 1 1 0 6.878857346355221 4.260966494763197 10.297678163635572 0 0 0
3131 1 1 0 6.879505287832499 4.423100997961738 10.31210140995709 0 0 0
3132 1 1 0 6.880984685063304 4.586013136608227 10.322808887528293 0 0 0
3146 1 1 0 6.879811402086285 3.4113527762492146 10.472108543670227 0 0 0
3147 1 1 0 6.8799909873059795 3.396387824648693 10.642547865502113 0 0 0
3148 1 1 0 6.879900786222054 3.395853918189342 10.81295503919913 0 0 0
3111 1 1 0 7.863787489535596 3.4304226003044795 10.310293852639232 0 0 0
3112 1 1 0 8.025694819252278 3.444699643571901 10.324595631120587 0 0 0
3113 1 1 0 8.19058603673044 3.4523835161428154 10.33226421530089 0 0 0
3114 1 1 0 8.354628399635603 3.450568425187061 10.330483801926116 0 0 0
3115 1 1 0 8.518107617824068 3.445569478048323 10.325475093028468 0 0 0
3116 1 1 0 8.68181255172213 3.440708737974296 10.320629070504463 0 0 0
3117 1 1 0 8.845713680583772 3.4373623998942513 10.3172852371666 0 0 0
3118 1 1 0 9.009319066633841 3.4370995790069077 10.317040864225817 0 0 0
3119 1 1 0 9.173296045351334 3.4386618270721545 10.31859312261356 0 0 0
3120 1 1 0 9.33699565544889 3.440495509156375 10.320429180799081 0 0 0
2964 1 1 0 10.407220967721736 3.1401429548999307 10.319862446838517 0 0 0
84 1 2 0 10.31968098847968 3.44006239901585 10.319761752796966 0 0 0
2965 1 1 0 10.37071577661625 3.3326686145156335 10.319816589728683 0 0 0
3121 1 1 0 9.500859517944324 3.4408649081639893 10.32076081522966 0 0 0
3122 1 1 0 9.664625572214046 3.440332179640776 10.320174356644808 0 0 0
3123 1 1 0 9.828499593715627 3.439921245550236 10.319731324329103 0 0 0
3124 1 1 0 9.992230715120355 3.4399046694813187 10.319671239625146 0 0 0
3125 1 1 0 10.156088521530124 3.4395925394629105 10.319395624662384 0 0 0
3166 1 1 0 10.370254358742555 3.5474635131682764 10.320000014392033 0 0 0
3167 1 1 0 10.406461580178641 3.7398207201291194 10.320229260608233 0 0 0
3168 1 1 0 10.406686363377533 3.933544903657282 10.319628917399749 0 0 0
3169 1 1 0 10.38514862735231 4.105649867772456 10.319739345365889 0 0 0
3170 1 1 0 10.358270899278322 4.26460785806914 10.318756866805217 0 0 0
3171 1 1 0 10.331749860058896 4.423088329949025 10.319507204040216 0 0 0
3172 1 1 0 10.312472701130035 4.585872179852096 10.320930295928349 0 0 0
85 1 2 0 13.760266284121466 3.4405460740834166 10.32056405268935 0 0 0
2361 1 1 0 13.760847182578562 3.402587053390184 9.49517551218245 0 0 0
2362 1 1 0 13.759702105172659 3.3746559102587996 9.654363205973873 0 0 0
2363 1 1 0 13.760171566661201 3.3533097798707034 9.826213975515536 0 0 0
2364 1 1 0 13.759397681283652 3.3528952158255185 10.019999232301174 0 0 0
2365 1 1 0 13.75982082782671 3.3894458872885616 10.212425163868184 0 0 0
3186 1 1 0 13.760064886989381 3.6037789357724415 10.31923967902231 0 0 0
3187 1 1 0 13.75972598325334 3.767530924655023 10.31970786761622 0 0 0
3188 1 1 0 13.759920241496781 3.931309753711288 10.31997684956843 0 0 0
3189 1 1 0 13.759833516232566 4.095146709514478 10.31994489039023 0 0 0
3190 1 1 0 13.759795954039387 4.259037278928811 10.320840803398102 0 0 0
3191 1 1 0 13.759789614257913 4.422795144539259 10.31999668985655 0 0 0
3192 1 1 0 13.75978082140509 4.5866467511559215 10.318749430356693 0 0 0
3206 1 1 0 13.760020551985686 3.3893238998012416 10.427150068101867 0 0 0
3207 1 1 0 13.759229526916513 3.3522878229971447 10.619580821914427 0 0 0
3208 1 1 0 13.760055719472799 3.3535174604516835 10.813434006667276 0 0 0
2241 1 1 0 17.16239754941575 3.4410165664375825 9.495217856046553 -1 0 0
2242 1 1 0 17.134484552470234 3.4398636961999824 9.6544147294857 -1 0 0
3046 1 1 0 17.149306136445972 3.4399896934735668 10.427374447794303 -1 0 0
81 1 2 0 17.199692566920373 3.440243815379829 10.319611228186309 -1 0 0
2243 1 1 0 17.11309576975415 3.4402970254984577 9.826250801573138 -1 0 0
2244 1 1 0 17.112796628969818 3.439477518391681 10.020084369879052 -1 0 0
2245 1 1 0 17.1491385265179 3.439843576735579 10.212479700625638 -1 0 0
3047 1 1 0 17.11327192974501 3.4393579688438196 10.61970220594707 -1 0 0
3048 1 1 0 17.1129138181448 3.44016738987459 10.81344944640189 -1 0 0
3133 1 1 0 6.8828987403804325 4.750897499989453 10.331064110438051 0 0 0
3134 1 1 0 6.882337330771421 4.914145327153686 10.329940762487507 0 0 0
3135 1 1 0 6.879264899178169 5.07807776289164 10.32401270446278 0 0 0
3136 1 1 0 6.874195404606266 5.241858878124381 10.314971490021072 0 0 0
3137 1 1 0 6.86931387839051 5.405183864845114 10.30792239437944 0 0 0
3138 1 1 0 6.867410540232619 5.569214934984333 10.30502868618037 0 0 0
3139 1 1 0 6.875179918253844 5.734160332496675 10.314156787162377 0 0 0
3140 1 1 0 6.889422343690754 5.896407439059591 10.329412928204533 0 0 0
3141 1 1 0 6.910127576283279 6.053461683093543 10.351176352612017 0 0 0
3142 1 1 0 6.932363419621484 6.210847453287749 10.372245755700675 0 0 0
3173 1 1 0 10.301399186554743 4.75098246324256 10.322909143905559 0 0 0
3174 1 1 0 10.304275934742847 4.9143916896144795 10.32229927261059 0 0 0
3175 1 1 0 10.31356654281775 5.077950116029431 10.319270546146731 0 0 0
3176 1 1 0 10.32493855831319 5.241815498261843 10.314152881079044 0 0 0
3177 1 1 0 10.333644516490525 5.40536597095786 10.309305106743576 0 0 0
3178 1 1 0 10.335943493246706 5.568831131167555 10.307353705740395 0 0 0
3179 1 1 0 10.325747560170864 5.734483058147499 10.31518491930192 0 0 0
3180 1 1 0 10.309787999199322 5.896374957441374 10.329334348566372 0 0 0
3181 1 1 0 10.288335844590943 6.053345583628848 10.350061459704772 0 0 0
3182 1 1 0 10.267152285187173 6.210869394371332 10.372307294086792 0 0 0
3193 1 1 0 13.759791822984813 4.750419091773043 10.317543930837022 0 0 0
3194 1 1 0 13.75978021806765 4.914297919720224 10.31845228356367 0 0 0
3195 1 1 0 13.75979544758013 5.078057492567621 10.320648809878689 0 0 0
3196 1 1 0 13.759779021072603 5.241702000483214 10.324612434031156 0 0 0
3197 1 1 0 13.759782639736091 5.405510761096395 10.327426899205447 0 0 0
3198 1 1 0 13.759774192446184 5.569319637468063 10.327984472762058 0 0 0
3199 1 1 0 13.7597818769483 5.733568875063786 10.321726459265355 0 0 0
3200 1 1 0 13.7597707735216 5.896561346895458 10.312452760092151 0 0 0
3201 1 1 0 13.759782947953399 6.058783644066444 10.298757528321717 0 0 0
3202 1 1 0 13.759766585159673 6.221143948664408 10.285009667341651 0 0 0
2381 1 1 0 0.02910314306806281 6.848561084995674 9.493313007374287 0 0 0
2385 1 1 0 0.03748538404494412 6.842533545965375 10.225030190419512 0 0 0
3226 1 1 0 0.028486350971876215 7.032245017437349 10.319890246528638 0 0 0
3227 1 1 0 0.04346944487120774 7.202640876723702 10.319807460124663 0 0 0
3228 1 1 0 0.04405120938327462 7.373046744626398 10.319918403254242 0 0 0
3229 1 1 0 0.03481137157120781 7.538641292294463 10.319870334029975 0 0 0
3246 1 1 0 0.03688282951586454 6.842315657776745 10.414957049835888 0 0 0
3247 1 1 0 0.0688491571350764 6.810846108603095 10.613077497112076 0 0 0
2382 1 1 0 0.052315790672078484 6.827213659174839 9.651019162204518 0 0 0
2383 1 1 0 0.06939835175753349 6.81003936749562 9.824914371901988 0 0 0
2384 1 1 0 0.06963994236626375 6.811393326097916 10.026798606571623 0 0 0
3230 1 1 0 0.02116097002388441 7.700948623707168 10.319867876616449 0 0 0
3248 1 1 0 0.06990755208744345 6.810260375393156 10.814828403409022 0 0 0
87 1 2 0 3.4402998860975913 6.879707833535995 10.319387248028873 0 0 0
2441 1 1 0 3.402651177470122 6.879896178671586 9.495222427214804 0 0 0
2442 1 1 0 3.374703362432612 6.879887873202002 9.654398836237789 0 0 0
2443 1 1 0 3.353369436473917 6.879862936826671 9.826291946164353 0 0 0
2444 1 1 0 3.352952395680433 6.879951436768755 10.02007730453519 0 0 0
2445 1 1 0 3.3894576298580765 6.879706276284546 10.212366861186673 0 0 0
3286 1 1 0 3.603810388325746 6.879755589766641 10.320436264768238 0 0 0
3287 1 1 0 3.767610825215528 6.879923645631289 10.31990450333198 0 0 0
3288 1 1 0 3.931364297220746 6.879835115428817 10.319749445950611 0 0 0
3289 1 1 0 4.0952026225419536 6.8798619774674465 10.319738013551754 0 0 0
3290 1 1 0 4.259055012858414 6.879897089396395 10.318872438419818 0 0 0
3291 1 1 0 4.422790546234842 6.879891058611322 10.31969360488779 0 0 0
3292 1 1 0 4.586601063477887 6.879900759796047 10.3209665428606 0 0 0
3306 1 1 0 3.389482377754859 6.8800473835158975 10.427282222017691 0 0 0
3307 1 1 0 3.3530570510883875 6.8802557387652605 10.61962884813887 0 0 0
3308 1 1 0 3.3533573129945338 6.879582423416792 10.813399891093296 0 0 0
3293 1 1 0 4.750368108589093 6.879874836841277 10.322141111152218 0 0 0
3294 1 1 0 4.914254272954635 6.879892617526723 10.321283845013506 0 0 0
3295 1 1 0 5.0780409710083845 6.879866526280589 10.319070386604382 0 0 0
3296 1 1 0 5.241733887829743 6.879904560606552 10.315126066224886 0 0 0
3297 1 1 0 5.405587657713449 6.879898947404634 10.312299537994054 0 0 0
3298 1 1 0 5.569339735017276 6.879934945544293 10.311750823930726 0 0 0
3299 1 1 0 5.7335531335245795 6.879937045715312 10.317986555468227 0 0 0
3300 1 1 0 5.896615746475851 6.879946519648223 10.32729244021984 0 0 0
3301 1 1 0 6.05883711129481 6.879929141767943 10.340954730888008 0 0 0
3302 1 1 0 6.221173565820553 6.879942853620989 10.354702088269708 0 0 0
88 1 2 0 6.8800536695458705 6.88012837799464 10.320099777137727 0 0 0
2501 1 1 0 6.902130352374085 6.880949432359045 9.498850776426357 0 0 0
2502 1 1 0 6.914908055174434 6.880023943952078 9.661098258040424 0 0 0
2503 1 1 0 6.924094152467561 6.880029473037508 9.826823921591078 0 0 0
2504 1 1 0 6.923130812081427 6.879420944460691 9.997176774918355 0 0 0
2505 1 1 0 6.9081917018888825 6.879608515763217 10.167517177020235 0 0 0
3143 1 1 0 6.949497612664522 6.38479116326339 10.389869911546104 0 0 0
3144 1 1 0 6.948975564339799 6.58666616995978 10.388607373344994 0 0 0
3145 1 1 0 6.917413517281701 6.784934695044763 10.357107244450965 0 0 0
3303 1 1 0 6.386823028917749 6.879912093826781 10.363958521784676 0 0 0
3304 1 1 0 6.557164962658563 6.879799720523998 10.363336383409713 0 0 0
3305 1 1 0 6.727563185301509 6.880040421120103 10.348518809348537 0 0 0
3326 1 1 0 6.917139521388302 6.974792577960338 10.357390351550707 0 0 0
3327 1 1 0 6.9490498069731785 7.173045754438693 10.389109732387455 0 0 0
3328 1 1 0 6.949498368471901 7.37495421808069 10.389484771917708 0 0 0
3329 1 1 0 6.93240951286476 7.548739320460851 10.372381539261028 0 0 0
3330 1 1 0 6.910103555269513 7.706415756148 10.350053220295742 0 0 0
89 1 2 0 10.319622298254158 6.879993756368541 10.320063808034126 0 0 0
2541 1 1 0 10.297631822807134 6.880967753758126 9.498859993128043 0 0 0
2542 1 1 0 10.284861411443439 6.8800705015144334 9.661130098040056 0 0 0
2543 1 1 0 10.275649851718525 6.880021002702716 9.826803610776441 0 0 0
2544 1 1 0 10.276682767532275 6.879608248676612 9.99717025122048 0 0 0
2545 1 1 0 10.291556431101865 6.8796557708305945 10.167442589851426 0 0 0
3183 1 1 0 10.250040077338088 6.384850572747914 10.389479793532725 0 0 0
3184 1 1 0 10.251161481432288 6.586632724154717 10.388855705439934 0 0 0
3185 1 1 0 10.282505939963226 6.784949062683444 10.357488439503143 0 0 0
3346 1 1 0 10.472210782508677 6.88015473909225 10.348141445843172 0 0 0
3347 1 1 0 10.642564423015099 6.880085855431317 10.36288769846816 0 0 0
3348 1 1 0 10.812935332364159 6.87977475424929 10.363995253843449 0 0 0
3366 1 1 0 10.282188982333784 6.974772265134238 10.35721007612684 0 0 0
3367 1 1 0 10.250253406900983 7.173106562513959 10.388494544507822 0 0 0
3368 1 1 0 10.250403320577902 7.374911004477483 10.389705955452989 0 0 0
3369 1 1 0 10.267413343226456 7.548758182997296 10.372463602386452 0 0 0
3370 1 1 0 10.290707769386223 7.706430333103632 10.35116943594985 0 0 0
3349 1 1 0 10.978603904704297 6.879736354663116 10.354767828579364 0 0 0
3350 1 1 0 11.14090458552952 6.878807568474709 10.341984392362338 0 0 0
3351 1 1 0 11.30302673356614 6.879530743382921 10.327580164153536 0 0 0
3352 1 1 0 11.465916833991905 6.8809522982881255 10.316943306093547 0 0 0
3353 1 1 0 11.630811197146656 6.882934420231354 10.308649329683144 0 0 0
3354 1 1 0 11.793987175089423 6.882323322554518 10.309831381044342 0 0 0
3355 1 1 0 11.95791819061312 6.879296583145575 10.315711586861575 0 0 0
3356 1 1 0 12.121750861912643 6.874189831138483 10.324803682997286 0 0 0
3357 1 1 0 12.285126757649747 6.869352748198786 10.331816671516629 0 0 0
3358 1 1 0 12.449123367740459 6.867413833437955 10.334747241373352 0 0 0
90 1 2 0 13.75964316397088 6.880128895317969 10.319641981448816 0 0 0
3203 1 1 0 13.759735509077796 6.386837456625699 10.27576493532753 0 0 0
3204 1 1 0 13.759882752911606 6.557241947832572 10.27630839106753 0 0 0
3205 1 1 0 13.759704215842051 6.727632475035406 10.291122972906766 0 0 0
3285 1 1 0 13.854789262486937 6.917125283254663 10.282291704185655 0 0 0
3359 1 1 0 12.61399256387934 6.875237447507727 10.32557753714745 0 0 0
3360 1 1 0 12.776240573087906 6.889436590314069 10.31032987010407 0 0 0
3361 1 1 0 12.933273639169013 6.910196633554184 10.288511774644924 0 0 0
3362 1 1 0 13.09082338315307 6.932444681824326 10.267427432466237 0 0 0
3363 1 1 0 13.264808682537103 6.9496151759407985 10.24979664113529 0 0 0
3364 1 1 0 13.466586461555432 6.94916833116482 10.250930379642186 0 0 0
3365 1 1 0 13.664732595607889 6.917375201236343 10.282760932293618 0 0 0
3386 1 1 0 13.760113798557395 6.908644414621893 10.47211180874039 0 0 0
3387 1 1 0 13.759947814312586 6.923476667140138 10.642558611305494 0 0 0
3388 1 1 0 13.759585771631425 6.923999225844288 10.812910952823424 0 0 0
3284 1 1 0 14.05309951965114 6.948716784292055 10.250700433853357 0 0 0
3275 1 1 0 15.561690125918037 6.884129540757914 10.320478424225753 0 0 0
3276 1 1 0 15.397826193962093 6.8750082255516585 10.325551560578885 0 0 0
3277 1 1 0 15.23451514322418 6.868042027570883 10.33041630028602 0 0 0
3278 1 1 0 15.070490452592889 6.8650559320477775 10.332339745912615 0 0 0
3279 1 1 0 14.90554706262202 6.87424331274025 10.32452775681541 0 0 0
3280 1 1 0 14.743329233558164 6.889421894100558 10.310315090286792 0 0 0
3281 1 1 0 14.586270981817583 6.911240472555404 10.28958663759115 0 0 0
3282 1 1 0 14.428845459085032 6.9322713762310215 10.267331805172967 0 0 0
3283 1 1 0 14.25493094842811 6.9499287734144 10.250161735197988 0 0 0
86 1 2 0 3.214967314590922e-05 6.8796773464819125 10.32006409360148 0 0 0
3266 1 1 0 17.047313552583983 6.851575312368875 10.319740074670095 0 0 0
3267 1 1 0 16.877011510540438 6.836789389452508 10.319615317091836 0 0 0
3268 1 1 0 16.70667386007527 6.835723252403113 10.320002809072653 0 0 0
3269 1 1 0 16.540938499253798 6.844954705391633 10.320023751654032 0 0 0
3270 1 1 0 16.37866722423675 6.857702701955726 10.32092163638173 0 0 0
3271 1 1 0 16.216512222896785 6.872145071105912 10.320231754796973 0 0 0
3272 1 1 0 16.05363400133761 6.882775270034395 10.318771092955641 0 0 0
3273 1 1 0 15.88872766044811 6.891125960227647 10.316823701366452 0 0 0
3274 1 1 0 15.72555660922947 6.889941020718441 10.31741039235603 0 0 0
3237 1 1 0 0.0013727195522057092 8.845553769849756 10.319837651109497 0 0 0
3239 1 1 0 0.001086801667058102 9.173243676690284 10.319836089682761 0 0 0
3231 1 1 0 0.007447375049120842 7.863187967858699 10.319868607072213 0 0 0
3238 1 1 0 0.002320156076355736 9.009432895790942 10.319840848077053 0 0 0
3331 1 1 0 6.889421969393871 7.863694635103289 10.329386662927568 0 0 0
3332 1 1 0 6.875204430957243 8.025671776807998 10.315154869204802 0 0 0
3333 1 1 0 6.867474868732578 8.190586114334538 10.307444801096313 0 0 0
3334 1 1 0 6.869328936369752 8.354574810982136 10.309326000042276 0 0 0
3335 1 1 0 6.874262297031574 8.51804479287851 10.31424346139479 0 0 0
3336 1 1 0 6.879205183141475 8.68176453067933 10.319195188079203 0 0 0
3337 1 1 0 6.882453734550468 8.845726919061988 10.322429415734579 0 0 0
3338 1 1 0 6.882856676277369 9.00933753066295 10.32278746729292 0 0 0
3339 1 1 0 6.881192596287524 9.173310783423426 10.32111792986597 0 0 0
3340 1 1 0 6.879443897104497 9.336981500925205 10.319330426540251 0 0 0
3371 1 1 0 10.310728370113171 7.863678860079807 10.329718655885399 0 0 0
3372 1 1 0 10.323460088891027 8.025517433845515 10.314077116122819 0 0 0
3373 1 1 0 10.329320507307507 8.190649169848847 10.304342296653012 0 0 0
3374 1 1 0 10.327971845672558 8.354539153937763 10.306845764031909 0 0 0
3375 1 1 0 10.326151177313886 8.518127409264789 10.314745466151196 0 0 0
3376 1 1 0 10.32615545537694 8.681656295946022 10.324933864706843 0 0 0
3377 1 1 0 10.327963544942737 8.845249022189314 10.3328367023745 0 0 0
3378 1 1 0 10.329317816811097 9.009107749304944 10.335344866208008 0 0 0
3379 1 1 0 10.323454120874999 9.17423061632778 10.325620060003367 0 0 0
3380 1 1 0 10.310717757380422 9.336031461714567 10.31000144186853 0 0 0
3232 1 1 0 17.197962315207974 8.026209251701406 10.319859951019911 -1 0 0
3233 1 1 0 17.19167655854955 8.190496146569936 10.31985908459444 -1 0 0
3235 1 1 0 17.194985233467026 8.51809102171557 10.319838595332213 -1 0 0
3240 1 1 0 17.199594354887267 9.337052208049851 10.319821030590369 -1 0 0
3234 1 1 0 17.192193111586835 8.354280418620927 10.31984771792273 -1 0 0
3236 1 1 0 17.198958959509667 8.681812010473157 10.319845766420743 -1 0 0
91 1 2 0 17.199035757137263 10.319889141437205 10.319951722105984 -1 0 0
3244 1 1 0 0.00010768481493588422 9.992207183214793 10.319927479411728 0 0 0
3406 1 1 0 0.10753051848794591 10.37021903657758 10.319935969866103 0 0 0
3407 1 1 0 0.2998237314109083 10.406421545569703 10.31989890768942 0 0 0
3408 1 1 0 0.49358328169506044 10.40685384716992 10.319869721275104 0 0 0
3409 1 1 0 0.6656633532267097 10.384992002970039 10.319842695556478 0 0 0
3410 1 1 0 0.824546722692826 10.358317830264681 10.319848816837613 0 0 0
3411 1 1 0 0.9830384914547668 10.331497777016414 10.319836490934856 0 0 0
3412 1 1 0 1.1461519957515338 10.312586110458218 10.319854135166077 0 0 0
3413 1 1 0 1.3107180584123614 10.302140770273681 10.319850843778635 0 0 0
3414 1 1 0 1.4746307176159008 10.305387654930948 10.319872929983003 0 0 0
3243 1 1 0 17.19964186555787 9.828422911487273 10.319886915492047 -1 0 0
3415 1 1 0 1.6380363196647505 10.313798755212586 10.319875690496701 0 0 0
3416 1 1 0 1.8018427364582972 10.323990384231386 10.319901643856705 0 0 0
3417 1 1 0 1.965826608936255 10.330686865808007 10.319897871599625 0 0 0
3418 1 1 0 2.1289056632891095 10.33160296524055 10.31992060373623 0 0 0
3419 1 1 0 2.2939667932177734 10.32289261048458 10.319907637103894 0 0 0
3420 1 1 0 2.4567902509992807 10.311872319540946 10.319908158187369 0 0 0
3421 1 1 0 2.6188848295303875 10.297462160833103 10.31989026127822 0 0 0
3422 1 1 0 2.7811672619371666 10.284729965795284 10.319878553458732 0 0 0
3423 1 1 0 2.9468311559461573 10.275702639875048 10.319844430272939 0 0 0
3424 1 1 0 3.1172793046597644 10.276514266314871 10.319784764557076 0 0 0
92 1 2 0 3.4401208885202093 10.3196357173468 10.319984229504083 0 0 0
2601 1 1 0 3.4701517588402444 10.289655726203135 9.493292167532704 0 0 0
2602 1 1 0 3.4924740428972507 10.267336868934235 9.650974976801512 0 0 0
2603 1 1 0 3.509550200990067 10.250204488644258 9.824760045339326 0 0 0
2604 1 1 0 3.509111812711694 10.250665840845828 10.02667096107836 0 0 0
2605 1 1 0 3.4774130398449157 10.282596534434703 10.224876462842463 0 0 0
3425 1 1 0 3.2876234152250334 10.291490201139899 10.319975092161698 0 0 0
3446 1 1 0 3.4687473780848634 10.472113865873325 10.319478067934243 0 0 0
3447 1 1 0 3.4837358151746014 10.64258664049433 10.319400337746503 0 0 0
3448 1 1 0 3.4838831748018735 10.812895565732484 10.319993898388125 0 0 0
3466 1 1 0 3.476988598465603 10.282289170844944 10.414804239601828 0 0 0
3467 1 1 0 3.508742131796225 10.250012861246267 10.613005202563944 0 0 0
3468 1 1 0 3.509802181319155 10.250380441684428 10.814868019971389 0 0 0
93 1 2 0 6.8797056494199165 10.319211135093695 10.319030647212541 0 0 0
2641 1 1 0 6.881012453567374 10.356150160867795 9.495278933589146 0 0 0
2642 1 1 0 6.880023324403468 10.385079892575476 9.654638788055175 0 0 0
2643 1 1 0 6.880076267698863 10.406254812599792 9.826285046416574 0 0 0
2644 1 1 0 6.879536909271069 10.407391589133956 10.020075832412008 0 0 0
2645 1 1 0 6.879489849563462 10.370470995773726 10.212526142395495 0 0 0
3341 1 1 0 6.879025316449798 9.500852868513576 10.318932892633429 0 0 0
3342 1 1 0 6.8795672260537195 9.66460341925859 10.319473937399675 0 0 0
3343 1 1 0 6.8799305430909365 9.828438334802566 10.319830132990598 0 0 0
3344 1 1 0 6.88003118487796 9.992263187022909 10.320071975875772 0 0 0
3345 1 1 0 6.8801362289954655 10.156033417788803 10.320285924399798 0 0 0
3486 1 1 0 6.879993063497267 10.370288610941042 10.42732930585745 0 0 0
3487 1 1 0 6.880181993083891 10.406849737951351 10.61966279885434 0 0 0
3488 1 1 0 6.87952393917328 10.406434971572793 10.813468662633907 0 0 0
94 1 2 0 10.319670442860206 10.319842325479511 10.319718738126342 0 0 0
3381 1 1 0 10.290683935600065 9.493266326716968 10.28855554317144 0 0 0
3382 1 1 0 10.267375544144524 9.651020559404678 10.26725171612207 0 0 0
3383 1 1 0 10.250374806258462 9.82478173275712 10.25001202238808 0 0 0
3384 1 1 0 10.250073381799613 10.026637456685346 10.251172106512566 0 0 0
3385 1 1 0 10.282251278663045 10.224915397780489 10.28276154911388 0 0 0
3506 1 1 0 10.47208887553704 10.319992568951122 10.29128553579659 0 0 0
3507 1 1 0 10.642509788491973 10.319996427629622 10.276436048447497 0 0 0
3508 1 1 0 10.812950199423812 10.319869835940235 10.275855527733812 0 0 0
3526 1 1 0 10.282863823540644 10.414937090819663 10.282369906165561 0 0 0
3527 1 1 0 10.250943301347863 10.613061948130854 10.250767139730842 0 0 0
3528 1 1 0 10.24982722706521 10.814849385384594 10.250267330103524 0 0 0
3546 1 1 0 10.291215989277568 10.319768507922925 10.472129680383455 0 0 0
3547 1 1 0 10.27623843272256 10.31986821531465 10.642559237271128 0 0 0
3548 1 1 0 10.275757986379716 10.319874167709624 10.812980916466124 0 0 0
3509 1 1 0 10.978577975892005 10.3198778619678 10.285096311012355 0 0 0
3510 1 1 0 11.140906827205145 10.31987562997917 10.298796109602376 0 0 0
3511 1 1 0 11.30319034115774 10.319841095737518 10.312462430278362 0 0 0
3512 1 1 0 11.466243375697493 10.319840388163561 10.321739784836845 0 0 0
3513 1 1 0 11.63041501232307 10.319810526345837 10.327952218662151 0 0 0
3514 1 1 0 11.794239641453991 10.319823314694231 10.327395775384174 0 0 0
3515 1 1 0 11.958033145222073 10.319798247472123 10.324568627074509 0 0 0
3516 1 1 0 12.12176145489615 10.319807141839107 10.32057168725579 0 0 0
3517 1 1 0 12.285519733878314 10.319826510464685 10.318422011650593 0 0 0
3518 1 1 0 12.4494184040499 10.319839601554003 10.31745735828933 0 0 0
95 1 2 0 13.759213162448063 10.319319883701944 10.320256157110645 0 0 0
2701 1 1 0 13.758797794467384 10.31885831280951 9.500884168362765 0 0 0
2702 1 1 0 13.759435379396791 10.31952997407299 9.664596428025032 0 0 0
2703 1 1 0 13.759689740236617 10.319927977350172 9.828471724222558 0 0 0
2704 1 1 0 13.760082469275616 10.320424537736296 9.992233944499054 0 0 0
2705 1 1 0 13.760066831493644 10.319920981452372 10.156055126611912 0 0 0
3445 1 1 0 13.9236060350184 10.319668101744135 10.319872484058013 0 0 0
3519 1 1 0 12.613128396426774 10.319902452423532 10.318771100420872 0 0 0
3520 1 1 0 12.77702084752844 10.319864584750398 10.319920443622745 0 0 0
3521 1 1 0 12.940696935876831 10.319869665028584 10.320879252628247 0 0 0
3522 1 1 0 13.104540156398908 10.319755214994451 10.319927911593886 0 0 0
3523 1 1 0 13.268381400304428 10.319672304100312 10.320045125793568 0 0 0
3524 1 1 0 13.432183711902267 10.319809153299092 10.319768092680356 0 0 0
3525 1 1 0 13.595963964461687 10.319335402091639 10.319419923449358 0 0 0
3566 1 1 0 13.759690628483353 10.319935962970632 10.48369085653812 0 0 0
3567 1 1 0 13.759866710384898 10.3203982752696 10.647460434015565 0 0 0
3568 1 1 0 13.759774551638792 10.320002549118954 10.811258599500485 0 0 0
3435 1 1 0 15.561565043414776 10.31296972830794 10.3198696540832 0 0 0
3436 1 1 0 15.397931653384752 10.319155776991982 10.319820735820965 0 0 0
3437 1 1 0 15.234012342244489 10.323140497987078 10.319868647501773 0 0 0
3438 1 1 0 15.070354872635798 10.323369636104921 10.319832951877626 0 0 0
3439 1 1 0 14.906293482911483 10.321261977050664 10.319866525105654 0 0 0
3440 1 1 0 14.742579732826542 10.319227229213476 10.319842972129779 0 0 0
3441 1 1 0 14.578744638901895 10.318695378953073 10.319854462538215 0 0 0
3442 1 1 0 14.414982489623931 10.319405811606039 10.319842136330449 0 0 0
3443 1 1 0 14.251162428062925 10.31966372846403 10.319873803047075 0 0 0
3444 1 1 0 14.08739482955314 10.320070315102583 10.319767563386845 0 0 0
3245 1 1 0 0.0005731830563213691 10.156020963939234 10.31995232985762 0 0 0
3241 1 1 0 17.198794766105898 9.500793810546574 10.319826166825615 -1 0 0
3242 1 1 0 17.19963243520403 9.664615178748173 10.319853257717016 -1 0 0
3426 1 1 0 17.0923214565677 10.370523454621498 10.319957596629505 0 0 0
3427 1 1 0 16.8999260173036 10.406872048383992 10.319960226560452 0 0 0
3428 1 1 0 16.706109855216923 10.406520831700039 10.319940403957618 0 0 0
3429 1 1 0 16.53421616760925 10.385129280757232 10.319934999855832 0 0 0
3430 1 1 0 16.375073582880226 10.357182425493576 10.319899205861491 0 0 0
3431 1 1 0 16.216353740816825 10.331415515419659 10.319894648885173 0 0 0
3432 1 1 0 16.053770438250265 10.313517308526214 10.31986024613086 0 0 0
3433 1 1 0 15.889176125258437 10.304469048550812 10.31987630283327 0 0 0
3434 1 1 0 15.725101260016471 10.30672362992787 10.319832508436745 0 0 0
3449 1 1 0 3.4746020221945324 10.978584725715004 10.32000007569967 0 0 0
3450 1 1 0 3.460029897970193 11.140939151854615 10.320925216568702 0 0 0
3451 1 1 0 3.4469512265888325 11.303299725645388 10.320229089037209 0 0 0
3452 1 1 0 3.439225171380483 11.466212624348293 10.31882128418012 0 0 0
3453 1 1 0 3.434815119871922 11.630186555492227 10.316837201817235 0 0 0
3454 1 1 0 3.4348451379322333 11.794218456123142 10.317446912661012 0 0 0
3455 1 1 0 3.4345664584289795 11.958177857389963 10.320455463416456 0 0 0
3456 1 1 0 3.433528198702916 12.121533315855975 10.325544145452293 0 0 0
3457 1 1 0 3.4307533510098063 12.285116025572485 10.330371276564703 0 0 0
3458 1 1 0 3.429869517551987 12.449370219234766 10.332327000326243 0 0 0
3529 1 1 0 10.267472773829043 10.9888593911495 10.267421827093825 0 0 0
3530 1 1 0 10.28852196660911 11.146311655087333 10.289628059232454 0 0 0
3531 1 1 0 10.310352095401914 11.303352909950139 10.31038104277895 0 0 0
3532 1 1 0 10.325572139196444 11.46562301995859 10.324540502857616 0 0 0
3533 1 1 0 10.334776699575844 11.630621297863323 10.332364238390314 0 0 0
3534 1 1 0 10.331822814485129 11.79462630462749 10.330378999619944 0 0 0
3535 1 1 0 10.324849181092988 11.95789568519959 10.32556346402833 0 0 0
3536 1 1 0 10.315735417286028 12.121750697449109 10.320419985400799 0 0 0
3537 1 1 0 10.309881243696 12.285673135490013 10.317408538366168 0 0 0
3538 1 1 0 10.308680463766878 12.44888133787227 10.316779790153383 0 0 0
96 1 2 0 0.0011881593901336895 13.760173099179491 10.31974032864554 0 0 0
2741 1 1 0 0.0010498309550447452 13.759842705814354 9.50080998892287 0 0 0
3586 1 1 0 0.16381427017632397 13.759963757421362 10.3191939449821 0 0 0
3587 1 1 0 0.32767052915923833 13.759594937299394 10.319821770660798 0 0 0
3588 1 1 0 0.49146475798699046 13.759791844691284 10.320011278303854 0 0 0
3589 1 1 0 0.6552330292720749 13.759813471014942 10.319958145791706 0 0 0
3590 1 1 0 0.8190488481074217 13.759876690583933 10.32087077925458 0 0 0
3591 1 1 0 0.9828134070946579 13.759884479932813 10.320004985542962 0 0 0
3592 1 1 0 1.1466246182462343 13.759886051652897 10.318783754608033 0 0 0
3593 1 1 0 1.3104543300661617 13.759851810007037 10.317516441868085 0 0 0
3594 1 1 0 1.4742787556405663 13.759841405315056 10.318422299506205 0 0 0
2742 1 1 0 0.0003689224138126963 13.759899511683308 9.664593183978585 0 0 0
2745 1 1 0 17.199641662912402 13.76023767991192 10.155985906964075 -1 0 0
3606 1 1 0 17.199373265577954 13.759882074961666 10.483670600310015 -1 0 0
3595 1 1 0 1.6380774096126756 13.759828328217868 10.32059545558506 0 0 0
3596 1 1 0 1.8018236721310592 13.759821932991516 10.324533027874564 0 0 0
3597 1 1 0 1.9656380888835292 13.759814214557366 10.32736173728771 0 0 0
3598 1 1 0 2.1293636447757174 13.759797922408733 10.327885324875018 0 0 0
3599 1 1 0 2.293611131463941 13.759801352462878 10.321644641622992 0 0 0
3600 1 1 0 2.4566482647133596 13.759800496438093 10.312381098639834 0 0 0
3601 1 1 0 2.618917626621623 13.759809484947553 10.29869229025829 0 0 0
3602 1 1 0 2.7812773777226028 13.759829532443225 10.285024147084243 0 0 0
3603 1 1 0 2.946947527017696 13.759840495155284 10.275811389202374 0 0 0
3604 1 1 0 3.117369333029675 13.759841872389872 10.276180826605076 0 0 0
97 1 2 0 3.4401729118593067 13.760016230993616 10.319817021360702 0 0 0
2885 1 1 0 3.4770384761078166 13.854788619408822 10.282627323149322 0 0 0
3459 1 1 0 3.436260252084736 12.614124128458542 10.324522051460667 0 0 0
3460 1 1 0 3.4494437151219586 12.775842973382355 10.310393802015572 0 0 0
3461 1 1 0 3.4691325600692138 12.933136260088522 10.289652958068315 0 0 0
3462 1 1 0 3.4926719729111153 13.091143786063682 10.2673535631698 0 0 0
3463 1 1 0 3.5092780043175473 13.264769197604306 10.250275475646525 0 0 0
3464 1 1 0 3.5098821376188964 13.466730886070641 10.25062781647617 0 0 0
3465 1 1 0 3.4773429371163482 13.664866065750074 10.282749011749365 0 0 0
3605 1 1 0 3.287681868387292 13.759922228844275 10.291462378070044 0 0 0
3646 1 1 0 3.468780590755145 13.759876094261239 10.472184177442907 0 0 0
3647 1 1 0 3.4838909914914917 13.759825565513687 10.642588741346843 0 0 0
3648 1 1 0 3.4837791264572004 13.759898034155034 10.81294846207546 0 0 0
2884 1 1 0 3.510007845530853 14.052898440052473 10.25010788579157 0 0 0
98 1 2 0 6.879704015745738 13.758826603706659 10.319143186648612 0 0 0
2945 1 1 0 6.843540819023394 13.848264002463864 10.283461764710271 0 0 0
3666 1 1 0 6.968558762266661 13.723744462248131 10.28358132773614 0 0 0
3667 1 1 0 7.169474057718453 13.689451234672353 10.24887015864605 0 0 0
3668 1 1 0 7.374560386642259 13.687819774677944 10.248211103027797 0 0 0
3669 1 1 0 7.549720217237323 13.705667302284608 10.26557789087356 0 0 0
3670 1 1 0 7.7071310266877235 13.72697883801767 10.28807740147259 0 0 0
3686 1 1 0 6.84372898731246 13.723459895928363 10.40842468715711 0 0 0
3687 1 1 0 6.808378684038231 13.689654278734887 10.609514252106129 0 0 0
3688 1 1 0 6.808498479846985 13.687937348815517 10.814501657806826 0 0 0
2944 1 1 0 6.8086926171188376 14.049480434320806 10.249083001773645 0 0 0
3671 1 1 0 7.863681322653275 13.7495316559708 10.309591951488185 0 0 0
3672 1 1 0 8.025639070281263 13.765470802411 10.324458199897016 0 0 0
3673 1 1 0 8.190590329106488 13.774751215591827 10.332402650339684 0 0 0
3674 1 1 0 8.354802249395801 13.772482683348805 10.331052142436365 0 0 0
3675 1 1 0 8.517897527735574 13.76518280618756 10.325951477877075 0 0 0
3676 1 1 0 8.681639119149752 13.755898250346736 10.3205907575367 0 0 0
3677 1 1 0 8.845853564065633 13.749792303901856 10.31738453814037 0 0 0
3678 1 1 0 9.008756232072423 13.748492476257983 10.316612058220551 0 0 0
3679 1 1 0 9.17393525085269 13.756688043918505 10.318511107903662 0 0 0
3680 1 1 0 9.336652831896158 13.767723182740383 10.320283567984806 0 0 0
99 1 2 0 10.32011210869395 13.760150064041083 10.320359758093531 0 0 0
2801 1 1 0 10.351195281780155 13.790044131240865 9.493346081220642 0 0 0
2802 1 1 0 10.372242828325945 13.812313928151905 9.650792212283207 0 0 0
2803 1 1 0 10.389918581447105 13.82949166892012 9.82480204591178 0 0 0
2804 1 1 0 10.38848196842863 13.829010522726596 10.026635818726024 0 0 0
2805 1 1 0 10.357373277343665 13.797392731421825 10.224934731270102 0 0 0
3539 1 1 0 10.316998285068356 12.613725738551397 10.318769024665496 0 0 0
3540 1 1 0 10.327616893608608 12.776630216768861 10.320175472393464 0 0 0
3541 1 1 0 10.342050250562776 12.938691155918788 10.320881226799338 0 0 0
3542 1 1 0 10.354813048887612 13.100955019844342 10.319961577505708 0 0 0
3543 1 1 0 10.364075756506884 13.26665832330569 10.319991991934995 0 0 0
3544 1 1 0 10.36296805154706 13.437019113569187 10.319265499051655 0 0 0
3545 1 1 0 10.348192578092064 13.607402737398235 10.319718661561351 0 0 0
3681 1 1 0 9.498789630738104 13.782044383440235 10.320875238093235 0 0 0
3682 1 1 0 9.661062634601656 13.79493359392293 10.320026563141342 0 0 0
3683 1 1 0 9.826787353519668 13.804081140978726 10.31998294711817 0 0 0
3684 1 1 0 9.997155950330093 13.803075170373507 10.319152567874015 0 0 0
3685 1 1 0 10.167472197225152 13.78816572806371 10.319757693127771 0 0 0
3706 1 1 0 10.357370746277065 13.797376038572537 10.414615926994763 0 0 0
3707 1 1 0 10.389038125773135 13.82957059168911 10.613042619379302 0 0 0
3708 1 1 0 10.389517201499267 13.82908884288715 10.814992976623959 0 0 0
100 1 2 0 13.758972655580592 13.759344252727352 10.320449544929966 0 0 0
2821 1 1 0 13.726954457634056 13.729112299350055 9.49261839372899 0 0 0
2822 1 1 0 13.705416242714854 13.70554597659375 9.650195506054388 0 0 0
2823 1 1 0 13.687948437144522 13.688338972008461 9.825240382761493 0 0 0
2824 1 1 0 13.689550091831121 13.688351981549205 10.030272919351619 0 0 0
2825 1 1 0 13.723625843570414 13.723403343444794 10.231318287280564 0 0 0
3025 1 1 0 13.72348829820835 13.848358012107647 10.356064692152325 0 0 0
3645 1 1 0 13.84838213784208 13.723521935810513 10.356143132349434 0 0 0
3644 1 1 0 14.049505577298648 13.68881863811809 10.390597570156944 0 0 0
3024 1 1 0 13.689078601186997 14.049564348812643 10.390747275538816 0 0 0
3635 1 1 0 15.561594543650388 13.76064174331758 10.319126050473997 0 0 0
3636 1 1 0 15.39800392285533 13.765892116023245 10.31380271772298 0 0 0
3637 1 1 0 15.234646766990235 13.771036181034953 10.308701286555563 0 0 0
3638 1 1 0 15.070363877708735 13.772319812156159 10.307373633241893 0 0 0
3639 1 1 0 14.90553316066419 13.76444482839868 10.315255189033204 0 0 0
3640 1 1 0 14.743958397932595 13.74952252017176 10.330159223871702 0 0 0
3641 1 1 0 14.587110514739598 13.728057037716153 10.351611779911686 0 0 0
3642 1 1 0 14.429541307582518 13.705462181954715 10.374164746403522 0 0 0
3643 1 1 0 14.254563084467192 13.688150349313123 10.391496198578206 0 0 0
3607 1 1 0 17.199338747847243 13.759634706240513 10.647534839927877 -1 0 0
3608 1 1 0 0.00012589602582124826 13.760002246962847 10.811276856598235 0 0 0
2743 1 1 0 17.19970916720738 13.760012591370407 9.828469583187303 -1 0 0
2744 1 1 0 17.199506523368274 13.759906519431363 9.992184375937143 -1 0 0
3626 1 1 0 17.035945710230422 13.759572308109846 10.320361545404758 0 0 0
3627 1 1 0 16.872141440412708 13.759272006133317 10.320139977528276 0 0 0
3628 1 1 0 16.708381663960292 13.759709217739722 10.319793424370712 0 0 0
3629 1 1 0 16.54453499657567 13.760110318743514 10.319483612526078 0 0 0
3630 1 1 0 16.38075677449528 13.760780439875818 10.318846912482117 0 0 0
3631 1 1 0 16.216909003952892 13.760439638591182 10.319252839095979 0 0 0
3632 1 1 0 16.053317290112428 13.758391442206104 10.321275033779862 0 0 0
3633 1 1 0 15.889139882701508 13.756738592461444 10.322988925848588 0 0 0
3634 1 1 0 15.725714560670262 13.757289868214244 10.322385740536532 0 0 0
2875 1 1 0 3.4332331294340483 15.561220535064248 10.326548909506757 0 0 0
2876 1 1 0 3.4335305368306495 15.3983269476231 10.3263017416413 0 0 0
2877 1 1 0 3.431837325293212 15.234461269593814 10.327933951760656 0 0 0
2878 1 1 0 3.4306801457623743 15.069928741196888 10.329126530514277 0 0 0
2879 1 1 0 3.436575049345024 14.90562233336687 10.323208973245757 0 0 0
2880 1 1 0 3.4489663892156757 14.744157035604742 10.310863236900342 0 0 0
2881 1 1 0 3.4691084184940677 14.586404399419516 10.290730496917204 0 0 0
2882 1 1 0 3.4923998128419615 14.428353178173362 10.267482618216267 0 0 0
2883 1 1 0 3.5094153205845635 14.254838704172029 10.25046725984015 0 0 0
2935 1 1 0 6.8853299932664 15.561380443717388 10.320572296913646 0 0 0
2936 1 1 0 6.886766812458691 15.39810623051858 10.325901586394023 0 0 0
2937 1 1 0 6.889673401981885 15.234666178307828 10.331006001352746 0 0 0
2938 1 1 0 6.890087994900527 15.070172177729871 10.33235647134222 0 0 0
2939 1 1 0 6.883473551155281 14.905559016163528 10.324425783763354 0 0 0
2940 1 1 0 6.869718505688061 14.744111315687807 10.309602286493377 0 0 0
2941 1 1 0 6.84923703588163 14.587155652893607 10.288092481307059 0 0 0
2942 1 1 0 6.825488663570942 14.429290412189328 10.265496029434761 0 0 0
2943 1 1 0 6.8086870574549225 14.254541628325972 10.248174537815833 0 0 0
3015 1 1 0 13.760625970106922 15.561604706051826 10.319062366843198 0 0 0
3016 1 1 0 13.765886637430103 15.397917938218384 10.313829005427058 0 0 0
3017 1 1 0 13.771011592910835 15.234536470794735 10.30869978663635 0 0 0
3018 1 1 0 13.772318824847146 15.07025211640721 10.30741121296924 0 0 0
3019 1 1 0 13.76444349721609 14.90545854081313 10.315277830252283 0 0 0
3020 1 1 0 13.749540989063883 14.743875746771726 10.33016950633692 0 0 0
3021 1 1 0 13.728109377464957 14.587077009788016 10.35160496338957 0 0 0
3022 1 1 0 13.705527098138347 14.429485315822268 10.37417033685298 0 0 0
3023 1 1 0 13.688210269513005 14.254594089902877 10.391441687647355 0 0 0
2826 1 1 0 0.1637917653914875 0.0003716293893134548 10.319593757235168 0 0 0
2829 1 1 0 0.6551803807328552 17.199438382789523 10.32020946577628 0 -1 0
2830 1 1 0 0.8189510285575794 17.198815698546465 10.3208138623777 0 -1 0
2831 1 1 0 0.9828119629726304 17.199171768905263 10.320416658934343 0 -1 0
2835 1 1 0 1.6381182932137552 17.198911256426754 10.320621859554384 0 -1 0
2839 1 1 0 2.2942319522319186 17.1951228829921 10.324486326028529 0 -1 0
2836 1 1 0 1.8017789798640635 17.19363787804318 10.325905291960286 0 -1 0
2837 1 1 0 1.9651947704159929 17.188525207316598 10.331053099769722 0 -1 0
2838 1 1 0 2.1294345844145233 17.187229756007692 10.332361542193564 0 -1 0
77 1 2 0 3.440577835056318 0.0007471871593267565 10.319152031409901 0 0 0
2866 1 1 0 3.4761928745116903 17.111243520216007 10.283528196089422 0 0 0
2867 1 1 0 3.5114154566956155 16.910015262508196 10.248464036260053 0 0 0
2868 1 1 0 3.5113841467442404 16.70502519742611 10.24837631622785 0 0 0
2869 1 1 0 3.4942239533622415 16.53036694774997 10.265541498544186 0 0 0
2870 1 1 0 3.470623929129722 16.37250439672093 10.28916296977861 0 0 0
2871 1 1 0 3.4497766466909323 16.215131447414677 10.30999644943743 0 0 0
2872 1 1 0 3.436418747166876 16.05397088540581 10.323397226256057 0 0 0
2873 1 1 0 3.430423414251323 15.889664254471999 10.329374201511968 0 0 0
2874 1 1 0 3.431203814861254 15.725060020051327 10.328630060866379 0 0 0
2926 1 1 0 6.851187661297736 17.04747264352741 10.319763967113458 0 0 0
2927 1 1 0 6.8356821819616504 16.876989892678132 10.31948931941585 0 0 0
2928 1 1 0 6.83595595617143 16.706687700253436 10.320110644498643 0 0 0
2929 1 1 0 6.845233432398548 16.541014822710174 10.320162246137734 0 0 0
2930 1 1 0 6.859808062855398 16.37879189929915 10.3209813600579 0 0 0
2931 1 1 0 6.872895276382583 16.21637752502228 10.320342657597212 0 0 0
2932 1 1 0 6.880409735688954 16.05342857863991 10.318545228464993 0 0 0
2933 1 1 0 6.8847573111589 15.889307929877187 10.316634297535087 0 0 0
2934 1 1 0 6.885024404071306 15.725391157797608 10.317385629157487 0 0 0
2894 1 1 0 8.35427471117164 17.19076662549669 10.319903033823568 0 -1 0
2892 1 1 0 8.026133949990871 17.196924586921387 10.319906981030979 0 -1 0
2893 1 1 0 8.19058675564352 17.189205401700743 10.319862242214295 0 -1 0
2895 1 1 0 8.51793635328337 17.19574800997538 10.31986070173537 0 -1 0
2900 1 1 0 9.336638135823398 17.192324143599123 10.319897096740823 0 -1 0
2101 1 1 0 10.349026182199463 17.16957508475676 9.493161853039332 0 -1 0
2102 1 1 0 10.372535189002985 17.147235353789046 9.651173546742957 0 -1 0
2104 1 1 0 10.389682821814919 17.130549174378704 10.026689442974972 0 -1 0
2105 1 1 0 10.357370723832142 17.162541097675092 10.224915044189407 0 -1 0
2902 1 1 0 9.661068606191 17.164950522942487 10.319868804593828 0 -1 0
2904 1 1 0 9.99718331901741 17.156217079417917 10.31987365732693 0 -1 0
2966 1 1 0 10.35694714919907 17.162128118223315 10.414724843596604 0 -1 0
2968 1 1 0 10.389478872886164 17.130460585049157 10.815016168306835 0 -1 0
79 1 2 0 10.320070821049809 17.199622985712594 10.31983019029189 0 -1 0
2103 1 1 0 10.389156136674787 17.13013286668004 9.824784024909816 0 -1 0
2901 1 1 0 9.498820538212696 17.17756350556529 10.319861470830405 0 -1 0
2903 1 1 0 9.82674346979496 17.155518464313033 10.319820229999376 0 -1 0
2905 1 1 0 10.167469167766779 17.171696479717504 10.319880589354668 0 -1 0
2967 1 1 0 10.389288802515924 17.1301428796997 10.613089041266239 0 -1 0
3006 1 1 0 13.75957080252444 17.035989153876965 10.320259436922237 0 0 0
3007 1 1 0 13.759518289550876 16.872179235780465 10.3201574909609 0 0 0
3008 1 1 0 13.759833856831 16.708374301757402 10.319879058080359 0 0 0
3009 1 1 0 13.76019323717066 16.544517767896096 10.31950953211485 0 0 0
3010 1 1 0 13.760829276633853 16.38077609657372 10.318883652323022 0 0 0
3011 1 1 0 13.76044546579901 16.216902105368256 10.31926251641259 0 0 0
3012 1 1 0 13.75840698655789 16.05325450403499 10.321299540469324 0 0 0
3013 1 1 0 13.756759302008497 15.889090533606796 10.322942072824372 0 0 0
3014 1 1 0 13.757306298169548 15.72569507109773 10.322390846367034 0 0 0
2849 1 1 0 3.49439904676915 0.054328678050053085 10.989413103659574 0 0 0
2850 1 1 0 3.4706123412299803 0.031742683713725676 11.147291739044872 0 0 0
2851 1 1 0 3.4501395455033026 0.010228773940731817 11.30416558956526 0 0 0
2857 1 1 0 3.4348392196469746 0.0024422465742962142 12.2855547966729 0 0 0
2858 1 1 0 3.435071336455976 0.003225434476698085 12.449447586877312 0 0 0
2910 1 1 0 6.850745857191676 0.03135166045644341 11.146409822644708 0 0 0
2911 1 1 0 6.8708999691169454 0.009940720809325582 11.30363444421904 0 0 0
2917 1 1 0 6.888671284649266 0.013589954189385895 12.285064221752798 0 0 0
2909 1 1 0 6.827545343290291 0.05271229847181335 10.988730977402009 0 0 0
2916 1 1 0 6.886563892654933 0.00548060065495162 12.121576606472548 0 0 0
2918 1 1 0 6.8893803903654325 0.015546702794109865 12.44922644683169 0 0 0
2972 1 1 0 10.315142729460447 0.0036549517146690427 11.465535347928181 0 0 0
2974 1 1 0 10.309302743683999 0.009170633884618468 11.794573164746811 0 0 0
2975 1 1 0 10.314171819471357 0.006483560301415642 11.958156545017815 0 0 0
2977 1 1 0 10.322311866638385 0.00516991258301918 12.28550354365434 0 0 0
2978 1 1 0 10.322916846057474 0.005148004727549226 12.449482001598478 0 0 0
2973 1 1 0 10.30735088289304 0.010119496513029867 11.630360766059088 0 0 0
2976 1 1 0 10.319262117720315 0.005385253763705987 12.121543553353451 0 0 0
2989 1 1 0 13.759812063584032 0.06542868826739322 10.98515411355793 0 0 0
2990 1 1 0 13.759817033796521 0.03630326433807613 11.144582290771282 0 0 0
2991 1 1 0 13.759796996075725 0.011517489654449759 11.303493233731748 0 0 0
3052 1 1 0 0.007405085378520776 3.438882841810732 11.465700986952925 0 0 0
3053 1 1 0 0.018473613776557936 3.4369194932360125 11.630850098143059 0 0 0
3055 1 1 0 0.006291869129273995 3.4405305269369912 11.957927295928078 0 0 0
3054 1 1 0 0.015586693022034718 3.437500003581816 11.794358147356336 0 0 0
3089 1 1 0 3.4399954342944508 3.4399282908052085 10.975017680605974 0 0 0
3090 1 1 0 3.4399840140987044 3.4399980553916008 11.138865580899006 0 0 0
3091 1 1 0 3.4399619109269697 3.4400082039533895 11.30272439110339 0 0 0
3092 1 1 0 3.4399589511810453 3.4399764339235968 11.466510200382181 0 0 0
3093 1 1 0 3.439961340260573 3.439962014780357 11.630276132805339 0 0 0
3094 1 1 0 3.4399843205480765 3.4399433489738973 11.794068097321652 0 0 0
3095 1 1 0 3.439992064806631 3.4399291906744094 11.957875719953494 0 0 0
3096 1 1 0 3.439978207419219 3.4399247216619138 12.121744421922038 0 0 0
3097 1 1 0 3.439968740989448 3.4399061486805995 12.285535065413105 0 0 0
3098 1 1 0 3.439961579052501 3.43990755832997 12.449389844648268 0 0 0
3149 1 1 0 6.8799136908524865 3.405143569242161 10.978609745820698 0 0 0
3150 1 1 0 6.879917796882821 3.418861850559166 11.140920546140151 0 0 0
3151 1 1 0 6.879926454433488 3.4325642748475316 11.303127691882551 0 0 0
3152 1 1 0 6.87992783948324 3.4418461303683245 11.466225222632637 0 0 0
3153 1 1 0 6.8799407627083555 3.4480859109294304 11.630451484497456 0 0 0
3154 1 1 0 6.879948302111702 3.4475183574758 11.7942055528205 0 0 0
3155 1 1 0 6.879942412313351 3.444706278325621 11.958051184052406 0 0 0
3156 1 1 0 6.879940472218688 3.44070940145155 12.121712468247598 0 0 0
3157 1 1 0 6.879913163934343 3.4385329694166313 12.285462757191162 0 0 0
3158 1 1 0 6.879929983236772 3.43759626201791 12.449398871571956 0 0 0
3209 1 1 0 13.760021271123136 3.374804824569187 10.985162062179803 0 0 0
3210 1 1 0 13.760906320953964 3.4036701466529187 11.144411255174678 0 0 0
3211 1 1 0 13.76027278057211 3.428869760614743 11.303546035246232 0 0 0
3212 1 1 0 13.75848195950918 3.444913707757618 11.465694211308007 0 0 0
3213 1 1 0 13.756596545962218 3.4521009574325454 11.630186362870042 0 0 0
3214 1 1 0 13.757348336236076 3.4506070497304657 11.794374141294377 0 0 0
3215 1 1 0 13.760545875740322 3.4475539414316176 11.958271722212851 0 0 0
3216 1 1 0 13.765863516675008 3.446675542544318 12.121357758271474 0 0 0
3217 1 1 0 13.77096317035705 3.4479296499784806 12.285041167314931 0 0 0
3218 1 1 0 13.772283475362475 3.448943589651918 12.449568371955515 0 0 0
3049 1 1 0 17.1344810542507 3.440058355541236 10.985545003491534 -1 0 0
3050 1 1 0 17.16136590675296 3.441038356474518 11.144516627408048 -1 0 0
3056 1 1 0 17.194652538731322 3.4456227257710506 12.121801341961193 -1 0 0
3051 1 1 0 17.187885802060364 3.440322825650682 11.302972589903037 -1 0 0
3057 1 1 0 17.185943230987174 3.4504754954369825 12.285266011527968 -1 0 0
3058 1 1 0 17.18362484435404 3.452411288462576 12.448693997513711 -1 0 0
3250 1 1 0 0.03129742722580797 6.849624285375914 11.14633427179648 0 0 0
3257 1 1 0 0.010025673118938894 6.877453804763462 12.28566395922386 0 0 0
3258 1 1 0 0.011167305882101184 6.876850055608931 12.448876525206495 0 0 0
3249 1 1 0 0.05232653476647189 6.827418358922319 10.988859418136077 0 0 0
3251 1 1 0 0.009530450495606498 6.870354979591858 11.303380335038723 0 0 0
3256 1 1 0 0.0041457320680960835 6.880475707883106 12.121751837904666 0 0 0
3309 1 1 0 3.374713480346103 6.880019397910307 10.985243914994811 0 0 0
3310 1 1 0 3.402621398015261 6.878867568875509 11.144482237115518 0 0 0
3311 1 1 0 3.4284098133949508 6.879898009665438 11.303172178566829 0 0 0
3312 1 1 0 3.4462405141522368 6.880918389405457 11.465848441788044 0 0 0
3313 1 1 0 3.4553422625729913 6.88226736880955 11.630350816403393 0 0 0
3314 1 1 0 3.4530531898895167 6.8812654873043675 11.794470404359817 0 0 0
3315 1 1 0 3.4468299368135384 6.879111034927652 11.9579753214219 0 0 0
3316 1 1 0 3.4405775321495335 6.8751311889637865 12.121580173004466 0 0 0
3317 1 1 0 3.436730386532622 6.8723081474662315 12.28548191905458 0 0 0
3318 1 1 0 3.4363492962964153 6.8717376241573325 12.4491005951491 0 0 0
3389 1 1 0 13.759832421764465 6.914739023306838 10.978554971986473 0 0 0
3390 1 1 0 13.758781292687564 6.901014588517004 11.140944269925797 0 0 0
3391 1 1 0 13.759804398783984 6.887261983898292 11.303162622410847 0 0 0
3392 1 1 0 13.760821438536505 6.878032715870378 11.46623363008026 0 0 0
3393 1 1 0 13.762195156132963 6.8717034595677955 11.630357940712036 0 0 0
3394 1 1 0 13.76119239499132 6.872293445584568 11.794232096401345 0 0 0
3395 1 1 0 13.759037167616173 6.87511327556337 11.957947915906129 0 0 0
3396 1 1 0 13.75507726113474 6.879108209032335 12.121601292343051 0 0 0
3397 1 1 0 13.752254462578051 6.881261723871021 12.285436014484814 0 0 0
3398 1 1 0 13.75168918576742 6.882270644999937 12.449281585477962 0 0 0
3252 1 1 0 17.194049123737177 6.88453272606067 11.465667453748592 -1 0 0
3254 1 1 0 17.187832607129334 6.890402437532135 11.794560962610865 -1 0 0
3253 1 1 0 17.184929069442525 6.892352746651538 11.630567758878197 -1 0 0
3255 1 1 0 17.194844334991433 6.885576703540934 11.957934015276146 -1 0 0
3469 1 1 0 3.492552427236378 10.267369224050533 10.988688608323018 0 0 0
3470 1 1 0 3.4712483141513655 10.290679247378453 11.14644672305486 0 0 0
3471 1 1 0 3.4497781985913307 10.310716640695784 11.303676316726563 0 0 0
3472 1 1 0 3.4341604843307993 10.323422355152886 11.465477228526579 0 0 0
3473 1 1 0 3.424413640557979 10.329294218914605 11.630601748465262 0 0 0
3474 1 1 0 3.4269405186374042 10.327918571180655 11.794499379615095 0 0 0
3475 1 1 0 3.434826404598902 10.326127834914502 11.958031416564374 0 0 0
3476 1 1 0 3.445021191479137 10.326122108414909 12.121516612674922 0 0 0
3477 1 1 0 3.4529151922303334 10.327973315728999 12.285121498506616 0 0 0
3478 1 1 0 3.45543201821418 10.32933365241083 12.449010372215483 0 0 0
3489 1 1 0 6.87994128113434 10.385084043974652 10.985330031326747 0 0 0
3490 1 1 0 6.878820195358774 10.357174457994812 11.144535019583625 0 0 0
3491 1 1 0 6.879845664945667 10.331375417293886 11.303271482940588 0 0 0
3492 1 1 0 6.880911794467802 10.313546217759692 11.465888514798895 0 0 0
3493 1 1 0 6.882231315134182 10.304454751308672 11.63034928155027 0 0 0
3494 1 1 0 6.881272235608831 10.306734553764672 11.794457371821652 0 0 0
3495 1 1 0 6.879071912011132 10.312983334077106 11.958004201578522 0 0 0
3496 1 1 0 6.875130611559449 10.319226383879554 12.121657231208344 0 0 0
3497 1 1 0 6.872264266390344 10.323102993973082 12.285584993998766 0 0 0
3498 1 1 0 6.871737600882469 10.323469457301215 12.449079402563548 0 0 0
3549 1 1 0 10.285016206948544 10.319841966461329 10.978675228432747 0 0 0
3550 1 1 0 10.29872862211543 10.319837521193264 11.140977140047744 0 0 0
3551 1 1 0 10.312435544813694 10.319844234829825 11.303144326604473 0 0 0
3552 1 1 0 10.321714268465103 10.319847191597855 11.46617471524086 0 0 0
3553 1 1 0 10.327971209958804 10.319873371268342 11.630403075079853 0 0 0
3554 1 1 0 10.327419398891559 10.31988082560056 11.794182905994521 0 0 0
3555 1 1 0 10.324629789015024 10.319879869469077 11.957981224403444 0 0 0
3556 1 1 0 10.320654996262583 10.319877858581872 12.121753469197214 0 0 0
3557 1 1 0 10.318464739410901 10.319857821529542 12.285538422242306 0 0 0
3558 1 1 0 10.317494416055995 10.319849980240077 12.449376164957838 0 0 0
3569 1 1 0 13.759836535755314 10.319521829837617 10.97511092866106 0 0 0
3570 1 1 0 13.759826726664121 10.318727118839778 11.13881912983963 0 0 0
3571 1 1 0 13.759859513400302 10.319101592748394 11.302658509378634 0 0 0
3572 1 1 0 13.75982444946069 10.321191809129017 11.466439220135392 0 0 0
3573 1 1 0 13.759829387787912 10.323245674674455 11.630447441939602 0 0 0
3574 1 1 0 13.75978569398728 10.32315518089327 11.793987714802162 0 0 0
3575 1 1 0 13.759794239576713 10.319137960303362 11.957911576198367 0 0 0
3576 1 1 0 13.759754577742502 10.31301598888471 12.121661929698533 0 0 0
3577 1 1 0 13.759782501301672 10.306727328030535 12.285219651638558 0 0 0
3578 1 1 0 13.75975537298678 10.304517029936951 12.449287012532707 0 0 0
3616 1 1 0 0.0060711526207101185 13.7658866831286 12.121595199730523 0 0 0
3609 1 1 0 0.0004035893728603523 13.760263465838534 10.975145055136387 0 0 0
3610 1 1 0 0.0009888826184450792 13.760806480153294 11.138895043806844 0 0 0
3611 1 1 0 0.0005703547806964836 13.760375337243245 11.302697409441633 0 0 0
3615 1 1 0 0.0007514924686001844 13.760618056713902 11.95800017738044 0 0 0
3617 1 1 0 0.011181310891874593 13.771012932036905 12.284970769064575 0 0 0
3618 1 1 0 0.012515540283988442 13.772308190884875 12.44930530405181 0 0 0
3649 1 1 0 3.4748108321025524 13.759840512820677 10.978527505630865 0 0 0
3650 1 1 0 3.4600690795805864 13.75984753551706 11.140955013084525 0 0 0
3651 1 1 0 3.4473410396998694 13.759803107084196 11.303133042202742 0 0 0
3652 1 1 0 3.4391490485498 13.759826052797935 11.466205326081933 0 0 0
3653 1 1 0 3.434202861440642 13.759794861943318 11.630243873322243 0 0 0
3654 1 1 0 3.4337755860539962 13.759813342573125 11.794301176425302 0 0 0
3655 1 1 0 3.4344538547817463 13.759802501596301 11.958096183854272 0 0 0
3656 1 1 0 3.4344525130410544 13.759818968636102 12.12148500819951 0 0 0
3657 1 1 0 3.4337779544652363 13.759804949304256 12.285406460369375 0 0 0
3658 1 1 0 3.434220806393064 13.759823334970502 12.449471460925995 0 0 0
3689 1 1 0 6.825774306972803 13.705322664437944 10.989498041961339 0 0 0
3690 1 1 0 6.849255948006142 13.726943558347942 11.147073486366965 0 0 0
3691 1 1 0 6.870131150952814 13.74910040753962 11.303976600639496 0 0 0
3692 1 1 0 6.883199341742433 13.765727353686772 11.46539723721608 0 0 0
3693 1 1 0 6.889243982587716 13.775554503152692 11.630539113327645 0 0 0
3694 1 1 0 6.888656130936092 13.773460052527849 11.794484690306643 0 0 0
3695 1 1 0 6.886730681442395 13.765177956996567 11.958145475134831 0 0 0
3696 1 1 0 6.886729249267122 13.754458802635817 12.121521111418732 0 0 0
3697 1 1 0 6.888654658418809 13.746156020512682 12.285165720140455 0 0 0
3698 1 1 0 6.889239251386454 13.74406838915617 12.449014476924075 0 0 0
3709 1 1 0 10.372414591889441 13.812470144618638 10.988543235621613 0 0 0
3710 1 1 0 10.350093047454457 13.788947291172478 11.146508045794366 0 0 0
3711 1 1 0 10.329341084954693 13.769258197834896 11.303798203915134 0 0 0
3712 1 1 0 10.315192261953982 13.756129396899006 11.465566737575156 0 0 0
3713 1 1 0 10.307376833523838 13.749707900905316 11.630386303232134 0 0 0
3714 1 1 0 10.309328490663969 13.750654780737776 11.794654083197596 0 0 0
3715 1 1 0 10.314148492357944 13.753387258514735 11.958141661941234 0 0 0
3716 1 1 0 10.319252340991826 13.754464183670589 12.121463187289045 0 0 0
3717 1 1 0 10.322264238195642 13.754695069573199 12.285381591422706 0 0 0
3718 1 1 0 10.322892833432318 13.754696590475088 12.449381530760498 0 0 0
3612 1 1 0 17.198290839718354 13.75835034604197 11.46634167925066 -1 0 0
3613 1 1 0 17.196592951345615 13.756692721091271 11.630556443351487 -1 0 0
3614 1 1 0 17.19721671142803 13.757307123785676 11.793940397888319 -1 0 0
2853 1 1 0 3.4297625170867105 17.187231482563202 11.630152452476056 0 -1 0
2854 1 1 0 3.430138281848902 17.18858232725648 11.794639334149958 0 -1 0
2852 1 1 0 3.4363448790823448 17.195179422272915 11.465500515557952 0 -1 0
2855 1 1 0 3.433084385926785 17.19366706330376 11.95811858529048 0 -1 0
2856 1 1 0 3.434488995524519 17.199026053433993 12.121467634763627 0 -1 0
2913 1 1 0 6.889214208985744 17.18402701510719 11.6306885486735 0 -1 0
2912 1 1 0 6.883263498227082 17.1937615313054 11.46540307631049 0 -1 0
2914 1 1 0 6.887995684897735 17.18674258006127 11.794422428692423 0 -1 0
2915 1 1 0 6.886357003029142 17.19475494653642 11.95818123135086 0 -1 0
2971 1 1 0 10.329295396855079 17.190301383218287 11.303850792387333 0 -1 0
2969 1 1 0 10.372383287856364 17.147089505966008 10.988586199578405 0 -1 0
2970 1 1 0 10.350043578592345 17.170601303296667 11.146590237299717 0 -1 0
2992 1 1 0 13.759798378033922 17.194505741170317 11.465732480915433 0 -1 0
2993 1 1 0 13.75977299812076 17.186769325971255 11.63023164598161 0 -1 0
2996 1 1 0 13.759766996257117 17.194389606865307 12.121520380692422 0 -1 0
2998 1 1 0 13.759790006339683 17.195221272224057 12.449509865228825 0 -1 0
2994 1 1 0 13.759773798450679 17.188045328244986 11.794479933839183 0 -1 0
2995 1 1 0 13.759763878503536 17.192143079875308 11.958100375493062 0 -1 0
2997 1 1 0 13.75976646383239 17.195440559930116 12.285407607838751 0 -1 0
3726 1 1 0 0.10741770491044686 0.050557900083945576 13.75976126904271 0 0 0
3728 1 1 0 0.4935736292297972 0.08664688331269403 13.759459412022416 0 0 0
3731 1 1 0 0.9833469977090348 0.011572277803714979 13.759776834930689 0 0 0
3727 1 1 0 0.29974264337602374 0.08716092602695955 13.760338623108924 0 0 0
3729 1 1 0 0.6654452468106214 0.06528971992747584 13.759893371855227 0 0 0
3730 1 1 0 0.8246776316384821 0.03735876872382353 13.758737647991225 0 0 0
3739 1 1 0 2.2937494695210345 0.0012366269539264931 13.75802953480568 0 0 0
3736 1 1 0 1.8017936264010719 17.19913052948636 13.755042591345111 0 -1 0
3737 1 1 0 1.96572165261859 0.00323361893215601 13.752240090762408 0 0 0
3738 1 1 0 2.129319617613027 0.003594687523409432 13.751679438273914 0 0 0
3743 1 1 0 2.946915797690201 17.199627726839136 13.803815059231436 0 -1 0
3744 1 1 0 3.1172931427131876 0.0005766679294847842 13.803577932337173 0 0 0
2859 1 1 0 3.4394494493012937 0.0013243752280118403 12.613456314322855 0 0 0
2864 1 1 0 3.4840172706039696 0.000567730277256501 13.437135708765375 0 0 0
3786 1 1 0 3.4770893426180853 0.09495948257044676 13.797089678288357 0 0 0
3787 1 1 0 3.509199900941745 0.2931537667462929 13.829581501676975 0 0 0
3788 1 1 0 3.5095499551508853 0.4950859773268056 13.829251662918935 0 0 0
3789 1 1 0 3.4924928106901256 0.6686188964833959 13.812164447154501 0 0 0
3790 1 1 0 3.470176294028844 0.8264661499149697 13.788789412989754 0 0 0
3791 1 1 0 3.4494272028657336 0.9840399549479126 13.768755294532152 0 0 0
3792 1 1 0 3.435231101605938 1.1458237684356318 13.756348701765603 0 0 0
3793 1 1 0 3.4274636529570732 1.3104517968170706 13.750930277614142 0 0 0
3794 1 1 0 3.4293652238836962 1.474703057592699 13.75247836997165 0 0 0
2863 1 1 0 3.4838253547359304 17.19957916213717 13.266803675406415 0 -1 0
103 1 2 0 6.879545453788284 17.198967887243832 13.760447007983467 0 -1 0
2919 1 1 0 6.883424835323824 0.005649442954339613 12.614253380962884 0 0 0
3846 1 1 0 6.843829987908847 0.0886878793569954 13.796022952563169 0 0 0
3847 1 1 0 6.808961051691707 0.28958204057665304 13.830663487813139 0 0 0
3848 1 1 0 6.8083234769597745 0.49466288136240577 13.831456826344235 0 0 0
3849 1 1 0 6.825595551032278 0.6696494988650952 13.814126206978258 0 0 0
3850 1 1 0 6.848132487657735 0.8272563021988116 13.791564828732776 0 0 0
3851 1 1 0 6.869614843554153 0.9841286318219312 13.770058842760873 0 0 0
3852 1 1 0 6.8844795980259885 1.1457706393034583 13.755182609028365 0 0 0
3853 1 1 0 6.8923819590951885 1.3105862288898227 13.747259271398637 0 0 0
3854 1 1 0 6.8910776808932175 1.474798254749967 13.748575574241157 0 0 0
3832 1 1 0 8.025610881599965 0.00347570445673967 13.756238176602952 0 0 0
3835 1 1 0 8.518548424591126 0.006664330797228766 13.75311303741107 0 0 0
3836 1 1 0 8.681320026064249 0.00642751951902189 13.75337775976714 0 0 0
3839 1 1 0 9.174061793567274 0.0033562406927757273 13.756453603075922 0 0 0
3833 1 1 0 8.189964197443835 0.009475698116749323 13.75027050893501 0 0 0
3834 1 1 0 8.354697018380431 0.008709288831658193 13.751045609744097 0 0 0
3837 1 1 0 8.8451057711738 0.008063934322343225 13.751746830615987 0 0 0
3838 1 1 0 9.009638192272154 0.009279559530299011 13.75053622293512 0 0 0
104 1 2 0 10.319387427686495 17.1996188514298 13.759893918634704 0 -1 0
2979 1 1 0 10.320958998792138 0.0007943428598796759 12.613462493095875 0 0 0
3886 1 1 0 10.319705090059546 0.15238651841495918 13.787984544604399 0 0 0
3887 1 1 0 10.319977056185664 0.32271413895560613 13.803140471161166 0 0 0
3888 1 1 0 10.319769664370071 0.49316727650735254 13.803881008787094 0 0 0
3889 1 1 0 10.319811868522054 0.65886915109365 13.79485891311638 0 0 0
3890 1 1 0 10.319854366806897 0.8211622143033865 13.7821609320174 0 0 0
3891 1 1 0 10.319836700931 0.9832234420844633 13.767755618199335 0 0 0
3892 1 1 0 10.319853136875707 1.1460496405236746 13.756750959328208 0 0 0
3893 1 1 0 10.319851981875265 1.3110273839982467 13.7480577757152 0 0 0
3894 1 1 0 10.31985549212389 1.4741534693356069 13.748998827787387 0 0 0
3872 1 1 0 11.465477583094644 0.005824314710204488 13.756223991692643 0 0 0
3875 1 1 0 11.95803531989341 0.005103807480058076 13.753558842050731 0 0 0
3873 1 1 0 11.630569990110313 0.015541836622570512 13.750369240143806 0 0 0
3874 1 1 0 11.794425277835732 0.013028513388298147 13.751729659351087 0 0 0
105 1 2 0 13.75962217247353 0.0002207494580006269 13.759895461578632 0 0 0
3000 1 1 0 13.759803863496204 0.006895072551146677 12.776354235441971 0 0 0
3001 1 1 0 13.759802001384891 0.019980332052397798 12.93879362828929 0 0 0
3002 1 1 0 13.759796924383332 0.03467188690053691 13.101134907698103 0 0 0
3003 1 1 0 13.759751179425795 0.04405922951305173 13.266779325382002 0 0 0
3005 1 1 0 13.759774220621855 0.02879105831209048 13.607522361447495 0 0 0
3881 1 1 0 12.933251660858424 0.03132621857150424 13.788985967767875 0 0 0
3883 1 1 0 13.264810381724216 0.06986689183746742 13.829204207814112 0 0 0
3884 1 1 0 13.466627905315814 0.06896962093444654 13.82946697769986 0 0 0
3004 1 1 0 13.759855966753864 0.04406569552833831 13.437124374750363 0 0 0
3765 1 1 0 13.854646696101382 0.037519782788537986 13.796980822452351 0 0 0
3880 1 1 0 12.775997797503251 0.00986010670433342 13.768979534329146 0 0 0
3882 1 1 0 13.090971158477018 0.052639466356915174 13.812249989140243 0 0 0
3885 1 1 0 13.66476987265695 0.037058338676072444 13.797221153355784 0 0 0
3764 1 1 0 14.052960089687218 0.06983927691047102 13.828991830772255 0 0 0
3761 1 1 0 14.58633976475218 0.029003620234227315 13.790067291279168 0 0 0
3762 1 1 0 14.42845234380734 0.05239164707432397 13.812381674312643 0 0 0
3760 1 1 0 14.74391099474371 0.008938194793813187 13.769307835800468 0 0 0
3763 1 1 0 14.254896435429634 0.06951576624584453 13.829449895222236 0 0 0
101 1 2 0 0.000256098875720312 17.19919388957065 13.759300657508717 0 -1 0
3746 1 1 0 17.09237269568706 0.050641450464146434 13.759606835847174 0 0 0
3748 1 1 0 16.706116836490974 0.08641966071433593 13.759563634370618 0 0 0
3751 1 1 0 16.21604858757331 0.011164653492418528 13.75941762263551 0 0 0
3747 1 1 0 16.900002771100876 0.08748801612897315 13.760449031786255 0 0 0
3749 1 1 0 16.53450839396402 0.06522237022475956 13.759683215428934 0 0 0
3750 1 1 0 16.375197241042116 0.03629515462101511 13.758718495956188 0 0 0
3795 1 1 0 3.4342353056510415 1.6383984904021869 13.753513204781889 0 0 0
3796 1 1 0 3.43927896844255 1.801563280813588 13.752330368615702 0 0 0
3797 1 1 0 3.442346967783844 1.9653492365618204 13.749172439416148 0 0 0
3798 1 1 0 3.4429204956108634 2.129532534062106 13.747474586861781 0 0 0
3799 1 1 0 3.441013275096629 2.293964368195579 13.754638808711645 0 0 0
3800 1 1 0 3.4395686187590813 2.4562054335481145 13.770992156009243 0 0 0
3801 1 1 0 3.438880091997786 2.6153762567808685 13.796137714245685 0 0 0
3802 1 1 0 3.439838657136207 2.774708808165369 13.825028319688869 0 0 0
3803 1 1 0 3.4397439553344076 2.946317976455984 13.84620772081609 0 0 0
3855 1 1 0 6.8859674023409685 1.6381452390106017 13.753700624862583 0 0 0
3856 1 1 0 6.880696500089642 1.8018171108942038 13.759008960929583 0 0 0
3857 1 1 0 6.877400514080296 1.9658325775322998 13.762315671348759 0 0 0
3858 1 1 0 6.87674397425405 2.1292400193568444 13.7629698925507 0 0 0
3859 1 1 0 6.878441191454468 2.293449190348526 13.761279286234235 0 0 0
3860 1 1 0 6.8804490841268375 2.45703998830826 13.7592573949669 0 0 0
3861 1 1 0 6.880917630593832 2.6209406541714806 13.758851120972306 0 0 0
3862 1 1 0 6.880380994586703 2.7847662533064885 13.759433366720419 0 0 0
3863 1 1 0 6.880112179576498 2.948616680349488 13.759761734349693 0 0 0
3864 1 1 0 6.879847449705374 3.1123914243197794 13.760036540723961 0 0 0
3895 1 1 0 10.31984308369454 1.638060051513768 13.755670957075786 0 0 0
3896 1 1 0 10.319844421200772 1.8019004967515542 13.765954231296464 0 0 0
3897 1 1 0 10.319831469503184 1.9652912542904535 13.774324232835722 0 0 0
3898 1 1 0 10.319829375394885 2.129303866004569 13.77764411921306 0 0 0
3899 1 1 0 10.319828756346805 2.2938056419713284 13.76716695882585 0 0 0
3900 1 1 0 10.31982915858269 2.4569755279373044 13.748263427841135 0 0 0
3901 1 1 0 10.319831284129782 2.615459693820608 13.721395473855592 0 0 0
3902 1 1 0 10.319847086299886 2.774361399928662 13.694710496298649 0 0 0
3903 1 1 0 10.319878316435164 2.9463824703555583 13.672838184324993 0 0 0
106 1 2 0 0.00023865006490504713 3.4397339472931447 13.759575086610937 0 0 0
465 1 1 0 0.03773808668369729 3.402790359084936 13.854744193296082 0 0 0
3060 1 1 0 0.010007466794160837 3.4304335053728394 12.776247916466687 0 0 0
3062 1 1 0 0.05267711454431408 3.387439359522656 13.090741002157065 0 0 0
3063 1 1 0 0.06983501462903446 3.3703041379223775 13.264764104392905 0 0 0
3064 1 1 0 0.0687910424152022 3.3705636542916833 13.466600108448265 0 0 0
3929 1 1 0 0.0349699639619055 4.09877556883975 13.759658983959815 0 0 0
3930 1 1 0 0.022183050013335488 4.26098741960419 13.758745112543338 0 0 0
3061 1 1 0 0.03147767270255848 3.409698823597735 12.933192985415497 0 0 0
3065 1 1 0 0.03715830862019104 3.4025156148776485 13.66477984829553 0 0 0
3926 1 1 0 0.02841823677603771 3.592312013105173 13.76016406034114 0 0 0
3927 1 1 0 0.043299516451752576 3.762653607446043 13.760330528818573 0 0 0
3928 1 1 0 0.044184497512470625 3.9330730119233808 13.759672749908514 0 0 0
3931 1 1 0 0.007748766291108622 4.423124199368823 13.759405997498142 0 0 0
464 1 1 0 0.06958086302585331 3.371237848196214 14.05307961203707 0 0 0
3804 1 1 0 3.440406351274662 3.1401585584390292 13.847381911963948 0 0 0
107 1 2 0 3.4397046605159893 3.439927799018433 13.758920025122157 0 0 0
3099 1 1 0 3.439981889467261 3.4399142558885254 12.613203442064567 0 0 0
3100 1 1 0 3.440007335601279 3.439933891410022 12.776986777280671 0 0 0
3101 1 1 0 3.440004691021561 3.439949914590354 12.940799528275305 0 0 0
3102 1 1 0 3.4399703991213926 3.4399682489264243 13.104530514366832 0 0 0
3103 1 1 0 3.4398974589059392 3.4399637399216294 13.268355028032548 0 0 0
3104 1 1 0 3.4399514829092412 3.4399528405493034 13.432217909280068 0 0 0
3105 1 1 0 3.4398031182420796 3.439964743931852 13.596019511657548 0 0 0
3805 1 1 0 3.439966264368574 3.332579107807327 13.810360577872482 0 0 0
3966 1 1 0 3.439780728453265 3.54725404360456 13.810473444757356 0 0 0
3967 1 1 0 3.440023483294422 3.7397009398117236 13.84729818552773 0 0 0
3968 1 1 0 3.439949916304886 3.933533955667041 13.84608689874822 0 0 0
3969 1 1 0 3.4399788713580293 4.10513507141741 13.825262577991083 0 0 0
3970 1 1 0 3.4399949777059464 4.264670953793254 13.79611214547402 0 0 0
3971 1 1 0 3.440000239850316 4.423635539470151 13.771353648911143 0 0 0
3972 1 1 0 3.439995823007903 4.585809384044962 13.754570432797447 0 0 0
108 1 2 0 6.880141430551923 3.440897824371772 13.759618360793594 0 0 0
545 1 1 0 6.879548808340619 3.439433555758939 13.923526555962189 0 0 0
3159 1 1 0 6.879926230524797 3.4388228678782897 12.613183161741187 0 0 0
3160 1 1 0 6.879928624414613 3.4400720232817186 12.77700103298561 0 0 0
3161 1 1 0 6.879896942094273 3.4409514712643645 12.940736621448158 0 0 0
3162 1 1 0 6.879823467350761 3.44006986433794 13.104598987397592 0 0 0
3163 1 1 0 6.8797752802524 3.4401053203737373 13.26841212897733 0 0 0
3164 1 1 0 6.879704426082322 3.439898958957272 13.432247968571417 0 0 0
3165 1 1 0 6.87995476130653 3.439682273509783 13.596063373680266 0 0 0
3865 1 1 0 6.879877132930551 3.2762117701446827 13.760290807082884 0 0 0
3986 1 1 0 6.880595860798453 3.6037076846555953 13.759212149896067 0 0 0
3987 1 1 0 6.880269927693599 3.7675450282119005 13.759512297904582 0 0 0
3988 1 1 0 6.8800669162025665 3.9313421798439037 13.759847491229719 0 0 0
3989 1 1 0 6.879796988047449 4.095138365693137 13.760040289628801 0 0 0
3990 1 1 0 6.878939088722821 4.258906076601659 13.760774580605997 0 0 0
3991 1 1 0 6.8794730131613155 4.422708166217601 13.760242109537032 0 0 0
3992 1 1 0 6.8810376843577 4.586412929584244 13.758610543957726 0 0 0
3904 1 1 0 10.319802810552371 3.14015042909044 13.6730763620633 0 0 0
109 1 2 0 10.320105557630177 3.4399965000890873 13.760071264634997 0 0 0
585 1 1 0 10.320003678931261 3.440547004973178 13.923538989323674 0 0 0
3905 1 1 0 10.320025021302818 3.3324725158548585 13.709474774804757 0 0 0
4006 1 1 0 10.319855776979292 3.5472641356902366 13.709033336436292 0 0 0
4007 1 1 0 10.319441855588941 3.7397347857711876 13.67235881925576 0 0 0
4008 1 1 0 10.320119053839127 3.9335840006223806 13.673361445440817 0 0 0
4009 1 1 0 10.320004273933634 4.10521683155945 13.69458015216959 0 0 0
4010 1 1 0 10.320968182668013 4.264486911342165 13.723518755040216 0 0 0
4011 1 1 0 10.320236027310992 4.423607340008574 13.748626783987044 0 0 0
4012 1 1 0 10.318799024952893 4.585881424561515 13.765007933532765 0 0 0
110 1 2 0 13.758802683726621 3.4394528983663686 13.76022085390892 0 0 0
3219 1 1 0 13.764359224737749 3.443334654694178 12.61409246724668 0 0 0
3220 1 1 0 13.749521521919064 3.43028219616668 12.775404674222914 0 0 0
3221 1 1 0 13.727999629382758 3.409410034256584 12.932624008109503 0 0 0
3222 1 1 0 13.70543801332728 3.385772637866887 13.090293567912333 0 0 0
3223 1 1 0 13.68813270011871 3.3684440936827293 13.265091472085684 0 0 0
3224 1 1 0 13.689090148262459 3.3683144787751944 13.470063206205694 0 0 0
3225 1 1 0 13.723548326740445 3.403770550373174 13.671206178614561 0 0 0
3965 1 1 0 13.848332112149736 3.4034987402423686 13.795908613605969 0 0 0
4026 1 1 0 13.723706452413696 3.528593011234201 13.795984164828196 0 0 0
4027 1 1 0 13.689444903822041 3.729614375248668 13.831228468557834 0 0 0
4028 1 1 0 13.68798450164539 3.934654344703398 13.831152500584777 0 0 0
4029 1 1 0 13.705449670853696 4.109634834549114 13.813996030454309 0 0 0
4030 1 1 0 13.727002317304136 4.267159994200358 13.790454477214295 0 0 0
4031 1 1 0 13.74922979854029 4.423975198376766 13.769676194956453 0 0 0
4032 1 1 0 13.765532428681091 4.585498525458455 13.756278814705476 0 0 0
3964 1 1 0 14.049397797776683 3.3685942619649083 13.83064562308644 0 0 0
3955 1 1 0 15.561488426768973 3.4454061442253874 13.759059161559662 0 0 0
3956 1 1 0 15.398188052035417 3.4468691009136134 13.753736616836441 0 0 0
3957 1 1 0 15.234639714591061 3.4497513847292542 13.748619404812553 0 0 0
3958 1 1 0 15.070106658136778 3.450187601409572 13.747289385968479 0 0 0
3959 1 1 0 14.90547600614841 3.4435389461226205 13.75521238496264 0 0 0
3960 1 1 0 14.744121429483542 3.4297885498087757 13.770048261136457 0 0 0
3961 1 1 0 14.587238636466918 3.4092778100302725 13.791541875138094 0 0 0
3962 1 1 0 14.42934552331126 3.385494396414109 13.81414531143778 0 0 0
3963 1 1 0 14.254479175952001 3.3686287581965693 13.831418978210957 0 0 0
3059 1 1 0 17.193816819959494 3.44459730454384 12.614369429211637 -1 0 0
3932 1 1 0 17.196831115785965 4.58601724389848 13.760842810672857 -1 0 0
3946 1 1 0 17.04750586026189 3.411064540243938 13.759898697839118 0 0 0
3947 1 1 0 16.877033895434163 3.3959653772648934 13.760333525860835 0 0 0
3948 1 1 0 16.706679830997373 3.3959792625860974 13.759721738276705 0 0 0
3949 1 1 0 16.540976506387217 3.405291981113266 13.759606453340336 0 0 0
3950 1 1 0 16.378675372312426 3.4199188083470315 13.758761101910451 0 0 0
3951 1 1 0 16.216247417582416 3.4329840036478085 13.759356083135877 0 0 0
3952 1 1 0 16.053368205576497 3.440518049999785 13.761140538558818 0 0 0
3953 1 1 0 15.889332580537346 3.4448429839180337 13.763013007187869 0 0 0
3954 1 1 0 15.725440730485822 3.445137331635048 13.762258221874319 0 0 0
3937 1 1 0 0.011897142169912965 5.405197918837273 13.749242835431078 0 0 0
3936 1 1 0 0.004895917659214271 5.2418899739632305 13.754090330868069 0 0 0
3938 1 1 0 0.01482581416573876 5.569115889061936 13.747314649756875 0 0 0
3939 1 1 0 0.0056861401937364515 5.734043714401244 13.755112154377425 0 0 0
3973 1 1 0 3.4399962613161947 4.750378915580477 13.746899637299915 0 0 0
3974 1 1 0 3.439981797717807 4.9146495618938495 13.748111561854149 0 0 0
3975 1 1 0 3.4399666000689275 5.078188902607994 13.75227576247507 0 0 0
3976 1 1 0 3.4399547366207335 5.241568845346432 13.75443547859731 0 0 0
3977 1 1 0 3.4399415257136763 5.405451607407608 13.75554359658198 0 0 0
3978 1 1 0 3.4399421810853044 5.569569477714443 13.755252114398807 0 0 0
3979 1 1 0 3.4399270151032355 5.733449873899504 13.759295388975966 0 0 0
3980 1 1 0 3.439922169107202 5.896414431628928 13.76667094825297 0 0 0
3981 1 1 0 3.4399152474127455 6.0588208605748415 13.779775530017162 0 0 0
3982 1 1 0 3.439904957535356 6.221141833427513 13.794411414294888 0 0 0
3993 1 1 0 6.882834812315428 4.750466522827176 13.756827144869527 0 0 0
3994 1 1 0 6.882388831568485 4.914120222453632 13.75726055330197 0 0 0
3995 1 1 0 6.879185352173667 5.078033625341008 13.760457804605704 0 0 0
3996 1 1 0 6.874225993246718 5.241669510677225 13.765420945969058 0 0 0
3997 1 1 0 6.869296681020388 5.40515080413174 13.770366392388334 0 0 0
3998 1 1 0 6.867456390949134 5.569252530699413 13.772237185566752 0 0 0
3999 1 1 0 6.875209327480008 5.734194965557883 13.764519491519444 0 0 0
4000 1 1 0 6.8894450196210695 5.896110059051152 13.750288765477462 0 0 0
4001 1 1 0 6.9101515702862715 6.0533733593556205 13.729618167528228 0 0 0
4002 1 1 0 6.932446218769562 6.211035080780462 13.707276526194674 0 0 0
4013 1 1 0 10.316826326129743 4.750376969737178 13.772128771863686 0 0 0
4014 1 1 0 10.317439498709954 4.9145921346175445 13.770450931904207 0 0 0
4015 1 1 0 10.32045587872436 5.078361832552597 13.767238514070486 0 0 0
4016 1 1 0 10.3255743297241 5.241573076123538 13.766091148643332 0 0 0
4017 1 1 0 10.330412014069719 5.405231349414457 13.76707901988371 0 0 0
4018 1 1 0 10.332385269491594 5.569501477166605 13.768680994584084 0 0 0
4019 1 1 0 10.32459383211252 5.734121966562843 13.763208549041238 0 0 0
4020 1 1 0 10.310463285616393 5.895791941252281 13.75086476932149 0 0 0
4021 1 1 0 10.28968485918179 6.053331360884956 13.7307990667247 0 0 0
4022 1 1 0 10.267382884782595 6.211193442532198 13.707419179507923 0 0 0
4033 1 1 0 13.775395209159086 4.750554810883201 13.750281799745084 0 0 0
4034 1 1 0 13.773474899901123 4.914690199148295 13.751038088543154 0 0 0
4035 1 1 0 13.76531854492862 5.078125536734267 13.753131399779328 0 0 0
4036 1 1 0 13.7548671445672 5.241574438052626 13.753374527343594 0 0 0
4037 1 1 0 13.746793564144541 5.4054062434172545 13.751744000283491 0 0 0
4038 1 1 0 13.74411926649029 5.56911186094897 13.750556237732965 0 0 0
4039 1 1 0 13.753800159846483 5.734355182290283 13.756485822963986 0 0 0
4040 1 1 0 13.769761716115985 5.896069797209873 13.768858392082732 0 0 0
4041 1 1 0 13.791145688357641 6.053300231393359 13.788953669324226 0 0 0
4042 1 1 0 13.812495926425225 6.210951695323691 13.812161718673279 0 0 0
3941 1 1 0 17.168453974674062 6.053409549645077 13.790058460729165 -1 0 0
3942 1 1 0 17.147402222155595 6.210920448412928 13.812290271916945 -1 0 0
3933 1 1 0 17.18853881191853 4.7509252396184465 13.762797492519395 -1 0 0
3934 1 1 0 17.18969439469979 4.9141554461854335 13.762214023128537 -1 0 0
3935 1 1 0 17.195569770673412 5.078060454115082 13.759169292377125 -1 0 0
3940 1 1 0 17.19022037099798 5.896318020276899 13.769318754742107 -1 0 0
111 1 2 0 17.19964805547915 6.880039107506969 13.759940331436072 -1 0 0
3259 1 1 0 0.0028931365694772745 6.878833237059038 12.613725616623865 0 0 0
4046 1 1 0 0.15227114808111278 6.8803226095296965 13.7886016695167 0 0 0
4047 1 1 0 0.3227375444765833 6.880202015311158 13.803686819642977 0 0 0
4048 1 1 0 0.49305048075600405 6.8798176297450615 13.803716878699676 0 0 0
4049 1 1 0 0.6586975330534574 6.879781171556586 13.79448689913061 0 0 0
4050 1 1 0 0.8211129847645335 6.878842805511073 13.77987084011995 0 0 0
4051 1 1 0 0.9834865215090328 6.879546242203656 13.766846716298472 0 0 0
4052 1 1 0 1.1464540572035378 6.88096470735585 13.759062047087452 0 0 0
4053 1 1 0 1.310390621627156 6.882940451419179 13.754706691438729 0 0 0
4054 1 1 0 1.4743124651059765 6.882323183159166 13.754683036668961 0 0 0
4055 1 1 0 1.6382345716036648 6.879320109164427 13.754445158120555 0 0 0
4056 1 1 0 1.8016463856064509 6.874216555561631 13.753354556107915 0 0 0
4057 1 1 0 1.965232721834553 6.869391939525196 13.750634282288752 0 0 0
4058 1 1 0 2.1294548281927246 6.867446026524899 13.749686651453828 0 0 0
4059 1 1 0 2.2942320826256895 6.875249952435313 13.756129128117434 0 0 0
4060 1 1 0 2.4559625516107806 6.889403657868394 13.769245771294244 0 0 0
4061 1 1 0 2.613217151906821 6.910144686842077 13.788928476251625 0 0 0
4062 1 1 0 2.7712719597034283 6.932469652025236 13.812452348148387 0 0 0
4063 1 1 0 2.944851541284512 6.949577705834361 13.829071657457586 0 0 0
4064 1 1 0 3.1468452462837138 6.949131730161955 13.829430759059047 0 0 0
112 1 2 0 3.440060311711559 6.880041865250564 13.759915889725315 0 0 0
3319 1 1 0 3.4387148114449237 6.878076339229537 12.613552338794143 0 0 0
3320 1 1 0 3.4404942858896215 6.8872907149326785 12.77645583018743 0 0 0
3321 1 1 0 3.4411963307189595 6.901037900543339 12.938685772082637 0 0 0
3322 1 1 0 3.4402078646517342 6.91474385434753 13.100991018633795 0 0 0
3323 1 1 0 3.440042913293893 6.92394142857163 13.266743490392095 0 0 0
3324 1 1 0 3.439637200632545 6.923566018229319 13.437107260609478 0 0 0
3325 1 1 0 3.439753294348441 6.908499636705672 13.607480597732474 0 0 0
3983 1 1 0 3.439929183784023 6.386780763046038 13.803789716348756 0 0 0
3984 1 1 0 3.439894261469343 6.557094006058258 13.803837633372542 0 0 0
3985 1 1 0 3.4399381921212644 6.727583599950721 13.788583749059109 0 0 0
4065 1 1 0 3.3450458755827364 6.917149307876537 13.797258101241976 0 0 0
4086 1 1 0 3.535128972713286 6.917202626878874 13.79668149872305 0 0 0
4087 1 1 0 3.733177815268386 6.949145285017205 13.828832121008064 0 0 0
4088 1 1 0 3.9349734895559187 6.949511393424737 13.829809029100295 0 0 0
4089 1 1 0 4.109008757821098 6.932345305232759 13.81221937039085 0 0 0
4090 1 1 0 4.266504588075906 6.910112142984698 13.791173081098435 0 0 0
4091 1 1 0 4.423490563837694 6.889387494030578 13.769365770493367 0 0 0
4092 1 1 0 4.585756535366743 6.87519614723958 13.754144880205564 0 0 0
4093 1 1 0 4.750735080000227 6.867393225822821 13.74494150096278 0 0 0
4094 1 1 0 4.91466498964021 6.869340886123595 13.74788536086124 0 0 0
4095 1 1 0 5.077954045925581 6.874193623357885 13.754865054077756 0 0 0
4096 1 1 0 5.241812541444177 6.879295255960516 13.763946457026865 0 0 0
4097 1 1 0 5.405763117579736 6.882356731489485 13.769813758335099 0 0 0
4098 1 1 0 5.568994107374357 6.882958140072247 13.770987807433864 0 0 0
4099 1 1 0 5.7338929791305935 6.880998591926722 13.762674369662681 0 0 0
4100 1 1 0 5.896754409954992 6.879547245551694 13.752038281935361 0 0 0
4101 1 1 0 6.058811782419129 6.878841956078562 13.737599644789336 0 0 0
4102 1 1 0 6.221089512625387 6.879718132796067 13.724823464047743 0 0 0
113 1 2 0 6.879938149631079 6.879411049356847 13.759539688347473 0 0 0
765 1 1 0 6.908566072508624 6.880008011640064 13.912065769224887 0 0 0
4003 1 1 0 6.9494622085338635 6.384843370441113 13.690171290204708 0 0 0
4004 1 1 0 6.949329099611363 6.5867792697210135 13.690644128575453 0 0 0
4005 1 1 0 6.91673657690245 6.784832921773151 13.722263383274942 0 0 0
4103 1 1 0 6.386829690879687 6.879696239758464 13.715588833478224 0 0 0
4104 1 1 0 6.55716295953655 6.880245300462935 13.716564956231094 0 0 0
4105 1 1 0 6.7274769925472295 6.879867191883037 13.731389764843772 0 0 0
4106 1 1 0 6.917268017063149 6.974778215856081 13.722340416024982 0 0 0
4107 1 1 0 6.949647159899496 7.173031273952138 13.69124372190177 0 0 0
4108 1 1 0 6.949287431457103 7.374929757406807 13.689891682557555 0 0 0
4109 1 1 0 6.932323801780643 7.5488122752170765 13.707210601565267 0 0 0
4110 1 1 0 6.909053018231775 7.706511967788364 13.728532110939524 0 0 0
114 1 2 0 10.319763603380126 6.880132864515783 13.759754480697103 0 0 0
825 1 1 0 10.291180363569747 6.879816579284243 13.912094427154337 0 0 0
4023 1 1 0 10.250284942947898 6.384809395210785 13.690279763011786 0 0 0
4024 1 1 0 10.25059573876436 6.586678387340373 13.690078887070353 0 0 0
4025 1 1 0 10.282601585010426 6.784991421562727 13.722354427755533 0 0 0
4126 1 1 0 10.472303450837606 6.880068908515775 13.731742073480037 0 0 0
4127 1 1 0 10.642575517568401 6.879947218491612 13.7162681456591 0 0 0
4128 1 1 0 10.813004625192601 6.879998077440007 13.715583985061164 0 0 0
4146 1 1 0 10.28267684364947 6.974982207567488 13.722567039735134 0 0 0
4147 1 1 0 10.250562401422973 7.173021038048418 13.690545857894477 0 0 0
4148 1 1 0 10.250255268417035 7.3750007399018385 13.690197797417095 0 0 0
4149 1 1 0 10.267323143954878 7.548830768580216 13.707277386609316 0 0 0
4150 1 1 0 10.289622406501767 7.706511778882442 13.729582408376643 0 0 0
4129 1 1 0 10.978720647478722 6.879952392101536 13.724992450639087 0 0 0
4130 1 1 0 11.140959415556578 6.879922718077993 13.737630007822947 0 0 0
4131 1 1 0 11.303117246440088 6.879894921688623 13.75236998764579 0 0 0
4132 1 1 0 11.466209290526242 6.8798803595855835 13.76263406684234 0 0 0
4133 1 1 0 11.630641948687718 6.87986707815828 13.7703146385477 0 0 0
4134 1 1 0 11.794224295538113 6.87987011443185 13.768772659245329 0 0 0
4135 1 1 0 11.957855744283211 6.879875104952514 13.76374857957432 0 0 0
4136 1 1 0 12.121761331322082 6.87988900786905 13.755844918270435 0 0 0
4137 1 1 0 12.285455467573504 6.879883461965074 13.750812397896487 0 0 0
4138 1 1 0 12.44909708441614 6.879892907563969 13.749287167743324 0 0 0
115 1 2 0 13.760018305515995 6.879741872014746 13.75991016414548 0 0 0
3399 1 1 0 13.758001572214559 6.8808924897969685 12.613417491449727 0 0 0
3400 1 1 0 13.767223411520206 6.879868613017854 12.77652759152383 0 0 0
3401 1 1 0 13.780916115200041 6.8788526986719924 12.93871129406449 0 0 0
3402 1 1 0 13.794610668137866 6.879907445921162 13.101060046644413 0 0 0
3403 1 1 0 13.803833399370328 6.879636219149666 13.266722502102375 0 0 0
3404 1 1 0 13.803215291761562 6.88010741358881 13.437035915389966 0 0 0
3405 1 1 0 13.788344073601182 6.8803515613193404 13.607466012504494 0 0 0
4043 1 1 0 13.829649091766644 6.384778066408656 13.829228291099982 0 0 0
4044 1 1 0 13.828456179725539 6.586619940328228 13.829646395366943 0 0 0
4045 1 1 0 13.797015761572474 6.784899225363925 13.797298811178099 0 0 0
4139 1 1 0 12.613525607945162 6.8798845910585165 13.756975645326605 0 0 0
4140 1 1 0 12.776620706000887 6.879880509458855 13.767259116847132 0 0 0
4141 1 1 0 12.938734652070655 6.879881204779528 13.782009236940578 0 0 0
4142 1 1 0 13.100997689456596 6.879872766579826 13.794667747034406 0 0 0
4143 1 1 0 13.26676970014028 6.879875381414039 13.804099526931106 0 0 0
4144 1 1 0 13.437177643060991 6.879921104293062 13.80334783806032 0 0 0
4145 1 1 0 13.60743458629459 6.879678015731809 13.787910777129902 0 0 0
4166 1 1 0 13.797446037547923 6.974757757634253 13.797073558886567 0 0 0
4167 1 1 0 13.82892614130045 7.173118979274493 13.828977938567798 0 0 0
4168 1 1 0 13.8294416818648 7.375057149857912 13.829435952586206 0 0 0
4169 1 1 0 13.812351589930145 7.548829770859512 13.81233895016116 0 0 0
4170 1 1 0 13.790020870299886 7.706514617828516 13.789986243359163 0 0 0
3260 1 1 0 17.191981898822625 6.88025908127605 12.776640990010215 -1 0 0
3261 1 1 0 17.17757456897442 6.880980625510862 12.938783342967008 -1 0 0
3264 1 1 0 17.156601326410055 6.879633604339205 13.437071260754008 -1 0 0
3265 1 1 0 17.171396142725357 6.879671741874212 13.607427985835303 -1 0 0
3943 1 1 0 17.129782230748113 6.384953697836275 13.829434671729064 -1 0 0
4067 1 1 0 17.130747274182436 7.173074199211567 13.829153590390721 -1 0 0
4069 1 1 0 17.147223581358606 7.548778457803623 13.81233769206717 -1 0 0
4070 1 1 0 17.169565993580942 7.70653313111275 13.789986045214196 -1 0 0
3262 1 1 0 17.164785445328846 6.880072632282203 13.101062329750675 -1 0 0
3263 1 1 0 17.155607716343628 6.880086233567368 13.26672852655777 -1 0 0
3944 1 1 0 17.131057626637382 6.586807112921358 13.829086563813227 -1 0 0
3945 1 1 0 17.16248719209607 6.784899805460406 13.796996328879807 -1 0 0
4066 1 1 0 17.16234139614961 6.974950226856708 13.797016024206815 -1 0 0
4068 1 1 0 17.13011496321266 7.374979058319139 13.829396280624223 -1 0 0
4072 1 1 0 0.004712809275269957 8.025678604317239 13.755030969582089 0 0 0
4073 1 1 0 0.012433604974762546 8.190578827591297 13.7473660982704 0 0 0
4075 1 1 0 0.005653141359237205 8.518144606254955 13.754170611775121 0 0 0
4080 1 1 0 0.0005576320521350441 9.336977967572103 13.759313973473756 0 0 0
4074 1 1 0 0.01060163132854064 8.354664099052881 13.749164428824091 0 0 0
4111 1 1 0 6.889055740181837 7.863709246257946 13.74997199464975 0 0 0
4112 1 1 0 6.876328334164365 8.025537516491967 13.765607943743367 0 0 0
4113 1 1 0 6.87048325567317 8.190704108471067 13.775339458309016 0 0 0
4114 1 1 0 6.871808277186996 8.354521055061145 13.7728283631732 0 0 0
4115 1 1 0 6.873622267256473 8.518096578161359 13.76491422446638 0 0 0
4116 1 1 0 6.8735971293164555 8.6816369118961 13.754739944159322 0 0 0
4117 1 1 0 6.871788849431042 8.845263345421879 13.746840994384067 0 0 0
4118 1 1 0 6.870418365747448 9.009130389680372 13.744330944955339 0 0 0
4119 1 1 0 6.876292075873738 9.174274544116212 13.754078630950183 0 0 0
4120 1 1 0 6.8890070999303346 9.336011525996692 13.7696871191431 0 0 0
4151 1 1 0 10.310303990678909 7.8637172590746935 13.75026433724298 0 0 0
4152 1 1 0 10.324529281942365 8.025660542438253 13.764486152610614 0 0 0
4153 1 1 0 10.332285064303544 8.19053118619494 13.77223491663253 0 0 0
4154 1 1 0 10.330398489533863 8.35455958256062 13.770358981449922 0 0 0
4155 1 1 0 10.325508416633584 8.518048981800943 13.765468954323804 0 0 0
4156 1 1 0 10.320527460336526 8.681796604316963 13.760497520244817 0 0 0
4157 1 1 0 10.317292519504853 8.845657699393644 13.757262647429567 0 0 0
4158 1 1 0 10.316916189036355 9.009242549708212 13.75685306837848 0 0 0
4159 1 1 0 10.318578148806585 9.17331608760252 13.758527150438884 0 0 0
4160 1 1 0 10.320339877376153 9.337046214801738 13.76028206351587 0 0 0
4171 1 1 0 13.769361922491557 7.863742375224618 13.769357540007164 0 0 0
4172 1 1 0 13.755099748994581 8.025612095491258 13.75507727549859 0 0 0
4173 1 1 0 13.747409850697828 8.190575486284228 13.747422003561146 0 0 0
4174 1 1 0 13.749215481230731 8.354631661829059 13.749214390312636 0 0 0
4175 1 1 0 13.754196211914534 8.518090638141283 13.75423750469364 0 0 0
4176 1 1 0 13.759081970564544 8.681726050588436 13.759084710766116 0 0 0
4177 1 1 0 13.762395229619292 8.84564898302258 13.762437729980144 0 0 0
4178 1 1 0 13.76268252357359 9.00924177976367 13.762685878434532 0 0 0
4179 1 1 0 13.761100235726099 9.173311642662508 13.761128870480182 0 0 0
4180 1 1 0 13.759282700583878 9.337016577669463 13.759265443878428 0 0 0
4076 1 1 0 0.0007426078790047086 8.681753830245661 13.759043317740122 0 0 0
4078 1 1 0 17.196886114868466 9.009275313462158 13.762683036951108 -1 0 0
4079 1 1 0 17.19852884499519 9.173261701713589 13.7611402602326 -1 0 0
4071 1 1 0 17.19023371004769 7.863798625255583 13.769326323047466 -1 0 0
4077 1 1 0 17.197244844281787 8.845632011008513 13.762394481806167 -1 0 0
116 1 2 0 0.0004698057219239076 10.32523841454533 13.759338231774745 0 0 0
4081 1 1 0 0.0009132460694207924 9.500794808741304 13.758976064963521 0 0 0
4082 1 1 0 0.0003993694871798447 9.664582518540934 13.75949482047496 0 0 0
4085 1 1 0 17.199414962471945 10.15598554730677 13.760163113926918 -1 0 0
117 1 2 0 3.4397277775175783 10.319621703874947 13.759449024353739 0 0 0
945 1 1 0 3.4022098700489463 10.282513073269618 13.854649512326253 0 0 0
3479 1 1 0 3.445683911392192 10.323498322164376 12.614212373278843 0 0 0
3480 1 1 0 3.430068894020773 10.310777347903594 12.77598753991061 0 0 0
3481 1 1 0 3.4086130575820146 10.290755620216105 12.93323085416834 0 0 0
3482 1 1 0 3.3873177501117273 10.267429043429125 13.090978577167313 0 0 0
3483 1 1 0 3.3700839530179145 10.250471057457796 13.264750235889297 0 0 0
3484 1 1 0 3.371259854757606 10.249937940438235 13.466604962572989 0 0 0
3485 1 1 0 3.40273347383857 10.282424712183735 13.664813014690736 0 0 0
4186 1 1 0 3.592318076071772 10.291285267094374 13.759987681475751 0 0 0
4187 1 1 0 3.762651776515714 10.276138209335544 13.760013193724166 0 0 0
4188 1 1 0 3.9329933952012914 10.275722983991878 13.75955479215426 0 0 0
4189 1 1 0 4.0986436994031585 10.284931942035552 13.75981106953093 0 0 0
4190 1 1 0 4.261042550468801 10.29867510500964 13.758770180181125 0 0 0
4191 1 1 0 4.4232344057343544 10.312405460430131 13.759807711105246 0 0 0
4192 1 1 0 4.586338125596078 10.321664762226119 13.760823919855564 0 0 0
4206 1 1 0 3.4116348697616483 10.472178070507637 13.759981327518126 0 0 0
4207 1 1 0 3.39683750411264 10.6425141994507 13.760281639551913 0 0 0
4208 1 1 0 3.395781988129815 10.812905892819298 13.759612746832149 0 0 0
944 1 1 0 3.37095739543244 10.250531547398168 14.0530354736495 0 0 0
4193 1 1 0 4.750511478551527 10.32797829890324 13.762219145138797 0 0 0
4194 1 1 0 4.914311521963679 10.327424975511791 13.761218953148505 0 0 0
4195 1 1 0 5.078086295453211 10.32457832330531 13.759068242326173 0 0 0
4196 1 1 0 5.241760163619323 10.32063355473579 13.75509552069178 0 0 0
4197 1 1 0 5.4055097852755125 10.318462962652184 13.752275218611706 0 0 0
4198 1 1 0 5.569406517670571 10.317487021194356 13.751687788157811 0 0 0
4199 1 1 0 5.733599211584955 10.318841106562948 13.758010313976659 0 0 0
4200 1 1 0 5.8966018908210875 10.319867631122248 13.76720332873772 0 0 0
4201 1 1 0 6.058797739459799 10.320865619884309 13.780926774699852 0 0 0
4202 1 1 0 6.221167329338421 10.319792483592826 13.794611136758954 0 0 0
118 1 2 0 6.880173954955848 10.319670549439525 13.759892196995391 0 0 0
3499 1 1 0 6.878039076942352 10.321118534482405 12.61348245741556 0 0 0
3500 1 1 0 6.88730499175412 10.31933121178607 12.776425580985428 0 0 0
3501 1 1 0 6.90103369499959 10.318629682537448 12.938759134317804 0 0 0
3502 1 1 0 6.914773473376168 10.319596715516498 13.101024135766872 0 0 0
3503 1 1 0 6.923979628996607 10.31975980283748 13.266691328741448 0 0 0
3504 1 1 0 6.923553295276573 10.320107220345282 13.437115129278459 0 0 0
3505 1 1 0 6.908524956555981 10.319960762957383 13.607520142150566 0 0 0
4121 1 1 0 6.90904266591466 9.493239626128029 13.791127653486425 0 0 0
4122 1 1 0 6.932349301260983 9.650958563422897 13.812416699561101 0 0 0
4123 1 1 0 6.949370233674019 9.824760078642205 13.829621725316619 0 0 0
4124 1 1 0 6.949616365149108 10.02663308494281 13.828575490765564 0 0 0
4125 1 1 0 6.91753800172568 10.224853720617565 13.796811496330191 0 0 0
4203 1 1 0 6.386823086287471 10.319970173699414 13.803809181684045 0 0 0
4204 1 1 0 6.557209636882952 10.319733882165204 13.803353574485708 0 0 0
4205 1 1 0 6.727604680498994 10.3193998222669 13.788306889356585 0 0 0
4226 1 1 0 6.917113225525439 10.414803043237796 13.7972673475374 0 0 0
4227 1 1 0 6.948741063752932 10.6130288980967 13.829506497516446 0 0 0
4228 1 1 0 6.949780367632979 10.81491188425437 13.829233212041519 0 0 0
119 1 2 0 10.320043288582982 10.319896911208511 13.759956370132238 0 0 0
1005 1 1 0 10.320308016285153 10.320027834940532 13.92359453206221 0 0 0
3559 1 1 0 10.318706690255771 10.319833405916244 12.613103444575612 0 0 0
3560 1 1 0 10.319934668540983 10.31982948952558 12.776952650831047 0 0 0
3561 1 1 0 10.320861109397674 10.31982270457838 12.94072183496216 0 0 0
3562 1 1 0 10.320029038349615 10.319848410870444 13.104590305885313 0 0 0
3563 1 1 0 10.320169178599134 10.31985349871121 13.268375081379952 0 0 0
3564 1 1 0 10.319943462250576 10.319829759128984 13.432174704902526 0 0 0
3565 1 1 0 10.31971464857294 10.31972380997203 13.596062453625834 0 0 0
4161 1 1 0 10.32071147081383 9.500847158686438 13.760714503929142 0 0 0
4162 1 1 0 10.320038798943946 9.664682678757716 13.76012065746416 0 0 0
4163 1 1 0 10.319631671885562 9.828508876430696 13.75982771323822 0 0 0
4164 1 1 0 10.319334320424682 9.992266143625399 13.759644725649375 0 0 0
4165 1 1 0 10.319455171726316 10.156063028317257 13.759303248678444 0 0 0
4246 1 1 0 10.319895184008072 10.483732554229265 13.760561807458485 0 0 0
4247 1 1 0 10.31950221099506 10.647554549137602 13.75993110055095 0 0 0
4248 1 1 0 10.31970284946092 10.811301688364054 13.759697548215478 0 0 0
120 1 2 0 13.759853811957731 10.319494175395924 13.759267077461319 0 0 0
1045 1 1 0 13.759529820301115 10.370343049091828 13.867305384274587 0 0 0
3579 1 1 0 13.759773838929771 10.313511747957053 12.613809322446015 0 0 0
3580 1 1 0 13.759761593278819 10.331433969736922 12.776407287199257 0 0 0
3581 1 1 0 13.759778075834875 10.35715375793108 12.935203877632123 0 0 0
3582 1 1 0 13.759772788229622 10.385076337221388 13.094302263135159 0 0 0
3583 1 1 0 13.759811128145458 10.406399129321914 13.266146162658682 0 0 0
3584 1 1 0 13.759794519302236 10.40680844577094 13.459955606566806 0 0 0
3585 1 1 0 13.759865783941594 10.370330594617492 13.65236779577552 0 0 0
4181 1 1 0 13.758954160810417 9.500818777432677 13.758935923682003 0 0 0
4182 1 1 0 13.759526404075201 9.664656575784615 13.759469430211812 0 0 0
4183 1 1 0 13.759972062118225 9.828475374597007 13.759861815684673 0 0 0
4184 1 1 0 13.760013530264082 9.992250556867349 13.760044968912725 0 0 0
4185 1 1 0 13.760294085458249 10.156040449327504 13.760262440803462 0 0 0
1044 1 1 0 13.759520738489948 10.406790167412229 14.059577358913916 0 0 0
4083 1 1 0 17.199729027853003 9.82844445713808 13.75988442089934 -1 0 0
4084 1 1 0 17.199664649302782 9.99217861626602 13.759965046022483 -1 0 0
4209 1 1 0 3.4050054429687946 10.978629933065562 13.75963313836571 0 0 0
4210 1 1 0 3.4177710315100596 11.14085709024464 13.758752554327653 0 0 0
4211 1 1 0 3.432177809029408 11.303000707825163 13.75942175354454 0 0 0
4212 1 1 0 3.4428194294449206 11.46591953985438 13.76088361020727 0 0 0
4213 1 1 0 3.451110996768036 11.630855999821053 13.762841522099132 0 0 0
4214 1 1 0 3.449934380275168 11.7940063337607 13.762252753806377 0 0 0
4215 1 1 0 3.4440688979810568 11.957978525461487 13.7591982469689 0 0 0
4216 1 1 0 3.4349835206291814 12.121758146405021 13.754103105642166 0 0 0
4217 1 1 0 3.4280039833625366 12.285038106341633 13.749241836489313 0 0 0
4218 1 1 0 3.4250719475309426 12.449116601246013 13.747294078940385 0 0 0
4229 1 1 0 6.932624510786374 10.988695217872687 13.812152536403717 0 0 0
4230 1 1 0 6.911249796534885 11.146365253797237 13.788915399242224 0 0 0
4231 1 1 0 6.8898467069589495 11.303650913389006 13.768833520547082 0 0 0
4232 1 1 0 6.873878609428438 11.46537192585996 13.756421114158144 0 0 0
4233 1 1 0 6.864189491839732 11.630646293489884 13.750533921819837 0 0 0
4234 1 1 0 6.866890793279746 11.794389921305061 13.751684926614493 0 0 0
4235 1 1 0 6.874957993205162 11.958201702685914 13.753368739238162 0 0 0
4236 1 1 0 6.885422629323302 12.12166357164674 13.753093507016958 0 0 0
4237 1 1 0 6.893577490025752 12.285072664528244 13.751036154878483 0 0 0
4238 1 1 0 6.895494954064362 12.449183742491668 13.750266259207695 0 0 0
4249 1 1 0 10.319754818646896 10.97504425333218 13.759745348848544 0 0 0
4250 1 1 0 10.319841134107154 11.1389128861054 13.758805006011551 0 0 0
4251 1 1 0 10.319868894686437 11.302648282785796 13.759687080870478 0 0 0
4252 1 1 0 10.319891737070066 11.466519775505157 13.76087574313162 0 0 0
4253 1 1 0 10.319872259427155 11.630319042246496 13.762141684029652 0 0 0
4254 1 1 0 10.31987508766971 11.794205603480913 13.761193279573863 0 0 0
4255 1 1 0 10.319866370948754 11.957961316758116 13.759054724495591 0 0 0
4256 1 1 0 10.31986071870209 12.121629324409245 13.755068258065423 0 0 0
4257 1 1 0 10.319865105271976 12.285472800949252 13.752285741195323 0 0 0
4258 1 1 0 10.319856273516402 12.449201065633508 13.751736254455283 0 0 0
121 1 2 0 17.199154026252298 13.759041732581833 13.760420014407538 -1 0 0
3619 1 1 0 0.004640297917384449 13.764426385701968 12.614143891472748 0 0 0
4266 1 1 0 0.08847517750191433 13.72354473031589 13.796258980573334 0 0 0
4267 1 1 0 0.28966381509865186 13.689005573306819 13.831144115737322 0 0 0
4268 1 1 0 0.4946684437255256 13.688192827983299 13.83111339960863 0 0 0
4269 1 1 0 0.6694357840360258 13.705498507307539 13.81430758551611 0 0 0
4270 1 1 0 0.8273331745747443 13.728118178874578 13.790495190616321 0 0 0
4271 1 1 0 0.9842664755426394 13.749613730250594 13.770046728018704 0 0 0
4272 1 1 0 1.1457033292802068 13.764448980007478 13.75623887954101 0 0 0
4273 1 1 0 1.3103697857611407 13.772361636304137 13.749669116017719 0 0 0
4274 1 1 0 1.474837266716073 13.771011162632387 13.750039459570914 0 0 0
4275 1 1 0 1.6383206138315083 13.765884434302007 13.753001358879963 0 0 0
4276 1 1 0 1.801663165386205 13.760550237505754 13.754371510897029 0 0 0
4277 1 1 0 1.9656837212789802 13.757328753053546 13.754730707079828 0 0 0
4278 1 1 0 2.129517158837296 13.756573294125323 13.754924854575743 0 0 0
4279 1 1 0 2.29361822289332 13.758462534858534 13.759311464075303 0 0 0
4280 1 1 0 2.456577864320201 13.760265907365875 13.766758173601218 0 0 0
4281 1 1 0 2.6189906631630495 13.760880197885742 13.779876190336001 0 0 0
4282 1 1 0 2.781242828993845 13.760083330954252 13.79440379645185 0 0 0
4283 1 1 0 2.946927905196292 13.76005345487306 13.803701996198582 0 0 0
4284 1 1 0 3.1172281309797727 13.759284103671197 13.803995731003692 0 0 0
122 1 2 0 3.439991218465895 13.760382168139282 13.75993586926972 0 0 0
3659 1 1 0 3.439157781553213 13.759798932856322 12.613459372582767 0 0 0
3660 1 1 0 3.4473713471225955 13.759840720393358 12.77648589982519 0 0 0
3661 1 1 0 3.460074225945215 13.75980570118579 12.938644690954483 0 0 0
3662 1 1 0 3.4748465853540025 13.759878778386762 13.101154109018681 0 0 0
3663 1 1 0 3.4837814948163777 13.75990373690431 13.266709636378216 0 0 0
3664 1 1 0 3.4837473829150163 13.759728482475062 13.437074630267285 0 0 0
3665 1 1 0 3.4689038548950557 13.76012963904412 13.607597531843384 0 0 0
3825 1 1 0 3.4771408749792836 13.854886057969033 13.796849171951301 0 0 0
4219 1 1 0 3.434247687622526 12.614089443482444 13.75508579079788 0 0 0
4220 1 1 0 3.4494745350735725 12.77632482441787 13.769305624085284 0 0 0
4221 1 1 0 3.471271309965 12.933323693885663 13.790059266397668 0 0 0
4222 1 1 0 3.4922962982967283 13.09074614918147 13.812305151203415 0 0 0
4223 1 1 0 3.5099261211592583 13.264726555632421 13.82948542257738 0 0 0
4224 1 1 0 3.508782506228093 13.466592087469413 13.82925286699079 0 0 0
4225 1 1 0 3.4768458376894023 13.664652257717801 13.79712373405716 0 0 0
4285 1 1 0 3.2876398524629677 13.759749145930057 13.788569952093052 0 0 0
3824 1 1 0 3.509752020569071 14.052969354134628 13.829765599632529 0 0 0
123 1 2 0 6.8792779646121955 13.760690320688557 13.7602309253773 0 0 0
3699 1 1 0 6.8832029394605705 13.753871830516253 12.614202979314042 0 0 0
3700 1 1 0 6.87013930291555 13.77048961135246 12.775722797608239 0 0 0
3701 1 1 0 6.849272625842666 13.792649669720607 12.932630369810278 0 0 0
3702 1 1 0 6.82581565807942 13.814222679198709 13.09011334814534 0 0 0
3703 1 1 0 6.808508387555682 13.831564298278698 13.265108188881637 0 0 0
3704 1 1 0 6.808473317783852 13.830138767156757 13.470135580355182 0 0 0
3705 1 1 0 6.843633208418403 13.795853969199722 13.671218440137777 0 0 0
4239 1 1 0 6.8856293056515865 12.614238253171871 13.756282518423243 0 0 0
4240 1 1 0 6.869330362097238 12.775737220250505 13.769669333111827 0 0 0
4241 1 1 0 6.847099824727521 12.932550366738557 13.790478996323355 0 0 0
4242 1 1 0 6.8255507308852055 13.090134406657798 13.814012742083948 0 0 0
4243 1 1 0 6.808103311630696 13.26507937986707 13.831218662760255 0 0 0
4244 1 1 0 6.809482590315026 13.470216435033464 13.831210912241552 0 0 0
4245 1 1 0 6.843837624459304 13.671229705878012 13.79606998938374 0 0 0
4286 1 1 0 6.968286242639153 13.796169239372531 13.796011634416 0 0 0
4287 1 1 0 7.169456612587739 13.830951847786736 13.831313395262733 0 0 0
4288 1 1 0 7.374577475621407 13.831239364546459 13.831235530263237 0 0 0
4289 1 1 0 7.549289128571899 13.814046367221213 13.814110815696786 0 0 0
4290 1 1 0 7.707131164529382 13.790447165729402 13.790501939095634 0 0 0
4291 1 1 0 7.864450337472161 13.769625471822634 13.769668628799344 0 0 0
4292 1 1 0 8.025701722569353 13.75625674552642 13.756254034515347 0 0 0
4293 1 1 0 8.189975445482462 13.750256108623296 13.750271522427173 0 0 0
4294 1 1 0 8.35463968191985 13.751048663834549 13.751019400565049 0 0 0
4295 1 1 0 8.518459422888258 13.753082991934868 13.753095512326063 0 0 0
4296 1 1 0 8.681254523846993 13.753373145901154 13.753349061866835 0 0 0
4297 1 1 0 8.845091364810528 13.751690922039597 13.751714346471783 0 0 0
4298 1 1 0 9.009636591647622 13.750524515354412 13.75052976173031 0 0 0
4299 1 1 0 9.174051973354928 13.756414770627066 13.75646079325726 0 0 0
4300 1 1 0 9.335583289984994 13.768813064086993 13.768830368286306 0 0 0
124 1 2 0 10.319289133690868 13.759953067762579 13.75990942912596 0 0 0
3719 1 1 0 10.320908507133773 13.759057446212623 12.613430708865803 0 0 0
3720 1 1 0 10.319496148598377 13.766827738924832 12.776360251960387 0 0 0
3721 1 1 0 10.318796067685161 13.779880831745713 12.938744966962787 0 0 0
3722 1 1 0 10.319708858118714 13.794501445927816 13.10114764451866 0 0 0
3723 1 1 0 10.3196772976416 13.803732503843262 13.26680727784 0 0 0
3724 1 1 0 10.32041438231752 13.80376400027873 13.437144208874289 0 0 0
3725 1 1 0 10.320044877560376 13.78864237329112 13.607574295342978 0 0 0
4259 1 1 0 10.319856577606224 12.613425896142259 13.757989784967203 0 0 0
4260 1 1 0 10.319856688562842 12.776494714520481 13.767277283937883 0 0 0
4261 1 1 0 10.319878765155325 12.938751573478905 13.780967476321836 0 0 0
4262 1 1 0 10.319856752454633 13.101047245915183 13.794642941108965 0 0 0
4263 1 1 0 10.319827292763929 13.266696270404575 13.803865229133434 0 0 0
4264 1 1 0 10.320100098310045 13.437071087570567 13.803393863164668 0 0 0
4265 1 1 0 10.319688356940857 13.60752176806832 13.788370208871688 0 0 0
4301 1 1 0 9.493333797280648 13.78894174078342 13.78898548322595 0 0 0
4302 1 1 0 9.651328428243252 13.812236516744754 13.81224504879109 0 0 0
4303 1 1 0 9.824835098098358 13.829259155553798 13.829266535841548 0 0 0
4304 1 1 0 10.026712357452933 13.829732029066706 13.82965697774747 0 0 0
4305 1 1 0 10.224897999678149 13.796957398459783 13.797066442935815 0 0 0
4306 1 1 0 10.415024528648797 13.797070982560946 13.797031833059712 0 0 0
4307 1 1 0 10.613033371608319 13.82855246920532 13.828409173793407 0 0 0
4308 1 1 0 10.814790277739911 13.829637460062802 13.829654815362815 0 0 0
4309 1 1 0 10.989004467357956 13.812412973270517 13.812409924119404 0 0 0
4310 1 1 0 11.146308407495956 13.791169338932741 13.791172416850891 0 0 0
4311 1 1 0 11.303123216184998 13.76977724218764 13.769753921352411 0 0 0
4312 1 1 0 11.465071754955492 13.753820179424618 13.753817417351632 0 0 0
4313 1 1 0 11.631386287213472 13.744090907203555 13.744028218262754 0 0 0
4314 1 1 0 11.794219500956252 13.746788133872792 13.746738325413117 0 0 0
4315 1 1 0 11.957908913097642 13.754853780092569 13.754754108611683 0 0 0
4316 1 1 0 12.122035856066823 13.765399133526165 13.765312707779213 0 0 0
4317 1 1 0 12.285152021515094 13.77352385482415 13.77341361258384 0 0 0
4318 1 1 0 12.44859369561142 13.775464819538582 13.775391879566 0 0 0
125 1 2 0 13.76031344079699 13.759068737238481 13.759036368747644 0 0 0
1205 1 1 0 13.796263845062066 13.723458535589309 13.84823103437273 0 0 0
3925 1 1 0 13.79627070026614 13.84828324407154 13.723413078371765 0 0 0
4319 1 1 0 12.614279627454593 13.765531954999865 13.765459009181784 0 0 0
4320 1 1 0 12.776224783942641 13.749224563146015 13.749200142039285 0 0 0
4321 1 1 0 12.932555514226916 13.726991546580404 13.726963031701276 0 0 0
4322 1 1 0 13.089862440117006 13.705505909989359 13.705520950848902 0 0 0
4323 1 1 0 13.265050912517099 13.687961170228535 13.687957354144148 0 0 0
4324 1 1 0 13.470019020709055 13.689531351334471 13.689529150928426 0 0 0
4325 1 1 0 13.671289870886561 13.723419507645454 13.72339293147571 0 0 0
3924 1 1 0 13.830685566431647 14.049471352066742 13.689504768551663 0 0 0
1204 1 1 0 13.830666806687718 13.689559845886887 14.049519325848655 0 0 0
3620 1 1 0 17.189521902736402 13.749503176516477 12.775749402750407 -1 0 0
3621 1 1 0 17.16806621480387 13.728039365720859 12.932507834109588 -1 0 0
3622 1 1 0 17.1455234756688 13.705457130513427 13.090066326401804 -1 0 0
3623 1 1 0 17.12821533664167 13.688128326781023 13.26501989666408 -1 0 0
3624 1 1 0 17.12890465902779 13.688920052399634 13.470161650601312 -1 0 0
3625 1 1 0 17.163622882981418 13.723518902019594 13.67128795562783 -1 0 0
3785 1 1 0 17.163533702166703 13.848355383074955 13.796029878140779 -1 0 0
3784 1 1 0 17.128953639099034 14.049463264647311 13.830753841443952 -1 0 0
3776 1 1 0 0.0060895340307562315 15.397947458594256 13.753770203331749 0 0 0
3778 1 1 0 0.012510978678818282 15.070397985624677 13.747310362629719 0 0 0
3779 1 1 0 0.004623260982275106 14.905568998353349 13.755173602134658 0 0 0
3775 1 1 0 0.0007651817755169746 15.561527021192708 13.759056585787235 0 0 0
3777 1 1 0 0.011189113528130278 15.23463718121758 13.748628193673076 0 0 0
3815 1 1 0 3.4336446307397823 15.561294417221905 13.753531427340121 0 0 0
3816 1 1 0 3.433664523043493 15.39832042113977 13.75351545645138 0 0 0
3817 1 1 0 3.431855857151675 15.234565786266366 13.751718528183526 0 0 0
3818 1 1 0 3.4305122691141614 15.070062805046874 13.750341805980332 0 0 0
3819 1 1 0 3.4363466022037406 14.905662159380162 13.756208170141493 0 0 0
3820 1 1 0 3.4490694652367853 14.74412947171293 13.768900236205894 0 0 0
3821 1 1 0 3.4691123049989923 14.586489666187886 13.788978197312389 0 0 0
3822 1 1 0 3.4924507960943996 14.428324809299836 13.812332695798474 0 0 0
3823 1 1 0 3.509339305279403 14.254860986273838 13.829268636258044 0 0 0
3915 1 1 0 13.759079355450414 15.561631153220256 13.755841288011524 0 0 0
3916 1 1 0 13.753691714044546 15.397851795328652 13.76517668934595 0 0 0
3917 1 1 0 13.74860480687542 15.234674941166043 13.772432305381388 0 0 0
3918 1 1 0 13.74724287712504 15.07040378256795 13.774767653725442 0 0 0
3919 1 1 0 13.755199423470199 14.905576964708947 13.765464790901625 0 0 0
3920 1 1 0 13.770072454374915 14.743648361251076 13.749559809811089 0 0 0
3921 1 1 0 13.791603584400741 14.587040392982919 13.726982495132319 0 0 0
3922 1 1 0 13.814108588581652 14.42967143123341 13.705642850032818 0 0 0
3923 1 1 0 13.831512562288617 14.254487314723105 13.687736880939436 0 0 0
3780 1 1 0 17.189492065439374 14.743928925775032 13.770070140660088 -1 0 0
3782 1 1 0 17.145460448587222 14.429430068875813 13.814119532940024 -1 0 0
3783 1 1 0 17.128141210855336 14.254548209666954 13.831427299673525 -1 0 0
3781 1 1 0 17.168012032722064 14.587071577141316 13.791535319186675 -1 0 0
3732 1 1 0 1.1459888447604365 17.19347395995687 13.760772880876948 0 -1 0
3733 1 1 0 1.3105252736688529 17.18439404036838 13.762147545774358 0 -1 0
3734 1 1 0 1.4746544370437478 17.186655679498127 13.761141519746495 0 -1 0
3766 1 1 0 17.199344132913055 17.036010227627095 13.759919904691584 -1 0 0
3770 1 1 0 0.000960540705920977 16.380770379121902 13.758824396410585 0 0 0
3771 1 1 0 0.0005830941262428125 16.21689172218396 13.759226151007411 0 0 0
3769 1 1 0 0.0003340532457079284 16.54455278386214 13.759441703294232 0 0 0
3735 1 1 0 1.6381903107779716 17.192903948014038 13.75900523846966 0 -1 0
3741 1 1 0 2.6188878437041376 17.19854792946716 13.780993361307045 0 -1 0
3742 1 1 0 2.781173460367005 17.199508389534106 13.794653379707672 0 -1 0
3740 1 1 0 2.4566587452759747 17.199211011906925 13.767233399318167 0 -1 0
2861 1 1 0 3.4600071445232774 17.198696927373174 12.938754727831828 0 -1 0
102 1 2 0 3.4399983102593477 17.199209221082178 13.759812163866174 0 -1 0
2860 1 1 0 3.44691830612542 17.19931553278844 12.77636790987564 0 -1 0
2862 1 1 0 3.4745438068788483 17.199537739031495 13.101094459038206 0 -1 0
2865 1 1 0 3.468515294850735 6.09298281162296e-06 13.607529955567129 0 0 0
3745 1 1 0 3.2875821174741824 0.00010152209036817794 13.78815734446066 0 0 0
3806 1 1 0 3.477089576465002 17.104754695926566 13.79680768865136 0 0 0
3807 1 1 0 3.5098619466108305 16.906670690018906 13.82970368250859 0 0 0
3808 1 1 0 3.509335061889064 16.704714837385175 13.829172370464466 0 0 0
3809 1 1 0 3.4924596462201105 16.5312815201049 13.81229532813376 0 0 0
3810 1 1 0 3.4691405108606967 16.373171686683488 13.788974855944998 0 0 0
3811 1 1 0 3.4490690178933283 16.215505323997903 13.768930622375118 0 0 0
3812 1 1 0 3.436379783117717 16.053946776433474 13.756219453099789 0 0 0
3813 1 1 0 3.430507001512325 15.889579790407437 13.750389913860593 0 0 0
3814 1 1 0 3.4318696887684483 15.725080735096165 13.751737090550845 0 0 0
2922 1 1 0 6.825672070060081 17.14540356971717 13.090175918811397 0 -1 0
2923 1 1 0 6.808521157037534 17.127954741972886 13.265205882416543 0 -1 0
2924 1 1 0 6.808462510444947 17.129459834841313 13.470191407682366 0 -1 0
3826 1 1 0 6.968422963071313 17.16347888530479 13.796045953115097 0 -1 0
3828 1 1 0 7.374553446462706 17.12832094818199 13.831195708603403 0 -1 0
2920 1 1 0 6.869989100238121 17.189153873270385 12.775757839466738 0 -1 0
2921 1 1 0 6.849237046258058 17.16692029009007 12.932563200046767 0 -1 0
2925 1 1 0 6.8437158162880705 17.163742298403577 13.671196288285671 0 -1 0
3827 1 1 0 7.169595744354914 17.128548558130195 13.83118948781671 0 -1 0
3829 1 1 0 7.549281603863907 17.14545629905988 13.814043439456704 0 -1 0
3830 1 1 0 7.707126507813133 17.169058355776926 13.790439375799535 0 -1 0
3831 1 1 0 7.8644611577998855 17.189858191496658 13.769623910791134 0 -1 0
3840 1 1 0 9.335593378733137 17.19074868401093 13.768803674689813 0 -1 0
2980 1 1 0 10.319510445550256 17.192763280504295 12.776461873148547 0 -1 0
2981 1 1 0 10.31881917401349 17.17973697090715 12.93878644518196 0 -1 0
2982 1 1 0 10.319697704741463 17.16512088623807 13.101122561219668 0 -1 0
2983 1 1 0 10.319680518224818 17.155875094320887 13.266788111331794 0 -1 0
3843 1 1 0 9.824842037223922 17.130331513183023 13.829193366567415 0 -1 0
3866 1 1 0 10.414832727665667 17.162578981629142 13.79729170224989 0 -1 0
3867 1 1 0 10.613009264374035 17.130966162722746 13.829513752856954 0 -1 0
2984 1 1 0 10.320238151685304 17.15590394492947 13.437087947367457 0 -1 0
2985 1 1 0 10.319931734856237 17.171085652971076 13.607529604339975 0 -1 0
3841 1 1 0 9.493242789810164 17.170629104815447 13.788916238635219 0 -1 0
3842 1 1 0 9.651284003237414 17.147345566194957 13.812178431984405 0 -1 0
3844 1 1 0 10.026740513030065 17.129904519792433 13.829670333135489 0 -1 0
3845 1 1 0 10.224918560590885 17.16245839590698 13.79693953093346 0 -1 0
3868 1 1 0 10.814915214025696 17.12994157374699 13.829248113153332 0 -1 0
3869 1 1 0 10.988736240450207 17.14718935474923 13.812253793832355 0 -1 0
3870 1 1 0 11.146433068264457 17.168488946296062 13.78896487694255 0 -1 0
3871 1 1 0 11.303636766000583 17.189940964746672 13.768955833040975 0 -1 0
3876 1 1 0 12.121522145495696 17.194671381625774 13.753571422798847 0 -1 0
3878 1 1 0 12.449078139807181 17.184245873923945 13.750418669672202 0 -1 0
3877 1 1 0 12.285119994940034 17.186754688582635 13.751766793733731 0 -1 0
2999 1 1 0 13.759784320008887 17.19922220856092 12.613382535477646 0 -1 0
3879 1 1 0 12.614201933669436 17.19397481988453 13.756271656978068 0 -1 0
3906 1 1 0 13.759858402811757 17.04741712564321 13.788041618730643 0 0 0
3907 1 1 0 13.760143394045736 16.87707518606972 13.803011927898371 0 0 0
3908 1 1 0 13.759636806454788 16.706678817701285 13.8039516040013 0 0 0
3909 1 1 0 13.759563060919913 16.54098003935113 13.794847415381405 0 0 0
3910 1 1 0 13.758714220871713 16.37867137579927 13.782041408856053 0 0 0
3911 1 1 0 13.759353087513537 16.216517076016153 13.767709932725685 0 0 0
3912 1 1 0 13.761130953260784 16.053795104628673 13.756716981051712 0 0 0
3913 1 1 0 13.763052719708835 15.888611404060624 13.748486824241505 0 0 0
3914 1 1 0 13.762269296600008 15.725731961229148 13.749809226520075 0 0 0
3755 1 1 0 15.561390379651268 17.192325060714907 13.759203114109749 0 -1 0
3756 1 1 0 15.398201086881073 17.193480243978993 13.754138377912295 0 -1 0
3757 1 1 0 15.234476167172767 17.1924844630478 13.749287528391761 0 -1 0
3759 1 1 0 14.90557040425397 17.19633745576105 13.755149903564003 0 -1 0
3758 1 1 0 15.070154389853217 17.190882908162337 13.747359769708442 0 -1 0
3753 1 1 0 15.889359089768584 17.18743445565585 13.7628149574535 0 -1 0
3754 1 1 0 15.725131752883199 17.189119801941235 13.762240487233273 0 -1 0
3773 1 1 0 17.196632128538226 15.889075241645838 13.762951047303494 -1 0 0
3774 1 1 0 17.197272777738533 15.725614124610503 13.76236219350028 -1 0 0
3752 1 1 0 16.05385180609362 17.19456265987079 13.760869716904411 0 -1 0
3767 1 1 0 17.19943091696895 16.872136388060312 13.760274008603634 -1 0 0
3768 1 1 0 17.199716225476664 16.708348452721268 13.75974995889759 -1 0 0
3772 1 1 0 17.198343357208028 16.053270942560108 13.761262252763952 -1 0 0
460 1 1 0 0.009168165123948493 3.4300751712420827 14.743609792003383 0 0 0
462 1 1 0 0.052474680097189426 3.387338205761178 14.428711467655791 0 0 0
461 1 1 0 0.02917669779296142 3.4086218524751506 14.586364950053339 0 0 0
463 1 1 0 0.06947706192024997 3.3700735816885654 14.254936181216424 0 0 0
535 1 1 0 6.885585434657632 3.4456088616478913 15.561503305940567 0 0 0
536 1 1 0 6.880650918161785 3.4406897788376134 15.397863442972435 0 0 0
537 1 1 0 6.877376046272101 3.437436902909629 15.234017468183284 0 0 0
538 1 1 0 6.877045999231202 3.4370673775515526 15.07041878797891 0 0 0
539 1 1 0 6.878662906475911 3.4387129750769914 14.906384322598683 0 0 0
540 1 1 0 6.880473786390587 3.440485095156579 14.742591135320199 0 0 0
541 1 1 0 6.88082333258827 3.440859348998964 14.578780473106548 0 0 0
542 1 1 0 6.880190040889932 3.4402783065038953 14.414964705436654 0 0 0
543 1 1 0 6.879767358833009 3.439953056327536 14.251170169133296 0 0 0
544 1 1 0 6.879560155381311 3.4395834150567315 14.087378793762346 0 0 0
575 1 1 0 10.319883961057698 3.4351771214487554 15.561593728465756 0 0 0
576 1 1 0 10.319878620322969 3.439123258463907 15.397859478378592 0 0 0
577 1 1 0 10.319882074370607 3.4413530565848163 15.23410251508785 0 0 0
578 1 1 0 10.319867194603901 3.4422235047316954 15.07019392520859 0 0 0
579 1 1 0 10.31987447897092 3.4410600671553717 14.906429713992685 0 0 0
580 1 1 0 10.319847842912159 3.439785114334674 14.742630557432536 0 0 0
581 1 1 0 10.319856781150394 3.4389623702405765 14.578916932004113 0 0 0
582 1 1 0 10.319846300339348 3.4398471107927593 14.415024647763524 0 0 0
583 1 1 0 10.319934185525971 3.4399051142889188 14.251236356449413 0 0 0
584 1 1 0 10.319810689143697 3.4399366281238155 14.087420966422789 0 0 0
456 1 1 0 17.19348744757036 3.4450260366898986 15.398045637587302 -1 0 0
458 1 1 0 17.190335249268795 3.455438289136045 15.0705809454267 -1 0 0
459 1 1 0 17.196207566607725 3.44569759168567 14.905459164763075 -1 0 0
455 1 1 0 17.19346659600994 3.4348352985816883 15.561574513174769 -1 0 0
457 1 1 0 17.191681458511223 3.452918467620086 15.23447421901753 -1 0 0
755 1 1 0 6.873427947652717 6.874259278081387 15.56144967005125 0 0 0
756 1 1 0 6.8745579268261015 6.879330556162974 15.398110622391236 0 0 0
757 1 1 0 6.874764384118538 6.882377528017942 15.234207419343429 0 0 0
758 1 1 0 6.874815704423171 6.882960624897779 15.07023415571689 0 0 0
759 1 1 0 6.879155061267095 6.880987917498558 14.906147136314557 0 0 0
760 1 1 0 6.886960881338653 6.879523380032334 14.74313559250178 0 0 0
761 1 1 0 6.899966586665492 6.878818070401295 14.580815945512 0 0 0
762 1 1 0 6.914560995824687 6.879685847749488 14.418545152449948 0 0 0
763 1 1 0 6.92376240305401 6.8796483065080025 14.252843625857412 0 0 0
764 1 1 0 6.923811375832615 6.880293657603807 14.082491360195064 0 0 0
815 1 1 0 10.326742412919373 6.885967001043712 15.561448017575584 0 0 0
816 1 1 0 10.325321417680275 6.880630317764997 15.398114867457009 0 0 0
817 1 1 0 10.3250116531001 6.877422113083669 15.234104934148252 0 0 0
818 1 1 0 10.32475061262539 6.876659240153207 15.070264015208862 0 0 0
819 1 1 0 10.320405199073729 6.878539951500429 14.906224503762553 0 0 0
820 1 1 0 10.312894174386807 6.880357527072222 14.743285587417846 0 0 0
821 1 1 0 10.299821689046158 6.880976243649601 14.580761258540676 0 0 0
822 1 1 0 10.285240394163099 6.880166041788506 14.418471413823301 0 0 0
823 1 1 0 10.27595264445693 6.880104284089369 14.252866031101735 0 0 0
824 1 1 0 10.275898230439068 6.879566326522074 14.082560610443629 0 0 0
935 1 1 0 3.4406598501165035 10.320574683190625 15.561697457696436 0 0 0
936 1 1 0 3.4455619442998264 10.325511566443772 15.398060949250853 0 0 0
937 1 1 0 3.450500811013391 10.330451937941376 15.234567173966585 0 0 0
938 1 1 0 3.4523420020680327 10.332303090141258 15.070435125594361 0 0 0
939 1 1 0 3.444615979255238 10.324570629800407 14.905453797562503 0 0 0
940 1 1 0 3.430370908040256 10.310307708848953 14.743562458811777 0 0 0
941 1 1 0 3.409722205308683 10.289628183112038 14.586363271160138 0 0 0
942 1 1 0 3.38736656913518 10.267263449711983 14.428629253364527 0 0 0
943 1 1 0 3.3702635583309064 10.25014597801614 14.254842499168609 0 0 0
995 1 1 0 10.319905906296047 10.319804545056716 15.561663999121777 0 0 0
996 1 1 0 10.319889825154393 10.319824363439533 15.39781827033535 0 0 0
997 1 1 0 10.31986550024199 10.31985046801081 15.234008370091807 0 0 0
998 1 1 0 10.319851479422908 10.319866822977538 15.070259049969208 0 0 0
999 1 1 0 10.319826195691583 10.319861864153093 14.906474169021974 0 0 0
1000 1 1 0 10.31980973898845 10.319855278562938 14.742641168947442 0 0 0
1001 1 1 0 10.319822499522237 10.319851311292135 14.57885443306252 0 0 0
1002 1 1 0 10.319917186180236 10.319856724878814 14.41510343354873 0 0 0
1003 1 1 0 10.320065584526018 10.319848802506064 14.25130480283053 0 0 0
1004 1 1 0 10.31998821403391 10.319933173924225 14.087461626653708 0 0 0
1035 1 1 0 13.76460424485016 10.319210490747881 15.561618439731935 0 0 0
1036 1 1 0 13.76060394483822 10.312959967892105 15.39795483263695 0 0 0
1037 1 1 0 13.758469513582678 10.306721360068927 15.23440446024909 0 0 0
1038 1 1 0 13.757445568236063 10.304430282270564 15.07032105305802 0 0 0
1039 1 1 0 13.758814748529806 10.313555799748846 14.905838891451873 0 0 0
1040 1 1 0 13.759826135618141 10.33139951211604 14.743140805867602 0 0 0
1041 1 1 0 13.760873318807914 10.357198463726911 14.58447773577525 0 0 0
1042 1 1 0 13.759711023297635 10.385126745729416 14.425221256852 0 0 0
1043 1 1 0 13.760134245574834 10.406483249188518 14.253343289017405 0 0 0
1195 1 1 0 13.759065045133013 13.755803543044742 15.561542120115606 0 0 0
1196 1 1 0 13.75370167857174 13.765179031098146 15.397780930348043 0 0 0
1197 1 1 0 13.748594482553633 13.772415297082974 15.234678136439003 0 0 0
1198 1 1 0 13.747237927801063 13.774785584332573 15.070492031322642 0 0 0
1199 1 1 0 13.755192827425631 13.765465297900281 14.905573008348691 0 0 0
1200 1 1 0 13.770049440744772 13.749604492310144 14.743666716523425 0 0 0
1201 1 1 0 13.791568287864651 13.72701344816533 14.587064824392069 0 0 0
1202 1 1 0 13.814103615044312 13.705692095785935 14.429613805002546 0 0 0
1203 1 1 0 13.831480577387614 13.687784187003249 14.254526650281381 0 0 0
126 1 1 0 0.050777625538860206 0.10723633162502659 0.00015648021248537702 0 0 0
129 1 1 0 0.06540490059467516 0.6652876764447654 17.199737406452947 0 0 -1
128 1 1 0 0.08626404521031202 0.49368741412270867 17.19975559621321 0 0 -1
130 1 1 0 0.03624579097072366 0.8246988280911736 17.199723770905546 0 0 -1
131 1 1 0 0.011503660223311176 0.9836334638109393 17.199717030015467 0 0 -1
187 1 1 0 3.7296209934628024 0.0711836647098036 17.128277345966705 0 0 -1
189 1 1 0 4.1092680713459 0.05423041278380359 17.145497090647304 0 0 -1
190 1 1 0 4.267116290394628 0.030660169219369027 17.16907581636813 0 0 -1
191 1 1 0 4.424459319368402 0.009853923829974853 17.18992719092178 0 0 -1
186 1 1 0 3.528464448529278 0.036249450139538425 17.16360808842449 0 0 -1
188 1 1 0 3.9346623287015605 0.07138007820512045 17.12837213459608 0 0 -1
200 1 1 0 5.895550198365988 0.009006671515021394 17.190764168170826 0 0 -1
202 1 1 0 6.211423334529358 0.05244203721867154 17.14736015430134 0 0 -1
201 1 1 0 6.053356890951426 0.029130012002319013 17.170640113064362 0 0 -1
204 1 1 0 6.586769387841613 0.0697089470981395 17.129759249387227 0 0 -1
250 1 1 0 7.706441128219993 0.03132353209233225 17.170588057642618 0 0 -1
247 1 1 0 7.173075634201907 0.06876897425537384 17.12990142773368 0 0 -1
203 1 1 0 6.384857157275023 0.06951987330656478 17.13039342000815 0 0 -1
205 1 1 0 6.785025232562708 0.037595621974000536 17.162745602575065 0 0 -1
249 1 1 0 7.5487382191050445 0.05262916871120116 17.147319863334186 0 0 -1
246 1 1 0 6.974854091100081 0.03739756065424562 17.162626794498546 0 0 -1
248 1 1 0 7.374911420917178 0.06988815002022032 17.130386049594055 0 0 -1
251 1 1 0 7.863661597178462 0.009838446828318012 17.190604522499573 0 0 -1
327 1 1 0 10.31969424368907 0.3227241437937535 17.156202324908275 0 0 -1
328 1 1 0 10.319940228986841 0.4930801345847111 17.155533781619113 0 0 -1
330 1 1 0 10.31988986291844 0.8211332952221008 17.17760599353682 0 0 -1
331 1 1 0 10.31988514911215 0.9832372999940897 17.19239160669312 0 0 -1
326 1 1 0 10.319969335736223 0.15241834080260805 17.17177708895784 0 0 -1
329 1 1 0 10.319894401021797 0.6588320957050595 17.165004466710062 0 0 -1
366 1 1 0 13.759832245960233 0.15227819907704632 17.170888417210115 0 0 -1
370 1 1 0 13.759820425910025 0.8212079681794648 17.179622725171168 0 0 -1
367 1 1 0 13.75995165113907 0.3227129462569991 17.155901092035755 0 0 -1
368 1 1 0 13.759837216688524 0.49308708330215123 17.155900342294025 0 0 -1
369 1 1 0 13.759834434374959 0.6587144780190876 17.164860911716094 0 0 -1
371 1 1 0 13.759795668736556 0.9833441258032695 17.192344579135604 0 0 -1
133 1 1 0 17.186783532279733 1.3103490178309725 17.199716778607705 -1 0 -1
132 1 1 0 17.19444193059685 1.1458453457057123 17.199717412694998 -1 0 -1
134 1 1 0 17.187981425936634 1.4746225310370036 17.199720795568286 -1 0 -1
140 1 1 0 0.006837011002793407 2.4565103255905147 17.199740852980902 0 0 -1
144 1 1 0 0.04411239177308681 3.1171860536698857 17.19969107436241 0 0 -1
141 1 1 0 0.01998775884221978 2.618943465036573 17.19973344323535 0 0 -1
142 1 1 0 0.03460175588965828 2.7812233012511975 17.199734660674817 0 0 -1
143 1 1 0 0.04398831372982782 2.946839019767915 17.199735753087364 0 0 -1
338 1 1 0 10.31983317187046 2.1292141694649462 17.189238242671003 0 0 -1
339 1 1 0 10.31983448178978 2.2936102119227892 17.196970233259833 0 0 -1
336 1 1 0 10.319851231237688 1.8018672311485118 17.19577980281358 0 0 -1
337 1 1 0 10.319827276420384 1.9655572096521527 17.190820272270965 0 0 -1
380 1 1 0 13.759811430494818 2.4566015048104384 17.19235758665973 0 0 -1
384 1 1 0 13.759901831271117 3.117273953202247 17.156162058642707 0 0 -1
381 1 1 0 13.75983078608228 2.6187579224975384 17.179681185740574 0 0 -1
382 1 1 0 13.759833400375008 2.7812389265946904 17.164891101638375 0 0 -1
383 1 1 0 13.759832543786926 2.946917176758321 17.155917226631313 0 0 -1
136 1 1 0 17.19431715707656 1.8016589150023392 17.199731042714316 -1 0 -1
139 1 1 0 17.19924475145298 2.2935233288334684 17.19974868969283 -1 0 -1
138 1 1 0 17.19516136854931 2.1296429633861678 17.1997383030942 -1 0 -1
135 1 1 0 17.192179235110817 1.6382639016270464 17.19972503763986 -1 0 -1
137 1 1 0 17.19547528231617 1.9655875056573022 17.199739257484648 -1 0 -1
145 1 1 0 0.028920010877780324 3.28772009038281 17.19971860319902 0 0 -1
6 1 2 0 0.00014003820319787944 3.440123052840179 17.199707826689842 0 0 -1
447 1 1 0 0.06978054789842474 3.5086171502257164 16.906605437067864 0 0 0
446 1 1 0 0.037304168974880605 3.477090321498122 17.104708704862723 0 0 0
448 1 1 0 0.06943731765760429 3.509806672393774 16.704747043655903 0 0 0
449 1 1 0 0.052422815222126086 3.492541359154806 16.530866234657097 0 0 0
450 1 1 0 0.029129663610406246 3.471263470725039 16.373213562128033 0 0 0
451 1 1 0 0.009098476876884882 3.4498019949974403 16.215970971303022 0 0 0
466 1 1 0 7.032290030058435 3.4117204897613806 0.0001888561378748932 0 0 0
487 1 1 0 6.836445460277161 3.7626865205443605 2.7117978614654703e-05 0 0 0
490 1 1 0 6.857692975178494 4.2610436942365 17.19972974718252 0 0 -1
8 1 2 0 6.8796230005513594 3.4397849925862642 17.199498225684362 0 0 -1
469 1 1 0 7.538705123017789 3.4050009226609563 17.19955608947253 0 0 -1
470 1 1 0 7.700936185207466 3.417766399016427 17.198671173580102 0 0 -1
488 1 1 0 6.8355601262309245 3.9330382725192594 17.199685516288685 0 0 -1
489 1 1 0 6.8450442824797015 4.098791443966184 17.19973004874791 0 0 -1
491 1 1 0 6.872451174648473 4.423196340120037 17.199757109862592 0 0 -1
526 1 1 0 6.842341534299323 3.4026148825000355 17.104890234632148 0 0 0
527 1 1 0 6.81064106901599 3.370807900679219 16.906560240368524 0 0 0
528 1 1 0 6.81024900440046 3.370316733510062 16.704633691101932 0 0 0
529 1 1 0 6.827345521055169 3.3873641155533347 16.530925863474447 0 0 0
530 1 1 0 6.849699406868771 3.409683852121188 16.373222140458676 0 0 0
531 1 1 0 6.870391411787572 3.4303719213995465 16.21589159214275 0 0 0
532 1 1 0 6.884653432887176 3.4446085921179606 16.05399368118694 0 0 0
533 1 1 0 6.892368519055289 3.452354844540898 15.889122483227949 0 0 0
534 1 1 0 6.890520191978032 3.450526596027775 15.72502482958852 0 0 0
477 1 1 0 8.845060157644166 3.4280026274608026 17.18918377954449 0 0 -1
479 1 1 0 9.174056396343083 3.434206978485544 17.195053652152755 0 0 -1
471 1 1 0 7.863083225983108 3.4321987231052002 17.199364972909663 0 0 -1
476 1 1 0 8.681811000446455 3.435012085530059 17.194057420913282 0 0 -1
478 1 1 0 9.009099752267906 3.4250310587212 17.187251241814664 0 0 -1
9 1 2 0 10.319956817668006 3.4401538498426505 0.00018548901816473062 0 0 0
566 1 1 0 10.320012013337399 3.4685932987497945 17.04746829278 0 0 0
567 1 1 0 10.31988489283961 3.483542664172425 16.87703413078879 0 0 0
568 1 1 0 10.319861410776724 3.484089913426692 16.706655708334942 0 0 0
569 1 1 0 10.319881821856573 3.474835548943286 16.540954721590683 0 0 0
570 1 1 0 10.319871480576982 3.461089553480976 16.378688754401608 0 0 0
571 1 1 0 10.319876781478623 3.447395664576464 16.21650133157804 0 0 0
572 1 1 0 10.3198759722025 3.4380844344922945 16.053466056319813 0 0 0
573 1 1 0 10.319877498527614 3.4318237397570264 15.889209731063067 0 0 0
574 1 1 0 10.319878692189167 3.4323612903917042 15.725392311050712 0 0 0
552 1 1 0 11.465449588028285 3.43635494377735 17.193993542240772 0 0 -1
553 1 1 0 11.630638632666594 3.4304489752059206 17.18428627793468 0 0 -1
554 1 1 0 11.794538429114944 3.4318566730681535 17.186770591058337 0 0 -1
555 1 1 0 11.95808304002387 3.433640992262991 17.19469493361042 0 0 -1
445 1 1 0 13.85476594141465 3.477394077077444 17.162422436867235 0 0 -1
560 1 1 0 12.776011247136076 3.449141656648734 17.189855449959907 0 0 -1
444 1 1 0 14.053027216459895 3.509627938123662 17.13064841601846 0 0 -1
385 1 1 0 13.759816177889292 3.2877043621842073 17.170848615613366 0 0 -1
561 1 1 0 12.933247065050471 3.469135485708503 17.168418834078505 0 0 -1
562 1 1 0 13.090976706264048 3.4924491084490543 17.147109879552968 0 0 -1
563 1 1 0 13.264785500383688 3.509396725840175 17.129914160704367 0 0 -1
564 1 1 0 13.466654825409234 3.5097853682543336 17.130947656907846 0 0 -1
565 1 1 0 13.664767139868873 3.4772572279856067 17.162580038942817 0 0 -1
435 1 1 0 15.561530907980378 3.4345629558633854 0.0006027966946895447 0 0 0
441 1 1 0 14.586566845443993 3.469094147499832 17.169580713017947 0 0 -1
442 1 1 0 14.42850493617546 3.4926250648866013 17.147243735347757 0 0 -1
443 1 1 0 14.25493871934532 3.50923170180832 17.130157514841752 0 0 -1
440 1 1 0 14.743802544955601 3.449405169479438 17.190299440319315 0 0 -1
427 1 1 0 16.876995468690136 3.4838003254527776 17.19944840522595 0 0 -1
433 1 1 0 15.889416120494621 3.434823826047973 17.196721292070325 0 0 -1
434 1 1 0 15.725425509545207 3.4348108396207855 17.197338750003855 0 0 -1
453 1 1 0 17.19028390946918 3.424429042989232 15.88904409305166 -1 0 0
428 1 1 0 16.706685881967893 3.483886407324772 8.925464855735754e-05 0 0 0
432 1 1 0 16.053432243711697 3.4392035614558565 17.19868605036618 0 0 -1
452 1 1 0 17.196144502352126 3.434184179071741 16.054206461634312 -1 0 0
454 1 1 0 17.19164854184027 3.4269449763034507 15.72517918517409 -1 0 0
497 1 1 0 6.87094678045824 5.405551127501274 4.29376390691516e-05 0 0 0
502 1 1 0 6.9147102794438355 6.221161883451624 17.19973502886987 0 0 -1
493 1 1 0 6.890402296469169 4.750683573649055 1.4091085130729653e-05 0 0 0
495 1 1 0 6.883847706879269 5.0780318418072525 3.0335394828995277e-05 0 0 0
501 1 1 0 6.902087022449698 6.058854719416217 7.282641412587054e-06 0 0 0
606 1 1 0 0.0362623812392897 6.968346392051048 17.16351909845333 0 0 -1
607 1 1 0 0.07144229657413394 7.169529503216035 17.12843588642971 0 0 -1
11 1 2 0 0.0007300374464128363 6.87945197107485 17.1989734481277 0 0 -1
608 1 1 0 0.07142132605148654 7.374632384153523 17.12831569158463 0 0 -1
610 1 1 0 0.030640663087692446 7.70719881511876 17.169061424978054 0 0 -1
609 1 1 0 0.054264307871491994 7.5492982750520845 17.14546587094102 0 0 -1
666 1 1 0 3.5285126000472453 6.843566757503637 17.16345309789122 0 0 -1
667 1 1 0 3.7297430788488812 6.8095209610637175 17.129064918132027 0 0 -1
668 1 1 0 3.9347193491165764 6.807832739316148 17.12819081650947 0 0 -1
689 1 1 0 3.3857466364944675 7.549688604964451 17.145318318507265 0 0 -1
669 1 1 0 4.109805942082476 6.825705858099678 17.14553121147004 0 0 -1
670 1 1 0 4.267217553857637 6.847013201162971 17.16801307948266 0 0 -1
671 1 1 0 4.423812329634344 6.869594021611237 17.189483613636444 0 0 -1
686 1 1 0 3.4035722958127086 6.968380366832339 17.16343562761062 0 0 -1
687 1 1 0 3.36921126639392 7.1695653827687345 17.12960791627918 0 0 -1
688 1 1 0 3.368379105534558 7.374576026712938 17.127975603541444 0 0 -1
690 1 1 0 3.4082712636509425 7.70720357865923 17.16675398023674 0 0 -1
676 1 1 0 5.24172670737966 6.875886083099763 0.0006993767333831613 0 0 0
677 1 1 0 5.405841698265341 6.869873631741302 17.19726752088153 0 0 -1
678 1 1 0 5.568792088371432 6.8685269785114995 17.196523933648667 0 0 -1
679 1 1 0 5.7340184918509625 6.876793438081385 17.19841904672334 0 0 -1
505 1 1 0 6.907927384516883 6.7275510521214565 17.199672842790136 0 0 -1
684 1 1 0 6.557123876928804 6.923099897578387 17.199329461856788 0 0 -1
13 1 2 0 6.8800932508946255 6.880188618601144 9.244533311658643e-05 0 0 0
503 1 1 0 6.924168212901016 6.38684939015239 17.199758704360285 0 0 -1
504 1 1 0 6.923251623150458 6.557221116184397 17.19961331561799 0 0 -1
683 1 1 0 6.3867485816358 6.92413393166738 9.00291201268999e-05 0 0 0
746 1 1 0 6.91772086704816 6.917293978267383 17.104969030880323 0 0 0
747 1 1 0 6.9493031460848815 6.94916388143044 16.90657848225982 0 0 0
748 1 1 0 6.949157673337965 6.9495798515040415 16.704632009042502 0 0 0
749 1 1 0 6.932523604299959 6.9324760472898035 16.531032233748647 0 0 0
750 1 1 0 6.909030038012274 6.9101245532586555 16.37303595461634 0 0 0
751 1 1 0 6.889338912753965 6.889403538589319 16.215810402197963 0 0 0
752 1 1 0 6.876240804654115 6.875253426275729 16.054153695823782 0 0 0
753 1 1 0 6.869773483152685 6.867453155724386 15.889334836017946 0 0 0
754 1 1 0 6.8707402358962355 6.8693981601424055 15.72504944713815 0 0 0
806 1 1 0 10.283440393371597 6.843820529671958 17.111248902129766 0 0 0
807 1 1 0 10.248514655419173 6.8089569666877585 16.910148484032707 0 0 0
808 1 1 0 10.248540211900725 6.808306806336206 16.704990059505498 0 0 0
809 1 1 0 10.26538024578778 6.825592747875874 16.530212330774006 0 0 0
810 1 1 0 10.289157985325762 6.848178740363404 16.372353437494276 0 0 0
811 1 1 0 10.309634553185635 6.869668719371577 16.21551419745122 0 0 0
812 1 1 0 10.323406695854366 6.884509162012884 16.054115912533767 0 0 0
813 1 1 0 10.330043235192209 6.892422582568505 15.889410259049288 0 0 0
814 1 1 0 10.32964264287646 6.891093169829694 15.724983246680232 0 0 0
772 1 1 0 11.46556178311443 6.883267964359839 17.195120510568582 0 0 -1
775 1 1 0 11.958242068391003 6.886626407197176 17.193708320687126 0 0 -1
776 1 1 0 12.121423519654542 6.8874763505120296 17.199033963372873 0 0 -1
773 1 1 0 11.630089082305894 6.888905400158094 17.18723307164669 0 0 -1
774 1 1 0 11.794542454078805 6.887867778640994 17.188568793940338 0 0 -1
780 1 1 0 12.776000549908233 6.8687653955509775 17.19931008746268 0 0 -1
785 1 1 0 13.652390220583733 6.829471733515707 3.217129392041329e-05 0 0 0
830 1 1 0 13.760719532649162 7.698951691387289 17.198835249342167 0 0 -1
664 1 1 0 14.059515664125986 6.792284038246342 17.19942174282687 0 0 -1
781 1 1 0 12.935216158340435 6.843613141996336 17.19868389073567 0 0 -1
782 1 1 0 13.09450637971166 6.814768648831609 17.199575889559814 0 0 -1
826 1 1 0 13.759306768954158 7.04372056293013 0.0002957797568505782 0 0 0
829 1 1 0 13.760154220654266 7.535111213972544 17.19937060996106 0 0 -1
658 1 1 0 15.070213353446535 6.892032636984424 17.19654678466695 0 0 -1
659 1 1 0 14.905694178064127 6.88483484314088 17.198447689282727 0 0 -1
663 1 1 0 14.253355648002362 6.793575663803377 0.0002259788114891137 0 0 0
657 1 1 0 15.234391958323194 6.89050712332673 17.19728500543906 0 0 -1
646 1 1 0 17.11123061767836 6.843761164744286 17.163615382979 0 0 -1
648 1 1 0 16.704952970689888 6.808469227125931 17.12813862609908 0 0 -1
651 1 1 0 16.215378127252354 6.870205669408366 17.1895230427524 0 0 -1
647 1 1 0 16.910076937202902 6.8084423838447545 17.12883986375808 0 0 -1
649 1 1 0 16.530149354386474 6.825773633619925 17.14542820395071 0 0 -1
650 1 1 0 16.372507329889977 6.849392735966625 17.16799769521944 0 0 -1
611 1 1 0 0.009818711220376693 7.864549319193877 17.18989206567472 0 0 -1
620 1 1 0 0.00903240610317975 9.335611022882011 17.190736740527754 0 0 -1
691 1 1 0 3.429756872338721 7.863762723369279 17.18896213042108 0 0 -1
696 1 1 0 3.440709907616525 8.681760669791272 17.19362007871222 0 0 -1
697 1 1 0 3.437505764147646 8.84555671008 17.184171674810823 0 0 -1
698 1 1 0 3.4367420044817756 9.008695397696009 17.18112054562307 0 0 -1
699 1 1 0 3.438635944325317 9.174170848306312 17.192152219555357 0 0 -1
792 1 1 0 10.324464007244282 8.025608982249242 17.196407380362547 0 0 -1
794 1 1 0 10.33107353657633 8.35467285425441 17.19180573044437 0 0 -1
795 1 1 0 10.325995665157382 8.518360700908215 17.19305238036214 0 0 -1
796 1 1 0 10.32066475169486 8.681428505098673 17.19214845962112 0 0 -1
793 1 1 0 10.33241393596149 8.190164783218243 17.19081998501597 0 0 -1
797 1 1 0 10.317478514613589 8.845390083636657 17.18909022583801 0 0 -1
798 1 1 0 10.316703784241259 9.009542744181212 17.18755144777844 0 0 -1
799 1 1 0 10.318581528348851 9.173987957776417 17.19476048379706 0 0 -1
831 1 1 0 13.760349436547793 7.862742619236335 17.199231266715937 0 0 -1
837 1 1 0 13.770348827846687 8.845084055727224 17.1892521884878 0 0 -1
838 1 1 0 13.772211025116968 9.009146410223153 17.187388960518096 0 0 -1
839 1 1 0 13.76447788081708 9.174095318630343 17.19512283077234 0 0 -1
836 1 1 0 13.765428348117215 8.681655778837484 17.194169657464816 0 0 -1
624 1 1 0 0.06992268255370734 10.026674445465542 17.130043895436323 0 0 -1
846 1 1 0 0.037180982658161985 10.414824042024126 17.162442304782004 0 0 -1
848 1 1 0 0.06963085526057401 10.81490139979118 17.13016245666095 0 0 -1
621 1 1 0 0.029177472024658976 9.493341238545154 17.170622004267607 0 0 -1
625 1 1 0 0.037205554664938294 10.224889552574318 17.16241264970627 0 0 -1
847 1 1 0 0.0693965000225747 10.61299325458005 17.13058027634008 0 0 -1
622 1 1 0 0.052407039954603545 9.651265086467786 17.147368301173483 0 0 -1
623 1 1 0 0.0694202749346032 9.824713044816452 17.130346671854962 0 0 -1
926 1 1 0 3.4396460017708796 10.319389569185866 17.03599686823964 0 0 0
927 1 1 0 3.4397814753831053 10.319639144475701 16.87215920477181 0 0 0
928 1 1 0 3.439963830109137 10.319816067930935 16.70834259493021 0 0 0
929 1 1 0 3.440355821534605 10.320218183942796 16.544512746875522 0 0 0
930 1 1 0 3.4409022443223627 10.320770765853672 16.380712088391057 0 0 0
931 1 1 0 3.44052614367515 10.320401640897812 16.21688405876679 0 0 0
932 1 1 0 3.4387217160613033 10.318620830762159 16.053241650132406 0 0 0
933 1 1 0 3.4370784423570484 10.316956509381438 15.889144519375412 0 0 0
934 1 1 0 3.4373955625983403 10.3173280639962 15.725528119443673 0 0 0
18 1 2 0 6.88031339703017 10.3199550411498 17.194236152521416 0 0 -1
986 1 1 0 10.319849357534641 10.319933452510407 17.036003258979385 0 0 0
987 1 1 0 10.319748271390353 10.320002213887083 16.87218299607846 0 0 0
988 1 1 0 10.319854239078031 10.319827670941297 16.708393256977438 0 0 0
989 1 1 0 10.3198779299003 10.319842403826573 16.544552824183228 0 0 0
990 1 1 0 10.319890990489936 10.319828568779098 16.380692255949445 0 0 0
991 1 1 0 10.319888417087306 10.319824703979457 16.216858823119097 0 0 0
992 1 1 0 10.319900714727597 10.319817201277065 16.053099467059184 0 0 0
993 1 1 0 10.31991024577874 10.319803633576617 15.88932923993665 0 0 0
994 1 1 0 10.319916926262103 10.319802144505665 15.725457436638433 0 0 0
20 1 2 0 13.759600601713764 10.31958545324464 0.00014649431946622826 0 0 0
1026 1 1 0 13.731298161446066 10.319974950662228 17.047453108268588 0 0 0
1027 1 1 0 13.716286165981684 10.320182357555687 16.877026714739696 0 0 0
1028 1 1 0 13.71573988397801 10.319724699682606 16.706621965749456 0 0 0
1029 1 1 0 13.724982515503612 10.319605384016468 16.541024151185347 0 0 0
1030 1 1 0 13.738669606543 10.318640270752036 16.37873900394586 0 0 0
1031 1 1 0 13.752426545735187 10.319354533170051 16.216378332922524 0 0 0
1032 1 1 0 13.761638950971067 10.321128454121334 16.05344961116762 0 0 0
1033 1 1 0 13.767981393720667 10.323482074123483 15.889080138826131 0 0 0
1034 1 1 0 13.767408458470516 10.32309428422809 15.725519899410509 0 0 0
896 1 1 0 15.397802543234086 10.319837858343002 17.195768587949367 0 0 -1
897 1 1 0 15.234168002529472 10.319854072121831 17.190771325927706 0 0 -1
898 1 1 0 15.070550816715455 10.31984901192075 17.189229475536482 0 0 -1
899 1 1 0 14.906134631717087 10.319864320845648 17.19693442370363 0 0 -1
887 1 1 0 16.877080084912567 10.319897535990671 17.156244217664018 0 0 -1
889 1 1 0 16.540885164316688 10.31982742235675 17.1649658375496 0 0 -1
890 1 1 0 16.378626343494748 10.319829376264694 17.177587741592568 0 0 -1
891 1 1 0 16.21651469926697 10.319827405837156 17.192319035442623 0 0 -1
886 1 1 0 17.047362895546712 10.319784986711621 17.17175808826247 0 0 -1
888 1 1 0 16.70664963848467 10.31980700834681 17.15554548505152 0 0 -1
851 1 1 0 0.009580057587925093 11.303743681428692 17.190206692899153 0 0 -1
857 1 1 0 0.00262382969777695 12.285635474767048 17.19716416990521 0 0 -1
850 1 1 0 0.030216374571798436 11.146441221643107 17.169577458828467 0 0 -1
856 1 1 0 17.199021552634385 12.121736516092971 0.0007418190442791683 -1 0 0
858 1 1 0 0.0028675534879613273 12.44926933071026 17.196923591768986 0 0 -1
849 1 1 0 0.05258369832494368 10.988686779937787 17.147217287403052 0 0 -1
912 1 1 0 3.4410331908193856 11.46573764662409 17.192410469975673 0 0 -1
913 1 1 0 3.442996380924171 11.63086507432396 17.181353136593092 0 0 -1
915 1 1 0 3.4393545070456555 11.957855335153786 17.193476775028643 0 0 -1
914 1 1 0 3.4423995823213414 11.794334185378357 17.184220904569738 0 0 -1
972 1 1 0 10.31985832653244 11.465999764722014 17.19251145782146 0 0 -1
974 1 1 0 10.31981303632079 11.794498275956657 17.185319529725557 0 0 -1
975 1 1 0 10.319845722085919 11.957847373996767 17.193616502558825 0 0 -1
973 1 1 0 10.31985930257982 11.630536003320282 17.181932343545316 0 0 -1
1012 1 1 0 13.764520235491013 11.465575745184482 17.19607373197389 0 0 -1
1014 1 1 0 13.77034804939725 11.794694054818784 17.19060164893401 0 0 -1
1016 1 1 0 13.760397881982682 12.121518986004343 17.194435129456952 0 0 -1
1017 1 1 0 13.7573281506249 12.285412319733682 17.194684529321876 0 0 -1
1013 1 1 0 13.77230090433844 11.630402572686917 17.189656447577466 0 0 -1
1015 1 1 0 13.765470775280724 11.9582316980097 17.19334433894222 0 0 -1
1018 1 1 0 13.756733401547404 12.449408957070192 17.19470206555955 0 0 -1
859 1 1 0 0.0013259085600475819 12.613233514440871 17.19847694055589 0 0 -1
1052 1 1 0 1.1465692832736327 13.759777076475913 17.198721574930385 0 0 -1
1053 1 1 0 1.310363686613514 13.759766580246499 17.19744812777652 0 0 -1
1054 1 1 0 1.4742609621584277 13.759784126758142 17.198366637630674 0 0 -1
863 1 1 0 17.19975724884876 13.268443894657029 17.199730462088514 -1 0 -1
864 1 1 0 0.00028333984344323655 13.432205161076123 17.19962415052838 0 0 -1
1047 1 1 0 0.32765571979290836 13.759895020560403 17.199471008018534 0 0 -1
1048 1 1 0 0.49144986109868705 13.75982718936187 1.3454810847690624e-05 0 0 0
1061 1 1 0 2.6189043211878036 13.759848185282832 17.178649118188723 0 0 -1
1062 1 1 0 2.7812451763881683 13.75984861867831 17.16494178398277 0 0 -1
1064 1 1 0 3.1172524595262936 13.759714835418398 17.156220294265722 0 0 -1
1060 1 1 0 2.456676885625539 13.759861507841924 17.19232710020003 0 0 -1
1063 1 1 0 2.9468402319798734 13.759809494781251 17.155724923807682 0 0 -1
245 1 1 0 3.4771203875838106 13.854781035293563 17.162274661427727 0 0 -1
920 1 1 0 3.449483234142046 12.776196468793728 17.189706935931838 0 0 -1
922 1 1 0 3.492482460092076 13.090790978678914 17.14708727784853 0 0 -1
923 1 1 0 3.50964056060364 13.264778707271159 17.12995776629331 0 0 -1
925 1 1 0 3.477661236430094 13.664790536317051 17.162711089159302 0 0 -1
1065 1 1 0 3.28761001125476 13.760012207342767 17.171172881355574 0 0 -1
921 1 1 0 3.4702193721838346 12.933220593569878 17.168256284016916 0 0 -1
924 1 1 0 3.5091274757058373 13.466612693554216 17.13112614478997 0 0 -1
244 1 1 0 3.508680519975697 14.052966209123275 17.12991280614504 0 0 -1
1106 1 1 0 6.968524752215476 13.72357750454798 17.163591201621053 0 0 -1
1108 1 1 0 7.3745491600152935 13.687935541795031 17.128374919851417 0 0 -1
304 1 1 0 6.809232717147053 14.049406192298818 17.128419984356714 0 0 -1
305 1 1 0 6.8436510188662085 13.848281501469021 17.16342337318385 0 0 -1
1107 1 1 0 7.169575791932233 13.689502445612566 17.128307873120132 0 0 -1
1109 1 1 0 7.5496113113070304 13.705427301112277 17.14553426470992 0 0 -1
1110 1 1 0 7.707226453755915 13.72698798121042 17.16908731544735 0 0 -1
1111 1 1 0 7.864031871365099 13.749223028128723 17.189882194091176 0 0 -1
1120 1 1 0 9.336010979265845 13.769747823094054 17.19071180282083 0 0 -1
981 1 1 0 10.31989934165296 12.938778136553196 17.177363967078293 0 0 -1
983 1 1 0 10.319925774151033 13.266652248894566 17.155557926514174 0 0 -1
985 1 1 0 10.319809244094305 13.607464824199804 17.17133536130881 0 0 -1
1123 1 1 0 9.82477904695734 13.829692002857481 17.130234902403153 0 0 -1
1125 1 1 0 10.224989184707411 13.797066456940648 17.161940223043413 0 0 -1
24 1 2 0 10.319942738287565 13.760128671258142 17.199462075581934 0 0 -1
980 1 1 0 10.31986703199186 12.77668136098069 17.19185446270161 0 0 -1
982 1 1 0 10.31987623607312 13.10101166220627 17.164711284680315 0 0 -1
984 1 1 0 10.319707376304919 13.437031481776783 17.15654797459086 0 0 -1
1121 1 1 0 9.493348864542455 13.791161479483302 17.17060040899297 0 0 -1
1122 1 1 0 9.650985299860656 13.812523763640078 17.14734952413054 0 0 -1
1124 1 1 0 10.026620995531575 13.828557956034938 17.130067961293246 0 0 -1
1146 1 1 0 10.414732366528701 13.797485274406851 17.162567241086666 0 0 -1
1147 1 1 0 10.613008822077708 13.829612430033443 17.130949245418467 0 0 -1
1148 1 1 0 10.814914222125756 13.82928263252863 17.12987803055012 0 0 -1
1149 1 1 0 10.98869496373097 13.812293433428822 17.147140388044555 0 0 -1
1150 1 1 0 11.1463769479888 13.789000808562125 17.16844602336687 0 0 -1
1157 1 1 0 12.285186738976066 13.751731632764685 17.18677869819406 0 0 -1
1158 1 1 0 12.449071057515393 13.75036594961211 17.1842513673794 0 0 -1
1151 1 1 0 11.303643004082385 13.768968048190725 17.18992513764188 0 0 -1
1156 1 1 0 12.121619094714818 13.753568966028743 17.19467135887972 0 0 -1
1019 1 1 0 13.758682028002196 12.613459913633514 17.199069476177375 0 0 -1
1159 1 1 0 12.614222127914973 13.756191611937165 17.193987888843836 0 0 -1
25 1 2 0 13.759772698836658 13.759975638722707 0.00012294637051013524 0 0 0
1186 1 1 0 13.760053617530208 13.78812723130926 17.04738145890497 0 0 0
1187 1 1 0 13.760169206428776 13.8030385898265 16.87699620210537 0 0 0
1188 1 1 0 13.759681782398564 13.803964784616527 16.70662150489421 0 0 0
1189 1 1 0 13.759599560112214 13.794815468094983 16.540908439180114 0 0 0
1190 1 1 0 13.758733385042056 13.782013735461456 16.3786307215614 0 0 0
1191 1 1 0 13.759351266863549 13.767639282989034 16.21649465465021 0 0 0
1192 1 1 0 13.761134443853578 13.756676883450687 16.053777286529318 0 0 0
1193 1 1 0 13.763034342487973 13.748417437982674 15.888659189616272 0 0 0
1194 1 1 0 13.762266297885025 13.7497837215438 15.725745584145526 0 0 0
1077 1 1 0 15.234563149264272 13.749224142499411 17.18922057285733 0 0 -1
1078 1 1 0 15.07041989212648 13.747334081923555 17.18731698298727 0 0 -1
1079 1 1 0 14.905512226133334 13.755103323827568 17.195081645788495 0 0 -1
1076 1 1 0 15.398047100276138 13.75413036885375 17.194077679443613 0 0 -1
1069 1 1 0 16.544525098575143 13.7594676723118 17.19946396991081 0 0 -1
1070 1 1 0 16.38069704136613 13.758907243884455 17.198860582168358 0 0 -1
1071 1 1 0 16.216927803333345 13.75929834063581 17.19933560957948 0 0 -1
21 1 2 0 17.19865481000524 13.759345663582705 17.19975372933572 -1 0 -1
1066 1 1 0 17.035896094171985 13.76030963225834 0.00027178632326751995 0 0 0
176 1 1 0 17.199073076688283 15.397853864403976 17.199751865729628 -1 0 -1
241 1 1 0 3.4712978428478984 14.586274378813936 17.17058421163024 0 0 -1
242 1 1 0 3.492657860055697 14.428662616844179 17.147384686924806 0 0 -1
240 1 1 0 3.44989559918581 14.7435699600221 17.190708407114553 0 0 -1
243 1 1 0 3.509830965399507 14.254877184782787 17.130327202270546 0 0 -1
302 1 1 0 6.825596180863806 14.429281361461822 17.145315022813453 0 0 -1
303 1 1 0 6.808309147268804 14.254515191373745 17.128521596089033 0 0 -1
300 1 1 0 6.869666367081943 14.744039356457225 17.189539036821436 0 0 -1
301 1 1 0 6.848216256988003 14.587143668220998 17.169093302684644 0 0 -1
175 1 1 0 17.19292859902198 15.561581810260932 2.436934270377833e-06 -1 0 0
227 1 1 0 3.3695491824589903 16.91019003685229 17.12828568660999 0 0 -1
230 1 1 0 3.407115849858405 16.372467392525238 17.169084882673054 0 0 -1
231 1 1 0 3.4293488506893683 16.215652952495205 17.189870169591014 0 0 -1
2 1 2 0 3.4391643189433085 0.0006755480862068453 17.19933115465883 0 0 -1
226 1 1 0 3.403986127685149 17.111150481040585 17.163581381582986 0 0 -1
228 1 1 0 3.368145038946031 16.705091948341963 17.128350165420912 0 0 -1
229 1 1 0 3.3855778770400584 16.530092892596777 17.145528037498828 0 0 -1
287 1 1 0 6.879610989407617 16.87705823495014 17.15564527626489 0 0 -1
289 1 1 0 6.880127108968532 16.541017257075456 17.16515721662768 0 0 -1
286 1 1 0 6.879599766454288 17.047515828031113 17.171228137273754 0 0 -1
288 1 1 0 6.879982483690547 16.70674273791263 17.15587107651039 0 0 -1
290 1 1 0 6.880957205581312 16.378730893463434 17.179691993141628 0 0 -1
291 1 1 0 6.880365062496254 16.21633134011525 17.192788459558997 0 0 -1
260 1 1 0 9.33601405987591 17.189909534314904 17.19063486096219 0 -1 -1
262 1 1 0 9.651024878607455 17.147136266907772 17.14732542355354 0 -1 -1
263 1 1 0 9.824786192771862 17.129879924066515 17.130340120803222 0 -1 -1
264 1 1 0 10.026690682931603 17.13099485929315 17.130072550899122 0 -1 -1
306 1 1 0 10.41471910150905 17.162201053541967 17.162532409049998 0 -1 -1
308 1 1 0 10.815004757694588 17.13030750170822 17.130363037707514 0 -1 -1
265 1 1 0 10.225026149105345 17.16242267829328 17.162250722466354 0 -1 -1
261 1 1 0 9.493283251242916 17.168423172541413 17.170614587173198 0 -1 -1
4 1 2 0 10.320168500567556 17.19949114864568 17.199669134652897 0 -1 -1
307 1 1 0 10.613063804166874 17.129984088890936 17.129907539106895 0 -1 -1
309 1 1 0 10.988395832162714 17.147255386175566 17.147289946664156 0 -1 -1
310 1 1 0 11.146493327452063 17.170615461351876 17.170627799372113 0 -1 -1
311 1 1 0 11.304097000676988 17.190681830235075 17.19071406359578 0 -1 -1
165 1 1 0 13.854879864668506 17.162516105431013 17.162659293901363 0 -1 -1
320 1 1 0 12.77557801394513 17.190705768287476 17.190657035112768 0 -1 -1
323 1 1 0 13.26470312939645 17.130347330568867 17.130355385772294 0 -1 -1
324 1 1 0 13.466686894356554 17.129951365922302 17.12989523393751 0 -1 -1
321 1 1 0 12.933221114685955 17.170651412733786 17.17060488814761 0 -1 -1
322 1 1 0 13.091291783310895 17.14728816998203 17.147261930138434 0 -1 -1
164 1 1 0 14.053088102528655 17.130435366827296 17.130384537603312 0 -1 -1
5 1 2 0 13.759707800121792 17.199583293806885 17.199611420880238 0 -1 -1
325 1 1 0 13.664941745390284 17.1624325989029 17.162566092958002 0 -1 -1
155 1 1 0 15.561699305213626 0.0007554253175179326 0.0007365638063312474 0 0 0
163 1 1 0 14.254971987970386 17.13012450305912 17.13014882796994 0 -1 -1
162 1 1 0 14.42869136733868 17.147220785221027 17.147212741909897 0 -1 -1
161 1 1 0 14.586412138823986 17.169580572218926 17.169534060872834 0 -1 -1
160 1 1 0 14.74365525081758 17.19023082370131 17.19021117090859 0 -1 -1
148 1 1 0 16.708431330548557 17.19975629271161 17.19969522024737 0 -1 -1
152 1 1 0 16.053244095199176 17.198484253416947 17.19849094618202 0 -1 -1
147 1 1 0 16.87215281082124 17.199487094203242 17.199567981734635 0 -1 -1
153 1 1 0 15.889256597278342 17.196914214497504 17.196881549946426 0 -1 -1
154 1 1 0 15.725654468221792 17.197176769767516 17.197206017440873 0 -1 -1

Velocities

127 0 0 0
206 0 0 0
208 0 0 0
207 0 0 0
209 0 0 0
210 0 0 0
211 0 0 0
3 0 0 0
266 0 0 0
267 0 0 0
268 0 0 0
269 0 0 0
270 0 0 0
271 0 0 0
257 0 0 0
259 0 0 0
256 0 0 0
258 0 0 0
332 0 0 0
334 0 0 0
352 0 0 0
353 0 0 0
354 0 0 0
333 0 0 0
313 0 0 0
317 0 0 0
312 0 0 0
314 0 0 0
316 0 0 0
315 0 0 0
318 0 0 0
373 0 0 0
374 0 0 0
393 0 0 0
392 0 0 0
394 0 0 0
319 0 0 0
372 0 0 0
156 0 0 0
158 0 0 0
159 0 0 0
157 0 0 0
151 0 0 0
146 0 0 0
149 0 0 0
150 0 0 0
340 0 0 0
341 0 0 0
342 0 0 0
344 0 0 0
335 0 0 0
343 0 0 0
376 0 0 0
377 0 0 0
378 0 0 0
379 0 0 0
375 0 0 0
406 0 0 0
407 0 0 0
408 0 0 0
410 0 0 0
411 0 0 0
409 0 0 0
7 0 0 0
467 0 0 0
468 0 0 0
492 0 0 0
506 0 0 0
507 0 0 0
508 0 0 0
509 0 0 0
510 0 0 0
511 0 0 0
512 0 0 0
513 0 0 0
514 0 0 0
486 0 0 0
475 0 0 0
472 0 0 0
473 0 0 0
474 0 0 0
480 0 0 0
481 0 0 0
484 0 0 0
547 0 0 0
548 0 0 0
345 0 0 0
482 0 0 0
483 0 0 0
485 0 0 0
546 0 0 0
550 0 0 0
551 0 0 0
556 0 0 0
557 0 0 0
558 0 0 0
549 0 0 0
10 0 0 0
586 0 0 0
587 0 0 0
588 0 0 0
589 0 0 0
590 0 0 0
591 0 0 0
592 0 0 0
593 0 0 0
594 0 0 0
559 0 0 0
437 0 0 0
438 0 0 0
436 0 0 0
439 0 0 0
412 0 0 0
413 0 0 0
414 0 0 0
426 0 0 0
431 0 0 0
429 0 0 0
430 0 0 0
494 0 0 0
496 0 0 0
499 0 0 0
500 0 0 0
498 0 0 0
626 0 0 0
628 0 0 0
629 0 0 0
631 0 0 0
627 0 0 0
630 0 0 0
12 0 0 0
706 0 0 0
707 0 0 0
708 0 0 0
709 0 0 0
710 0 0 0
711 0 0 0
712 0 0 0
713 0 0 0
714 0 0 0
672 0 0 0
673 0 0 0
674 0 0 0
680 0 0 0
681 0 0 0
675 0 0 0
682 0 0 0
685 0 0 0
726 0 0 0
727 0 0 0
728 0 0 0
729 0 0 0
730 0 0 0
731 0 0 0
732 0 0 0
733 0 0 0
734 0 0 0
14 0 0 0
766 0 0 0
767 0 0 0
768 0 0 0
786 0 0 0
787 0 0 0
788 0 0 0
789 0 0 0
790 0 0 0
770 0 0 0
777 0 0 0
778 0 0 0
769 0 0 0
771 0 0 0
15 0 0 0
779 0 0 0
783 0 0 0
784 0 0 0
665 0 0 0
827 0 0 0
828 0 0 0
660 0 0 0
662 0 0 0
655 0 0 0
656 0 0 0
661 0 0 0
632 0 0 0
633 0 0 0
634 0 0 0
653 0 0 0
652 0 0 0
654 0 0 0
692 0 0 0
693 0 0 0
700 0 0 0
694 0 0 0
695 0 0 0
791 0 0 0
800 0 0 0
833 0 0 0
834 0 0 0
835 0 0 0
840 0 0 0
832 0 0 0
614 0 0 0
618 0 0 0
615 0 0 0
616 0 0 0
617 0 0 0
619 0 0 0
612 0 0 0
613 0 0 0
16 0 0 0
871 0 0 0
866 0 0 0
867 0 0 0
868 0 0 0
869 0 0 0
870 0 0 0
17 0 0 0
702 0 0 0
704 0 0 0
705 0 0 0
906 0 0 0
907 0 0 0
908 0 0 0
701 0 0 0
703 0 0 0
946 0 0 0
947 0 0 0
948 0 0 0
949 0 0 0
950 0 0 0
951 0 0 0
952 0 0 0
953 0 0 0
954 0 0 0
19 0 0 0
803 0 0 0
967 0 0 0
801 0 0 0
802 0 0 0
804 0 0 0
805 0 0 0
966 0 0 0
968 0 0 0
841 0 0 0
843 0 0 0
844 0 0 0
845 0 0 0
1008 0 0 0
842 0 0 0
905 0 0 0
1006 0 0 0
1007 0 0 0
895 0 0 0
900 0 0 0
901 0 0 0
902 0 0 0
904 0 0 0
903 0 0 0
872 0 0 0
874 0 0 0
873 0 0 0
892 0 0 0
893 0 0 0
894 0 0 0
910 0 0 0
916 0 0 0
917 0 0 0
909 0 0 0
911 0 0 0
918 0 0 0
971 0 0 0
977 0 0 0
978 0 0 0
969 0 0 0
970 0 0 0
976 0 0 0
1009 0 0 0
1010 0 0 0
1011 0 0 0
852 0 0 0
855 0 0 0
853 0 0 0
854 0 0 0
860 0 0 0
1046 0 0 0
1049 0 0 0
1050 0 0 0
1051 0 0 0
1056 0 0 0
1057 0 0 0
1059 0 0 0
1055 0 0 0
1058 0 0 0
22 0 0 0
1086 0 0 0
1087 0 0 0
1088 0 0 0
1089 0 0 0
1090 0 0 0
1091 0 0 0
1092 0 0 0
1093 0 0 0
1094 0 0 0
919 0 0 0
23 0 0 0
1126 0 0 0
1127 0 0 0
1128 0 0 0
1129 0 0 0
1130 0 0 0
1131 0 0 0
1132 0 0 0
1133 0 0 0
1134 0 0 0
1113 0 0 0
1114 0 0 0
1116 0 0 0
1118 0 0 0
1112 0 0 0
1115 0 0 0
1117 0 0 0
1119 0 0 0
1166 0 0 0
1167 0 0 0
1168 0 0 0
1169 0 0 0
1170 0 0 0
1171 0 0 0
1172 0 0 0
1173 0 0 0
1174 0 0 0
979 0 0 0
1152 0 0 0
1154 0 0 0
1153 0 0 0
1155 0 0 0
1020 0 0 0
1021 0 0 0
1023 0 0 0
1024 0 0 0
1025 0 0 0
1085 0 0 0
1164 0 0 0
1084 0 0 0
1022 0 0 0
1160 0 0 0
1161 0 0 0
1162 0 0 0
1163 0 0 0
1165 0 0 0
1075 0 0 0
1082 0 0 0
1080 0 0 0
1081 0 0 0
1083 0 0 0
185 0 0 0
1067 0 0 0
1068 0 0 0
1073 0 0 0
1074 0 0 0
861 0 0 0
862 0 0 0
865 0 0 0
1072 0 0 0
178 0 0 0
179 0 0 0
184 0 0 0
183 0 0 0
177 0 0 0
236 0 0 0
237 0 0 0
235 0 0 0
238 0 0 0
239 0 0 0
296 0 0 0
297 0 0 0
298 0 0 0
295 0 0 0
299 0 0 0
181 0 0 0
182 0 0 0
180 0 0 0
1 0 0 0
167 0 0 0
168 0 0 0
170 0 0 0
166 0 0 0
171 0 0 0
169 0 0 0
192 0 0 0
214 0 0 0
212 0 0 0
213 0 0 0
233 0 0 0
234 0 0 0
232 0 0 0
195 0 0 0
197 0 0 0
196 0 0 0
198 0 0 0
199 0 0 0
194 0 0 0
193 0 0 0
272 0 0 0
273 0 0 0
274 0 0 0
292 0 0 0
293 0 0 0
294 0 0 0
252 0 0 0
253 0 0 0
255 0 0 0
254 0 0 0
346 0 0 0
348 0 0 0
350 0 0 0
347 0 0 0
349 0 0 0
351 0 0 0
386 0 0 0
387 0 0 0
388 0 0 0
389 0 0 0
390 0 0 0
391 0 0 0
172 0 0 0
174 0 0 0
173 0 0 0
223 0 0 0
224 0 0 0
217 0 0 0
218 0 0 0
219 0 0 0
277 0 0 0
278 0 0 0
279 0 0 0
276 0 0 0
355 0 0 0
361 0 0 0
362 0 0 0
356 0 0 0
360 0 0 0
396 0 0 0
401 0 0 0
395 0 0 0
402 0 0 0
416 0 0 0
418 0 0 0
419 0 0 0
417 0 0 0
515 0 0 0
516 0 0 0
517 0 0 0
518 0 0 0
519 0 0 0
520 0 0 0
521 0 0 0
522 0 0 0
523 0 0 0
524 0 0 0
595 0 0 0
596 0 0 0
597 0 0 0
598 0 0 0
599 0 0 0
600 0 0 0
601 0 0 0
602 0 0 0
603 0 0 0
415 0 0 0
420 0 0 0
421 0 0 0
423 0 0 0
422 0 0 0
639 0 0 0
643 0 0 0
644 0 0 0
637 0 0 0
638 0 0 0
715 0 0 0
716 0 0 0
717 0 0 0
718 0 0 0
719 0 0 0
720 0 0 0
721 0 0 0
722 0 0 0
723 0 0 0
735 0 0 0
736 0 0 0
737 0 0 0
738 0 0 0
739 0 0 0
740 0 0 0
741 0 0 0
742 0 0 0
743 0 0 0
635 0 0 0
641 0 0 0
642 0 0 0
636 0 0 0
640 0 0 0
884 0 0 0
880 0 0 0
881 0 0 0
882 0 0 0
883 0 0 0
955 0 0 0
956 0 0 0
957 0 0 0
958 0 0 0
959 0 0 0
960 0 0 0
961 0 0 0
962 0 0 0
963 0 0 0
876 0 0 0
877 0 0 0
878 0 0 0
879 0 0 0
875 0 0 0
1095 0 0 0
1096 0 0 0
1097 0 0 0
1098 0 0 0
1099 0 0 0
1100 0 0 0
1101 0 0 0
1102 0 0 0
1103 0 0 0
1135 0 0 0
1136 0 0 0
1137 0 0 0
1138 0 0 0
1139 0 0 0
1140 0 0 0
1141 0 0 0
1142 0 0 0
1143 0 0 0
1144 0 0 0
1175 0 0 0
1176 0 0 0
1177 0 0 0
1178 0 0 0
1179 0 0 0
1180 0 0 0
1181 0 0 0
1182 0 0 0
1183 0 0 0
1184 0 0 0
216 0 0 0
215 0 0 0
220 0 0 0
221 0 0 0
222 0 0 0
281 0 0 0
282 0 0 0
275 0 0 0
280 0 0 0
283 0 0 0
357 0 0 0
358 0 0 0
359 0 0 0
364 0 0 0
363 0 0 0
397 0 0 0
398 0 0 0
399 0 0 0
403 0 0 0
404 0 0 0
400 0 0 0
1210 0 0 0
1211 0 0 0
1206 0 0 0
1209 0 0 0
1207 0 0 0
1208 0 0 0
27 0 0 0
1266 0 0 0
1271 0 0 0
1286 0 0 0
1287 0 0 0
1288 0 0 0
1289 0 0 0
1290 0 0 0
1291 0 0 0
1292 0 0 0
1293 0 0 0
1294 0 0 0
1269 0 0 0
1270 0 0 0
1276 0 0 0
1277 0 0 0
1278 0 0 0
1275 0 0 0
1279 0 0 0
1326 0 0 0
1327 0 0 0
1328 0 0 0
1329 0 0 0
1330 0 0 0
1331 0 0 0
1332 0 0 0
1333 0 0 0
1334 0 0 0
1352 0 0 0
29 0 0 0
365 0 0 0
1368 0 0 0
1386 0 0 0
1387 0 0 0
1388 0 0 0
1389 0 0 0
1390 0 0 0
1391 0 0 0
1392 0 0 0
1393 0 0 0
1394 0 0 0
1367 0 0 0
1369 0 0 0
1370 0 0 0
1371 0 0 0
1372 0 0 0
1373 0 0 0
1374 0 0 0
30 0 0 0
405 0 0 0
1426 0 0 0
1428 0 0 0
1429 0 0 0
1432 0 0 0
1427 0 0 0
1236 0 0 0
1238 0 0 0
1239 0 0 0
1244 0 0 0
1237 0 0 0
1243 0 0 0
26 0 0 0
1226 0 0 0
1228 0 0 0
1227 0 0 0
1229 0 0 0
1230 0 0 0
1231 0 0 0
1295 0 0 0
1296 0 0 0
1297 0 0 0
1298 0 0 0
1299 0 0 0
1300 0 0 0
1301 0 0 0
1302 0 0 0
1303 0 0 0
1335 0 0 0
1336 0 0 0
1337 0 0 0
1338 0 0 0
1339 0 0 0
1340 0 0 0
1341 0 0 0
1342 0 0 0
1343 0 0 0
1344 0 0 0
1395 0 0 0
1396 0 0 0
1397 0 0 0
1398 0 0 0
1399 0 0 0
1400 0 0 0
1401 0 0 0
1402 0 0 0
1403 0 0 0
1446 0 0 0
1447 0 0 0
1448 0 0 0
1449 0 0 0
1450 0 0 0
1451 0 0 0
1452 0 0 0
1453 0 0 0
1454 0 0 0
1472 0 0 0
1455 0 0 0
1456 0 0 0
1457 0 0 0
1458 0 0 0
1459 0 0 0
1460 0 0 0
1461 0 0 0
1462 0 0 0
1463 0 0 0
1464 0 0 0
1304 0 0 0
32 0 0 0
1305 0 0 0
1465 0 0 0
1486 0 0 0
1487 0 0 0
1488 0 0 0
1489 0 0 0
1490 0 0 0
1491 0 0 0
1492 0 0 0
1506 0 0 0
1507 0 0 0
1508 0 0 0
1509 0 0 0
1510 0 0 0
1511 0 0 0
1512 0 0 0
33 0 0 0
525 0 0 0
1345 0 0 0
1526 0 0 0
1527 0 0 0
1528 0 0 0
1529 0 0 0
1530 0 0 0
1531 0 0 0
1532 0 0 0
1546 0 0 0
1547 0 0 0
1548 0 0 0
1549 0 0 0
1550 0 0 0
1551 0 0 0
1552 0 0 0
1404 0 0 0
34 0 0 0
1405 0 0 0
1566 0 0 0
1567 0 0 0
1568 0 0 0
1586 0 0 0
1587 0 0 0
1588 0 0 0
1589 0 0 0
1590 0 0 0
1591 0 0 0
1592 0 0 0
1569 0 0 0
1570 0 0 0
1571 0 0 0
1572 0 0 0
1573 0 0 0
1574 0 0 0
1575 0 0 0
1576 0 0 0
1577 0 0 0
1578 0 0 0
604 0 0 0
35 0 0 0
605 0 0 0
1579 0 0 0
1580 0 0 0
1581 0 0 0
1582 0 0 0
1583 0 0 0
1584 0 0 0
1585 0 0 0
1606 0 0 0
1607 0 0 0
1608 0 0 0
1609 0 0 0
1610 0 0 0
1611 0 0 0
1612 0 0 0
424 0 0 0
1467 0 0 0
1468 0 0 0
1470 0 0 0
31 0 0 0
425 0 0 0
1466 0 0 0
1469 0 0 0
1471 0 0 0
1473 0 0 0
1474 0 0 0
1476 0 0 0
1480 0 0 0
1481 0 0 0
1475 0 0 0
1482 0 0 0
1493 0 0 0
1494 0 0 0
1495 0 0 0
1496 0 0 0
1497 0 0 0
1498 0 0 0
1499 0 0 0
1500 0 0 0
1501 0 0 0
1502 0 0 0
1533 0 0 0
1534 0 0 0
1535 0 0 0
1536 0 0 0
1537 0 0 0
1538 0 0 0
1539 0 0 0
1540 0 0 0
1541 0 0 0
1542 0 0 0
1613 0 0 0
1614 0 0 0
1615 0 0 0
1616 0 0 0
1617 0 0 0
1618 0 0 0
1619 0 0 0
1620 0 0 0
1621 0 0 0
1622 0 0 0
1477 0 0 0
1478 0 0 0
1479 0 0 0
36 0 0 0
1627 0 0 0
1628 0 0 0
1485 0 0 0
724 0 0 0
37 0 0 0
725 0 0 0
1503 0 0 0
1504 0 0 0
1505 0 0 0
1646 0 0 0
1647 0 0 0
1648 0 0 0
1649 0 0 0
1650 0 0 0
1651 0 0 0
1652 0 0 0
744 0 0 0
38 0 0 0
745 0 0 0
1543 0 0 0
1544 0 0 0
1545 0 0 0
1666 0 0 0
1667 0 0 0
1668 0 0 0
1669 0 0 0
1670 0 0 0
1686 0 0 0
1687 0 0 0
1688 0 0 0
1689 0 0 0
1690 0 0 0
1691 0 0 0
1692 0 0 0
1671 0 0 0
1672 0 0 0
1673 0 0 0
1674 0 0 0
1675 0 0 0
1676 0 0 0
1677 0 0 0
1678 0 0 0
1679 0 0 0
1680 0 0 0
39 0 0 0
1681 0 0 0
1682 0 0 0
1683 0 0 0
1684 0 0 0
1685 0 0 0
1706 0 0 0
1707 0 0 0
1708 0 0 0
1726 0 0 0
1727 0 0 0
1728 0 0 0
1729 0 0 0
1730 0 0 0
1746 0 0 0
1747 0 0 0
1748 0 0 0
1749 0 0 0
1750 0 0 0
1751 0 0 0
1752 0 0 0
1709 0 0 0
1710 0 0 0
1711 0 0 0
1712 0 0 0
1713 0 0 0
1714 0 0 0
1715 0 0 0
1716 0 0 0
1717 0 0 0
1718 0 0 0
40 0 0 0
1623 0 0 0
1624 0 0 0
1625 0 0 0
1719 0 0 0
1720 0 0 0
1721 0 0 0
1722 0 0 0
1723 0 0 0
1724 0 0 0
1725 0 0 0
1766 0 0 0
1767 0 0 0
1768 0 0 0
1769 0 0 0
1770 0 0 0
1786 0 0 0
1787 0 0 0
1788 0 0 0
1789 0 0 0
1790 0 0 0
1791 0 0 0
1792 0 0 0
645 0 0 0
1483 0 0 0
1629 0 0 0
1484 0 0 0
1626 0 0 0
1630 0 0 0
1633 0 0 0
1632 0 0 0
1634 0 0 0
1635 0 0 0
1640 0 0 0
1731 0 0 0
1732 0 0 0
1733 0 0 0
1734 0 0 0
1735 0 0 0
1736 0 0 0
1737 0 0 0
1738 0 0 0
1739 0 0 0
1740 0 0 0
1771 0 0 0
1772 0 0 0
1773 0 0 0
1774 0 0 0
1775 0 0 0
1776 0 0 0
1777 0 0 0
1778 0 0 0
1779 0 0 0
1780 0 0 0
1636 0 0 0
1637 0 0 0
1631 0 0 0
1638 0 0 0
1639 0 0 0
41 0 0 0
1641 0 0 0
1642 0 0 0
885 0 0 0
1643 0 0 0
1644 0 0 0
1645 0 0 0
1806 0 0 0
1807 0 0 0
1808 0 0 0
42 0 0 0
964 0 0 0
43 0 0 0
965 0 0 0
1846 0 0 0
1847 0 0 0
1848 0 0 0
1849 0 0 0
1850 0 0 0
1866 0 0 0
1867 0 0 0
1868 0 0 0
1869 0 0 0
1870 0 0 0
1871 0 0 0
1872 0 0 0
1851 0 0 0
1852 0 0 0
1853 0 0 0
1854 0 0 0
1855 0 0 0
1856 0 0 0
1857 0 0 0
1858 0 0 0
1859 0 0 0
1860 0 0 0
44 0 0 0
1741 0 0 0
1742 0 0 0
1743 0 0 0
1744 0 0 0
1745 0 0 0
1861 0 0 0
1862 0 0 0
1863 0 0 0
1864 0 0 0
1865 0 0 0
1886 0 0 0
1887 0 0 0
1888 0 0 0
45 0 0 0
1781 0 0 0
1782 0 0 0
1783 0 0 0
1784 0 0 0
1785 0 0 0
1845 0 0 0
1906 0 0 0
1907 0 0 0
1908 0 0 0
1835 0 0 0
1836 0 0 0
1837 0 0 0
1838 0 0 0
1839 0 0 0
1840 0 0 0
1841 0 0 0
1842 0 0 0
1843 0 0 0
1844 0 0 0
1826 0 0 0
1827 0 0 0
1828 0 0 0
1829 0 0 0
1830 0 0 0
1831 0 0 0
1832 0 0 0
1833 0 0 0
1834 0 0 0
1811 0 0 0
1816 0 0 0
1817 0 0 0
1809 0 0 0
1810 0 0 0
1818 0 0 0
1889 0 0 0
1890 0 0 0
1891 0 0 0
1892 0 0 0
1893 0 0 0
1894 0 0 0
1895 0 0 0
1896 0 0 0
1897 0 0 0
1898 0 0 0
1909 0 0 0
1910 0 0 0
1911 0 0 0
1912 0 0 0
1913 0 0 0
1914 0 0 0
1915 0 0 0
1916 0 0 0
1917 0 0 0
1918 0 0 0
1813 0 0 0
1814 0 0 0
1812 0 0 0
1815 0 0 0
1819 0 0 0
1823 0 0 0
1926 0 0 0
1929 0 0 0
1931 0 0 0
1824 0 0 0
1930 0 0 0
1264 0 0 0
1104 0 0 0
47 0 0 0
1105 0 0 0
1325 0 0 0
1946 0 0 0
1947 0 0 0
1948 0 0 0
1949 0 0 0
1950 0 0 0
1951 0 0 0
1952 0 0 0
48 0 0 0
1145 0 0 0
49 0 0 0
1185 0 0 0
1425 0 0 0
1899 0 0 0
1900 0 0 0
1901 0 0 0
1902 0 0 0
1903 0 0 0
1904 0 0 0
1905 0 0 0
1966 0 0 0
1967 0 0 0
1968 0 0 0
1424 0 0 0
1969 0 0 0
1970 0 0 0
1971 0 0 0
1972 0 0 0
1973 0 0 0
1974 0 0 0
1975 0 0 0
1976 0 0 0
1977 0 0 0
1978 0 0 0
50 0 0 0
1919 0 0 0
1920 0 0 0
1921 0 0 0
1922 0 0 0
1923 0 0 0
1924 0 0 0
1925 0 0 0
1979 0 0 0
1980 0 0 0
1981 0 0 0
1982 0 0 0
1983 0 0 0
1984 0 0 0
1985 0 0 0
1986 0 0 0
1987 0 0 0
1988 0 0 0
1989 0 0 0
1990 0 0 0
1991 0 0 0
1992 0 0 0
1265 0 0 0
1821 0 0 0
1825 0 0 0
1927 0 0 0
46 0 0 0
1820 0 0 0
1822 0 0 0
1928 0 0 0
1932 0 0 0
1257 0 0 0
1258 0 0 0
1259 0 0 0
1263 0 0 0
1315 0 0 0
1316 0 0 0
1317 0 0 0
1318 0 0 0
1319 0 0 0
1320 0 0 0
1321 0 0 0
1322 0 0 0
1323 0 0 0
1324 0 0 0
1415 0 0 0
1416 0 0 0
1417 0 0 0
1418 0 0 0
1419 0 0 0
1420 0 0 0
1421 0 0 0
1422 0 0 0
1423 0 0 0
1261 0 0 0
1262 0 0 0
1255 0 0 0
1256 0 0 0
1260 0 0 0
1247 0 0 0
1248 0 0 0
1246 0 0 0
1249 0 0 0
1250 0 0 0
1251 0 0 0
1268 0 0 0
1272 0 0 0
225 0 0 0
1267 0 0 0
1306 0 0 0
1307 0 0 0
1308 0 0 0
1309 0 0 0
1310 0 0 0
1311 0 0 0
1312 0 0 0
1313 0 0 0
1314 0 0 0
1273 0 0 0
1274 0 0 0
1280 0 0 0
1281 0 0 0
1282 0 0 0
284 0 0 0
285 0 0 0
1284 0 0 0
1285 0 0 0
1346 0 0 0
1347 0 0 0
1349 0 0 0
1350 0 0 0
28 0 0 0
1283 0 0 0
1348 0 0 0
1351 0 0 0
1366 0 0 0
1406 0 0 0
1407 0 0 0
1408 0 0 0
1409 0 0 0
1410 0 0 0
1411 0 0 0
1412 0 0 0
1413 0 0 0
1414 0 0 0
1378 0 0 0
1375 0 0 0
1376 0 0 0
1377 0 0 0
1245 0 0 0
1379 0 0 0
1381 0 0 0
1382 0 0 0
1385 0 0 0
1431 0 0 0
1380 0 0 0
1383 0 0 0
1384 0 0 0
1430 0 0 0
1235 0 0 0
1240 0 0 0
1241 0 0 0
1242 0 0 0
1212 0 0 0
1232 0 0 0
1233 0 0 0
1234 0 0 0
1252 0 0 0
1253 0 0 0
1254 0 0 0
1219 0 0 0
1217 0 0 0
1218 0 0 0
1353 0 0 0
1358 0 0 0
1354 0 0 0
1355 0 0 0
1356 0 0 0
1357 0 0 0
1359 0 0 0
1433 0 0 0
1434 0 0 0
1440 0 0 0
1441 0 0 0
1442 0 0 0
1439 0 0 0
1513 0 0 0
1514 0 0 0
1515 0 0 0
1516 0 0 0
1517 0 0 0
1518 0 0 0
1519 0 0 0
1520 0 0 0
1521 0 0 0
1522 0 0 0
1553 0 0 0
1554 0 0 0
1555 0 0 0
1556 0 0 0
1557 0 0 0
1558 0 0 0
1559 0 0 0
1560 0 0 0
1561 0 0 0
1562 0 0 0
1593 0 0 0
1594 0 0 0
1595 0 0 0
1596 0 0 0
1597 0 0 0
1598 0 0 0
1599 0 0 0
1600 0 0 0
1601 0 0 0
1602 0 0 0
1653 0 0 0
1654 0 0 0
1655 0 0 0
1656 0 0 0
1657 0 0 0
1658 0 0 0
1659 0 0 0
1660 0 0 0
1661 0 0 0
1662 0 0 0
1693 0 0 0
1694 0 0 0
1695 0 0 0
1696 0 0 0
1697 0 0 0
1698 0 0 0
1699 0 0 0
1700 0 0 0
1701 0 0 0
1702 0 0 0
1753 0 0 0
1754 0 0 0
1755 0 0 0
1756 0 0 0
1757 0 0 0
1758 0 0 0
1759 0 0 0
1760 0 0 0
1761 0 0 0
1762 0 0 0
1793 0 0 0
1794 0 0 0
1795 0 0 0
1796 0 0 0
1797 0 0 0
1798 0 0 0
1799 0 0 0
1800 0 0 0
1801 0 0 0
1802 0 0 0
1873 0 0 0
1874 0 0 0
1875 0 0 0
1876 0 0 0
1877 0 0 0
1878 0 0 0
1879 0 0 0
1880 0 0 0
1881 0 0 0
1882 0 0 0
1936 0 0 0
1937 0 0 0
1938 0 0 0
1939 0 0 0
1953 0 0 0
1954 0 0 0
1955 0 0 0
1956 0 0 0
1957 0 0 0
1958 0 0 0
1959 0 0 0
1960 0 0 0
1961 0 0 0
1962 0 0 0
1993 0 0 0
1994 0 0 0
1995 0 0 0
1996 0 0 0
1997 0 0 0
1998 0 0 0
1999 0 0 0
2000 0 0 0
2001 0 0 0
2002 0 0 0
1933 0 0 0
1934 0 0 0
1935 0 0 0
1940 0 0 0
1941 0 0 0
1942 0 0 0
1360 0 0 0
1361 0 0 0
1362 0 0 0
1438 0 0 0
1435 0 0 0
1436 0 0 0
1437 0 0 0
1213 0 0 0
1214 0 0 0
1216 0 0 0
1215 0 0 0
1220 0 0 0
1222 0 0 0
1221 0 0 0
51 0 0 0
1224 0 0 0
1223 0 0 0
52 0 0 0
2026 0 0 0
2027 0 0 0
2028 0 0 0
2029 0 0 0
2030 0 0 0
2031 0 0 0
2032 0 0 0
2033 0 0 0
2034 0 0 0
2012 0 0 0
2013 0 0 0
2014 0 0 0
2015 0 0 0
2016 0 0 0
2020 0 0 0
54 0 0 0
2021 0 0 0
2025 0 0 0
2066 0 0 0
2067 0 0 0
2068 0 0 0
2069 0 0 0
2070 0 0 0
2071 0 0 0
2072 0 0 0
2073 0 0 0
2074 0 0 0
2089 0 0 0
2022 0 0 0
2086 0 0 0
2090 0 0 0
2126 0 0 0
2127 0 0 0
2128 0 0 0
2129 0 0 0
2130 0 0 0
2131 0 0 0
2132 0 0 0
2133 0 0 0
2134 0 0 0
2148 0 0 0
2147 0 0 0
2035 0 0 0
2036 0 0 0
2037 0 0 0
2038 0 0 0
2039 0 0 0
2040 0 0 0
2041 0 0 0
2042 0 0 0
2043 0 0 0
2075 0 0 0
2076 0 0 0
2077 0 0 0
2078 0 0 0
2079 0 0 0
2080 0 0 0
2081 0 0 0
2082 0 0 0
2083 0 0 0
2135 0 0 0
2136 0 0 0
2137 0 0 0
2138 0 0 0
2139 0 0 0
2140 0 0 0
2141 0 0 0
2142 0 0 0
2143 0 0 0
56 0 0 0
2186 0 0 0
2187 0 0 0
2188 0 0 0
2189 0 0 0
2190 0 0 0
2191 0 0 0
2192 0 0 0
2193 0 0 0
2194 0 0 0
2212 0 0 0
2229 0 0 0
2230 0 0 0
2207 0 0 0
2208 0 0 0
2226 0 0 0
2195 0 0 0
2196 0 0 0
2197 0 0 0
2198 0 0 0
2199 0 0 0
2200 0 0 0
2201 0 0 0
2202 0 0 0
2203 0 0 0
2204 0 0 0
57 0 0 0
1523 0 0 0
1524 0 0 0
1525 0 0 0
2205 0 0 0
2266 0 0 0
2267 0 0 0
2268 0 0 0
2269 0 0 0
2270 0 0 0
2271 0 0 0
2272 0 0 0
2286 0 0 0
2287 0 0 0
2288 0 0 0
2289 0 0 0
2290 0 0 0
2044 0 0 0
58 0 0 0
1563 0 0 0
1564 0 0 0
1565 0 0 0
2045 0 0 0
2306 0 0 0
2307 0 0 0
2308 0 0 0
2309 0 0 0
2310 0 0 0
2311 0 0 0
2312 0 0 0
2313 0 0 0
2314 0 0 0
2315 0 0 0
2316 0 0 0
2317 0 0 0
2318 0 0 0
2319 0 0 0
2320 0 0 0
2084 0 0 0
59 0 0 0
1603 0 0 0
1604 0 0 0
1605 0 0 0
2085 0 0 0
2321 0 0 0
2322 0 0 0
2323 0 0 0
2324 0 0 0
2325 0 0 0
2144 0 0 0
60 0 0 0
2145 0 0 0
2265 0 0 0
2326 0 0 0
2327 0 0 0
2328 0 0 0
2329 0 0 0
2330 0 0 0
2331 0 0 0
2332 0 0 0
2346 0 0 0
2347 0 0 0
2348 0 0 0
2349 0 0 0
2350 0 0 0
2255 0 0 0
2256 0 0 0
2257 0 0 0
2258 0 0 0
2259 0 0 0
2260 0 0 0
2261 0 0 0
2262 0 0 0
2263 0 0 0
2264 0 0 0
2206 0 0 0
2209 0 0 0
2227 0 0 0
2228 0 0 0
2210 0 0 0
2211 0 0 0
2246 0 0 0
2247 0 0 0
2248 0 0 0
2249 0 0 0
2250 0 0 0
2251 0 0 0
2252 0 0 0
2253 0 0 0
2254 0 0 0
2213 0 0 0
2221 0 0 0
2222 0 0 0
2214 0 0 0
2220 0 0 0
2273 0 0 0
2274 0 0 0
2275 0 0 0
2276 0 0 0
2277 0 0 0
2278 0 0 0
2279 0 0 0
2280 0 0 0
2281 0 0 0
2282 0 0 0
2333 0 0 0
2334 0 0 0
2335 0 0 0
2336 0 0 0
2337 0 0 0
2338 0 0 0
2339 0 0 0
2340 0 0 0
2341 0 0 0
2342 0 0 0
2215 0 0 0
2218 0 0 0
2219 0 0 0
2216 0 0 0
2217 0 0 0
2223 0 0 0
2225 0 0 0
2368 0 0 0
2370 0 0 0
2224 0 0 0
2366 0 0 0
2367 0 0 0
2369 0 0 0
62 0 0 0
1663 0 0 0
1664 0 0 0
1665 0 0 0
2283 0 0 0
2284 0 0 0
2285 0 0 0
2406 0 0 0
2407 0 0 0
2408 0 0 0
2409 0 0 0
2410 0 0 0
2426 0 0 0
2427 0 0 0
2428 0 0 0
2429 0 0 0
2430 0 0 0
63 0 0 0
1703 0 0 0
1704 0 0 0
1705 0 0 0
2446 0 0 0
2447 0 0 0
2448 0 0 0
2449 0 0 0
2450 0 0 0
2466 0 0 0
2467 0 0 0
2468 0 0 0
2469 0 0 0
2470 0 0 0
2486 0 0 0
2487 0 0 0
2488 0 0 0
2489 0 0 0
2490 0 0 0
2451 0 0 0
2452 0 0 0
2453 0 0 0
2454 0 0 0
2455 0 0 0
2456 0 0 0
2457 0 0 0
2458 0 0 0
2459 0 0 0
2460 0 0 0
64 0 0 0
1763 0 0 0
1764 0 0 0
1765 0 0 0
2461 0 0 0
2462 0 0 0
2463 0 0 0
2464 0 0 0
2465 0 0 0
2506 0 0 0
2507 0 0 0
2508 0 0 0
2509 0 0 0
2510 0 0 0
2526 0 0 0
2527 0 0 0
2528 0 0 0
2529 0 0 0
2530 0 0 0
65 0 0 0
1803 0 0 0
1804 0 0 0
1805 0 0 0
2343 0 0 0
2344 0 0 0
2345 0 0 0
2405 0 0 0
2546 0 0 0
2547 0 0 0
2548 0 0 0
2549 0 0 0
2550 0 0 0
2395 0 0 0
2396 0 0 0
2397 0 0 0
2398 0 0 0
2399 0 0 0
2400 0 0 0
2401 0 0 0
2402 0 0 0
2403 0 0 0
2404 0 0 0
61 0 0 0
2386 0 0 0
2387 0 0 0
2388 0 0 0
2389 0 0 0
2390 0 0 0
2391 0 0 0
2392 0 0 0
2393 0 0 0
2394 0 0 0
2411 0 0 0
2412 0 0 0
2413 0 0 0
2414 0 0 0
2415 0 0 0
2416 0 0 0
2417 0 0 0
2418 0 0 0
2419 0 0 0
2420 0 0 0
2471 0 0 0
2472 0 0 0
2473 0 0 0
2474 0 0 0
2475 0 0 0
2476 0 0 0
2477 0 0 0
2478 0 0 0
2479 0 0 0
2480 0 0 0
2511 0 0 0
2512 0 0 0
2513 0 0 0
2514 0 0 0
2515 0 0 0
2516 0 0 0
2517 0 0 0
2518 0 0 0
2519 0 0 0
2520 0 0 0
2551 0 0 0
2552 0 0 0
2553 0 0 0
2554 0 0 0
2555 0 0 0
2556 0 0 0
2557 0 0 0
2558 0 0 0
2559 0 0 0
2560 0 0 0
66 0 0 0
67 0 0 0
2421 0 0 0
2422 0 0 0
2423 0 0 0
2424 0 0 0
2425 0 0 0
2566 0 0 0
2567 0 0 0
2568 0 0 0
2586 0 0 0
2587 0 0 0
2588 0 0 0
2589 0 0 0
2590 0 0 0
68 0 0 0
1883 0 0 0
1884 0 0 0
1885 0 0 0
2481 0 0 0
2482 0 0 0
2483 0 0 0
2484 0 0 0
2485 0 0 0
2606 0 0 0
2607 0 0 0
2608 0 0 0
2609 0 0 0
2610 0 0 0
2626 0 0 0
2627 0 0 0
2628 0 0 0
2629 0 0 0
2630 0 0 0
2611 0 0 0
2612 0 0 0
2613 0 0 0
2614 0 0 0
2615 0 0 0
2616 0 0 0
2617 0 0 0
2618 0 0 0
2619 0 0 0
2620 0 0 0
69 0 0 0
2521 0 0 0
2522 0 0 0
2523 0 0 0
2524 0 0 0
2525 0 0 0
2621 0 0 0
2622 0 0 0
2623 0 0 0
2624 0 0 0
2625 0 0 0
2646 0 0 0
2647 0 0 0
2648 0 0 0
2666 0 0 0
2667 0 0 0
2668 0 0 0
2649 0 0 0
2650 0 0 0
2651 0 0 0
2652 0 0 0
2653 0 0 0
2654 0 0 0
2655 0 0 0
2656 0 0 0
2657 0 0 0
2658 0 0 0
70 0 0 0
2561 0 0 0
2562 0 0 0
2563 0 0 0
2564 0 0 0
2565 0 0 0
2659 0 0 0
2660 0 0 0
2661 0 0 0
2662 0 0 0
2663 0 0 0
2664 0 0 0
2665 0 0 0
2686 0 0 0
2687 0 0 0
2688 0 0 0
2689 0 0 0
2690 0 0 0
2569 0 0 0
2570 0 0 0
2571 0 0 0
2572 0 0 0
2573 0 0 0
2574 0 0 0
2575 0 0 0
2576 0 0 0
2577 0 0 0
2578 0 0 0
2669 0 0 0
2670 0 0 0
2671 0 0 0
2672 0 0 0
2673 0 0 0
2674 0 0 0
2675 0 0 0
2676 0 0 0
2677 0 0 0
2678 0 0 0
2706 0 0 0
2707 0 0 0
2708 0 0 0
2709 0 0 0
2710 0 0 0
2711 0 0 0
2712 0 0 0
2713 0 0 0
2714 0 0 0
2715 0 0 0
2716 0 0 0
2717 0 0 0
2718 0 0 0
2719 0 0 0
2720 0 0 0
2721 0 0 0
2722 0 0 0
2723 0 0 0
2724 0 0 0
72 0 0 0
1963 0 0 0
1964 0 0 0
1965 0 0 0
2579 0 0 0
2580 0 0 0
2581 0 0 0
2582 0 0 0
2583 0 0 0
2584 0 0 0
2585 0 0 0
2725 0 0 0
2746 0 0 0
2747 0 0 0
2748 0 0 0
2749 0 0 0
2750 0 0 0
2751 0 0 0
2752 0 0 0
2753 0 0 0
2754 0 0 0
2755 0 0 0
2756 0 0 0
2757 0 0 0
2758 0 0 0
2759 0 0 0
2760 0 0 0
2761 0 0 0
2762 0 0 0
73 0 0 0
2763 0 0 0
2764 0 0 0
2765 0 0 0
74 0 0 0
2125 0 0 0
2679 0 0 0
2680 0 0 0
2681 0 0 0
2682 0 0 0
2683 0 0 0
2684 0 0 0
2685 0 0 0
2766 0 0 0
2767 0 0 0
2768 0 0 0
2786 0 0 0
2787 0 0 0
2788 0 0 0
2789 0 0 0
2790 0 0 0
2124 0 0 0
2769 0 0 0
2770 0 0 0
2771 0 0 0
2772 0 0 0
2773 0 0 0
2774 0 0 0
2775 0 0 0
2776 0 0 0
2777 0 0 0
2778 0 0 0
75 0 0 0
2003 0 0 0
2004 0 0 0
2005 0 0 0
2185 0 0 0
2779 0 0 0
2780 0 0 0
2781 0 0 0
2782 0 0 0
2783 0 0 0
2784 0 0 0
2785 0 0 0
2806 0 0 0
2807 0 0 0
2808 0 0 0
2809 0 0 0
2810 0 0 0
1943 0 0 0
1945 0 0 0
2726 0 0 0
2727 0 0 0
71 0 0 0
1944 0 0 0
2728 0 0 0
2729 0 0 0
2730 0 0 0
2115 0 0 0
2116 0 0 0
2117 0 0 0
2118 0 0 0
2119 0 0 0
2120 0 0 0
2121 0 0 0
2122 0 0 0
2123 0 0 0
2175 0 0 0
2176 0 0 0
2177 0 0 0
2178 0 0 0
2179 0 0 0
2180 0 0 0
2181 0 0 0
2182 0 0 0
2183 0 0 0
2184 0 0 0
1364 0 0 0
2006 0 0 0
2007 0 0 0
2010 0 0 0
2047 0 0 0
2048 0 0 0
2049 0 0 0
2050 0 0 0
53 0 0 0
1363 0 0 0
1365 0 0 0
2008 0 0 0
2009 0 0 0
2046 0 0 0
2017 0 0 0
2018 0 0 0
2011 0 0 0
2019 0 0 0
2023 0 0 0
2087 0 0 0
2088 0 0 0
2024 0 0 0
2106 0 0 0
2107 0 0 0
2108 0 0 0
2109 0 0 0
2110 0 0 0
2111 0 0 0
2112 0 0 0
2113 0 0 0
2114 0 0 0
1445 0 0 0
2146 0 0 0
2150 0 0 0
55 0 0 0
1443 0 0 0
1444 0 0 0
2149 0 0 0
2166 0 0 0
2167 0 0 0
2168 0 0 0
2169 0 0 0
2170 0 0 0
2171 0 0 0
2172 0 0 0
2173 0 0 0
2174 0 0 0
1225 0 0 0
2052 0 0 0
2060 0 0 0
2053 0 0 0
2054 0 0 0
2055 0 0 0
2098 0 0 0
2099 0 0 0
2091 0 0 0
2096 0 0 0
2097 0 0 0
2152 0 0 0
2160 0 0 0
2153 0 0 0
2154 0 0 0
2155 0 0 0
2231 0 0 0
2237 0 0 0
2236 0 0 0
2238 0 0 0
2239 0 0 0
2291 0 0 0
2292 0 0 0
2293 0 0 0
2294 0 0 0
2295 0 0 0
2296 0 0 0
2297 0 0 0
2298 0 0 0
2299 0 0 0
2300 0 0 0
2351 0 0 0
2352 0 0 0
2353 0 0 0
2354 0 0 0
2355 0 0 0
2356 0 0 0
2357 0 0 0
2358 0 0 0
2359 0 0 0
2360 0 0 0
2232 0 0 0
2233 0 0 0
2235 0 0 0
2240 0 0 0
2234 0 0 0
2371 0 0 0
2380 0 0 0
2431 0 0 0
2432 0 0 0
2433 0 0 0
2434 0 0 0
2435 0 0 0
2436 0 0 0
2437 0 0 0
2438 0 0 0
2439 0 0 0
2440 0 0 0
2491 0 0 0
2492 0 0 0
2493 0 0 0
2494 0 0 0
2495 0 0 0
2496 0 0 0
2497 0 0 0
2498 0 0 0
2499 0 0 0
2500 0 0 0
2531 0 0 0
2532 0 0 0
2533 0 0 0
2534 0 0 0
2535 0 0 0
2536 0 0 0
2537 0 0 0
2538 0 0 0
2539 0 0 0
2540 0 0 0
2372 0 0 0
2374 0 0 0
2376 0 0 0
2377 0 0 0
2379 0 0 0
2373 0 0 0
2375 0 0 0
2378 0 0 0
2591 0 0 0
2592 0 0 0
2593 0 0 0
2594 0 0 0
2595 0 0 0
2596 0 0 0
2597 0 0 0
2598 0 0 0
2599 0 0 0
2600 0 0 0
2631 0 0 0
2632 0 0 0
2633 0 0 0
2634 0 0 0
2635 0 0 0
2636 0 0 0
2637 0 0 0
2638 0 0 0
2639 0 0 0
2640 0 0 0
2691 0 0 0
2692 0 0 0
2693 0 0 0
2694 0 0 0
2695 0 0 0
2696 0 0 0
2697 0 0 0
2698 0 0 0
2699 0 0 0
2700 0 0 0
2732 0 0 0
2733 0 0 0
2734 0 0 0
2740 0 0 0
2735 0 0 0
2791 0 0 0
2792 0 0 0
2793 0 0 0
2794 0 0 0
2795 0 0 0
2796 0 0 0
2797 0 0 0
2798 0 0 0
2799 0 0 0
2800 0 0 0
2811 0 0 0
2812 0 0 0
2813 0 0 0
2814 0 0 0
2815 0 0 0
2816 0 0 0
2817 0 0 0
2818 0 0 0
2819 0 0 0
2820 0 0 0
2736 0 0 0
2739 0 0 0
2731 0 0 0
2737 0 0 0
2738 0 0 0
2057 0 0 0
2058 0 0 0
2059 0 0 0
2051 0 0 0
2056 0 0 0
2092 0 0 0
2093 0 0 0
2094 0 0 0
2095 0 0 0
2100 0 0 0
2156 0 0 0
2157 0 0 0
2151 0 0 0
2158 0 0 0
2159 0 0 0
2827 0 0 0
2828 0 0 0
2834 0 0 0
2832 0 0 0
2833 0 0 0
2840 0 0 0
2842 0 0 0
2843 0 0 0
2841 0 0 0
2845 0 0 0
2846 0 0 0
2844 0 0 0
2847 0 0 0
2848 0 0 0
78 0 0 0
2061 0 0 0
2064 0 0 0
2065 0 0 0
2886 0 0 0
2888 0 0 0
2908 0 0 0
2062 0 0 0
2063 0 0 0
2887 0 0 0
2889 0 0 0
2890 0 0 0
2906 0 0 0
2907 0 0 0
2891 0 0 0
2898 0 0 0
2896 0 0 0
2897 0 0 0
2899 0 0 0
2946 0 0 0
2947 0 0 0
2948 0 0 0
2949 0 0 0
2950 0 0 0
2951 0 0 0
2952 0 0 0
2953 0 0 0
2954 0 0 0
80 0 0 0
2161 0 0 0
2162 0 0 0
2163 0 0 0
2164 0 0 0
2165 0 0 0
2988 0 0 0
2986 0 0 0
2987 0 0 0
76 0 0 0
2955 0 0 0
2956 0 0 0
2957 0 0 0
2958 0 0 0
2959 0 0 0
2960 0 0 0
2961 0 0 0
2962 0 0 0
2963 0 0 0
3026 0 0 0
3027 0 0 0
3028 0 0 0
3029 0 0 0
3030 0 0 0
3031 0 0 0
3032 0 0 0
3033 0 0 0
3034 0 0 0
3035 0 0 0
3036 0 0 0
3037 0 0 0
3038 0 0 0
3039 0 0 0
3040 0 0 0
3041 0 0 0
3042 0 0 0
3043 0 0 0
3044 0 0 0
82 0 0 0
2301 0 0 0
2302 0 0 0
2303 0 0 0
2304 0 0 0
2305 0 0 0
3045 0 0 0
3066 0 0 0
3067 0 0 0
3068 0 0 0
3069 0 0 0
3070 0 0 0
3071 0 0 0
3072 0 0 0
3086 0 0 0
3087 0 0 0
3088 0 0 0
3073 0 0 0
3074 0 0 0
3075 0 0 0
3076 0 0 0
3077 0 0 0
3078 0 0 0
3079 0 0 0
3080 0 0 0
3081 0 0 0
3082 0 0 0
83 0 0 0
3083 0 0 0
3084 0 0 0
3085 0 0 0
3106 0 0 0
3107 0 0 0
3108 0 0 0
3109 0 0 0
3110 0 0 0
3126 0 0 0
3127 0 0 0
3128 0 0 0
3129 0 0 0
3130 0 0 0
3131 0 0 0
3132 0 0 0
3146 0 0 0
3147 0 0 0
3148 0 0 0
3111 0 0 0
3112 0 0 0
3113 0 0 0
3114 0 0 0
3115 0 0 0
3116 0 0 0
3117 0 0 0
3118 0 0 0
3119 0 0 0
3120 0 0 0
2964 0 0 0
84 0 0 0
2965 0 0 0
3121 0 0 0
3122 0 0 0
3123 0 0 0
3124 0 0 0
3125 0 0 0
3166 0 0 0
3167 0 0 0
3168 0 0 0
3169 0 0 0
3170 0 0 0
3171 0 0 0
3172 0 0 0
85 0 0 0
2361 0 0 0
2362 0 0 0
2363 0 0 0
2364 0 0 0
2365 0 0 0
3186 0 0 0
3187 0 0 0
3188 0 0 0
3189 0 0 0
3190 0 0 0
3191 0 0 0
3192 0 0 0
3206 0 0 0
3207 0 0 0
3208 0 0 0
2241 0 0 0
2242 0 0 0
3046 0 0 0
81 0 0 0
2243 0 0 0
2244 0 0 0
2245 0 0 0
3047 0 0 0
3048 0 0 0
3133 0 0 0
3134 0 0 0
3135 0 0 0
3136 0 0 0
3137 0 0 0
3138 0 0 0
3139 0 0 0
3140 0 0 0
3141 0 0 0
3142 0 0 0
3173 0 0 0
3174 0 0 0
3175 0 0 0
3176 0 0 0
3177 0 0 0
3178 0 0 0
3179 0 0 0
3180 0 0 0
3181 0 0 0
3182 0 0 0
3193 0 0 0
3194 0 0 0
3195 0 0 0
3196 0 0 0
3197 0 0 0
3198 0 0 0
3199 0 0 0
3200 0 0 0
3201 0 0 0
3202 0 0 0
2381 0 0 0
2385 0 0 0
3226 0 0 0
3227 0 0 0
3228 0 0 0
3229 0 0 0
3246 0 0 0
3247 0 0 0
2382 0 0 0
2383 0 0 0
2384 0 0 0
3230 0 0 0
3248 0 0 0
87 0 0 0
2441 0 0 0
2442 0 0 0
2443 0 0 0
2444 0 0 0
2445 0 0 0
3286 0 0 0
3287 0 0 0
3288 0 0 0
3289 0 0 0
3290 0 0 0
3291 0 0 0
3292 0 0 0
3306 0 0 0
3307 0 0 0
3308 0 0 0
3293 0 0 0
3294 0 0 0
3295 0 0 0
3296 0 0 0
3297 0 0 0
3298 0 0 0
3299 0 0 0
3300 0 0 0
3301 0 0 0
3302 0 0 0
88 0 0 0
2501 0 0 0
2502 0 0 0
2503 0 0 0
2504 0 0 0
2505 0 0 0
3143 0 0 0
3144 0 0 0
3145 0 0 0
3303 0 0 0
3304 0 0 0
3305 0 0 0
3326 0 0 0
3327 0 0 0
3328 0 0 0
3329 0 0 0
3330 0 0 0
89 0 0 0
2541 0 0 0
2542 0 0 0
2543 0 0 0
2544 0 0 0
2545 0 0 0
3183 0 0 0
3184 0 0 0
3185 0 0 0
3346 0 0 0
3347 0 0 0
3348 0 0 0
3366 0 0 0
3367 0 0 0
3368 0 0 0
3369 0 0 0
3370 0 0 0
3349 0 0 0
3350 0 0 0
3351 0 0 0
3352 0 0 0
3353 0 0 0
3354 0 0 0
3355 0 0 0
3356 0 0 0
3357 0 0 0
3358 0 0 0
90 0 0 0
3203 0 0 0
3204 0 0 0
3205 0 0 0
3285 0 0 0
3359 0 0 0
3360 0 0 0
3361 0 0 0
3362 0 0 0
3363 0 0 0
3364 0 0 0
3365 0 0 0
3386 0 0 0
3387 0 0 0
3388 0 0 0
3284 0 0 0
3275 0 0 0
3276 0 0 0
3277 0 0 0
3278 0 0 0
3279 0 0 0
3280 0 0 0
3281 0 0 0
3282 0 0 0
3283 0 0 0
86 0 0 0
3266 0 0 0
3267 0 0 0
3268 0 0 0
3269 0 0 0
3270 0 0 0
3271 0 0 0
3272 0 0 0
3273 0 0 0
3274 0 0 0
3237 0 0 0
3239 0 0 0
3231 0 0 0
3238 0 0 0
3331 0 0 0
3332 0 0 0
3333 0 0 0
3334 0 0 0
3335 0 0 0
3336 0 0 0
3337 0 0 0
3338 0 0 0
3339 0 0 0
3340 0 0 0
3371 0 0 0
3372 0 0 0
3373 0 0 0
3374 0 0 0
3375 0 0 0
3376 0 0 0
3377 0 0 0
3378 0 0 0
3379 0 0 0
3380 0 0 0
3232 0 0 0
3233 0 0 0
3235 0 0 0
3240 0 0 0
3234 0 0 0
3236 0 0 0
91 0 0 0
3244 0 0 0
3406 0 0 0
3407 0 0 0
3408 0 0 0
3409 0 0 0
3410 0 0 0
3411 0 0 0
3412 0 0 0
3413 0 0 0
3414 0 0 0
3243 0 0 0
3415 0 0 0
3416 0 0 0
3417 0 0 0
3418 0 0 0
3419 0 0 0
3420 0 0 0
3421 0 0 0
3422 0 0 0
3423 0 0 0
3424 0 0 0
92 0 0 0
2601 0 0 0
2602 0 0 0
2603 0 0 0
2604 0 0 0
2605 0 0 0
3425 0 0 0
3446 0 0 0
3447 0 0 0
3448 0 0 0
3466 0 0 0
3467 0 0 0
3468 0 0 0
93 0 0 0
2641 0 0 0
2642 0 0 0
2643 0 0 0
2644 0 0 0
2645 0 0 0
3341 0 0 0
3342 0 0 0
3343 0 0 0
3344 0 0 0
3345 0 0 0
3486 0 0 0
3487 0 0 0
3488 0 0 0
94 0 0 0
3381 0 0 0
3382 0 0 0
3383 0 0 0
3384 0 0 0
3385 0 0 0
3506 0 0 0
3507 0 0 0
3508 0 0 0
3526 0 0 0
3527 0 0 0
3528 0 0 0
3546 0 0 0
3547 0 0 0
3548 0 0 0
3509 0 0 0
3510 0 0 0
3511 0 0 0
3512 0 0 0
3513 0 0 0
3514 0 0 0
3515 0 0 0
3516 0 0 0
3517 0 0 0
3518 0 0 0
95 0 0 0
2701 0 0 0
2702 0 0 0
2703 0 0 0
2704 0 0 0
2705 0 0 0
3445 0 0 0
3519 0 0 0
3520 0 0 0
3521 0 0 0
3522 0 0 0
3523 0 0 0
3524 0 0 0
3525 0 0 0
3566 0 0 0
3567 0 0 0
3568 0 0 0
3435 0 0 0
3436 0 0 0
3437 0 0 0
3438 0 0 0
3439 0 0 0
3440 0 0 0
3441 0 0 0
3442 0 0 0
3443 0 0 0
3444 0 0 0
3245 0 0 0
3241 0 0 0
3242 0 0 0
3426 0 0 0
3427 0 0 0
3428 0 0 0
3429 0 0 0
3430 0 0 0
3431 0 0 0
3432 0 0 0
3433 0 0 0
3434 0 0 0
3449 0 0 0
3450 0 0 0
3451 0 0 0
3452 0 0 0
3453 0 0 0
3454 0 0 0
3455 0 0 0
3456 0 0 0
3457 0 0 0
3458 0 0 0
3529 0 0 0
3530 0 0 0
3531 0 0 0
3532 0 0 0
3533 0 0 0
3534 0 0 0
3535 0 0 0
3536 0 0 0
3537 0 0 0
3538 0 0 0
96 0 0 0
2741 0 0 0
3586 0 0 0
3587 0 0 0
3588 0 0 0
3589 0 0 0
3590 0 0 0
3591 0 0 0
3592 0 0 0
3593 0 0 0
3594 0 0 0
2742 0 0 0
2745 0 0 0
3606 0 0 0
3595 0 0 0
3596 0 0 0
3597 0 0 0
3598 0 0 0
3599 0 0 0
3600 0 0 0
3601 0 0 0
3602 0 0 0
3603 0 0 0
3604 0 0 0
97 0 0 0
2885 0 0 0
3459 0 0 0
3460 0 0 0
3461 0 0 0
3462 0 0 0
3463 0 0 0
3464 0 0 0
3465 0 0 0
3605 0 0 0
3646 0 0 0
3647 0 0 0
3648 0 0 0
2884 0 0 0
98 0 0 0
2945 0 0 0
3666 0 0 0
3667 0 0 0
3668 0 0 0
3669 0 0 0
3670 0 0 0
3686 0 0 0
3687 0 0 0
3688 0 0 0
2944 0 0 0
3671 0 0 0
3672 0 0 0
3673 0 0 0
3674 0 0 0
3675 0 0 0
3676 0 0 0
3677 0 0 0
3678 0 0 0
3679 0 0 0
3680 0 0 0
99 0 0 0
2801 0 0 0
2802 0 0 0
2803 0 0 0
2804 0 0 0
2805 0 0 0
3539 0 0 0
3540 0 0 0
3541 0 0 0
3542 0 0 0
3543 0 0 0
3544 0 0 0
3545 0 0 0
3681 0 0 0
3682 0 0 0
3683 0 0 0
3684 0 0 0
3685 0 0 0
3706 0 0 0
3707 0 0 0
3708 0 0 0
100 0 0 0
2821 0 0 0
2822 0 0 0
2823 0 0 0
2824 0 0 0
2825 0 0 0
3025 0 0 0
3645 0 0 0
3644 0 0 0
3024 0 0 0
3635 0 0 0
3636 0 0 0
3637 0 0 0
3638 0 0 0
3639 0 0 0
3640 0 0 0
3641 0 0 0
3642 0 0 0
3643 0 0 0
3607 0 0 0
3608 0 0 0
2743 0 0 0
2744 0 0 0
3626 0 0 0
3627 0 0 0
3628 0 0 0
3629 0 0 0
3630 0 0 0
3631 0 0 0
3632 0 0 0
3633 0 0 0
3634 0 0 0
2875 0 0 0
2876 0 0 0
2877 0 0 0
2878 0 0 0
2879 0 0 0
2880 0 0 0
2881 0 0 0
2882 0 0 0
2883 0 0 0
2935 0 0 0
2936 0 0 0
2937 0 0 0
2938 0 0 0
2939 0 0 0
2940 0 0 0
2941 0 0 0
2942 0 0 0
2943 0 0 0
3015 0 0 0
3016 0 0 0
3017 0 0 0
3018 0 0 0
3019 0 0 0
3020 0 0 0
3021 0 0 0
3022 0 0 0
3023 0 0 0
2826 0 0 0
2829 0 0 0
2830 0 0 0
2831 0 0 0
2835 0 0 0
2839 0 0 0
2836 0 0 0
2837 0 0 0
2838 0 0 0
77 0 0 0
2866 0 0 0
2867 0 0 0
2868 0 0 0
2869 0 0 0
2870 0 0 0
2871 0 0 0
2872 0 0 0
2873 0 0 0
2874 0 0 0
2926 0 0 0
2927 0 0 0
2928 0 0 0
2929 0 0 0
2930 0 0 0
2931 0 0 0
2932 0 0 0
2933 0 0 0
2934 0 0 0
2894 0 0 0
2892 0 0 0
2893 0 0 0
2895 0 0 0
2900 0 0 0
2101 0 0 0
2102 0 0 0
2104 0 0 0
2105 0 0 0
2902 0 0 0
2904 0 0 0
2966 0 0 0
2968 0 0 0
79 0 0 0
2103 0 0 0
2901 0 0 0
2903 0 0 0
2905 0 0 0
2967 0 0 0
3006 0 0 0
3007 0 0 0
3008 0 0 0
3009 0 0 0
3010 0 0 0
3011 0 0 0
3012 0 0 0
3013 0 0 0
3014 0 0 0
2849 0 0 0
2850 0 0 0
2851 0 0 0
2857 0 0 0
2858 0 0 0
2910 0 0 0
2911 0 0 0
2917 0 0 0
2909 0 0 0
2916 0 0 0
2918 0 0 0
2972 0 0 0
2974 0 0 0
2975 0 0 0
2977 0 0 0
2978 0 0 0
2973 0 0 0
2976 0 0 0
2989 0 0 0
2990 0 0 0
2991 0 0 0
3052 0 0 0
3053 0 0 0
3055 0 0 0
3054 0 0 0
3089 0 0 0
3090 0 0 0
3091 0 0 0
3092 0 0 0
3093 0 0 0
3094 0 0 0
3095 0 0 0
3096 0 0 0
3097 0 0 0
3098 0 0 0
3149 0 0 0
3150 0 0 0
3151 0 0 0
3152 0 0 0
3153 0 0 0
3154 0 0 0
3155 0 0 0
3156 0 0 0
3157 0 0 0
3158 0 0 0
3209 0 0 0
3210 0 0 0
3211 0 0 0
3212 0 0 0
3213 0 0 0
3214 0 0 0
3215 0 0 0
3216 0 0 0
3217 0 0 0
3218 0 0 0
3049 0 0 0
3050 0 0 0
3056 0 0 0
3051 0 0 0
3057 0 0 0
3058 0 0 0
3250 0 0 0
3257 0 0 0
3258 0 0 0
3249 0 0 0
3251 0 0 0
3256 0 0 0
3309 0 0 0
3310 0 0 0
3311 0 0 0
3312 0 0 0
3313 0 0 0
3314 0 0 0
3315 0 0 0
3316 0 0 0
3317 0 0 0
3318 0 0 0
3389 0 0 0
3390 0 0 0
3391 0 0 0
3392 0 0 0
3393 0 0 0
3394 0 0 0
3395 0 0 0
3396 0 0 0
3397 0 0 0
3398 0 0 0
3252 0 0 0
3254 0 0 0
3253 0 0 0
3255 0 0 0
3469 0 0 0
3470 0 0 0
3471 0 0 0
3472 0 0 0
3473 0 0 0
3474 0 0 0
3475 0 0 0
3476 0 0 0
3477 0 0 0
3478 0 0 0
3489 0 0 0
3490 0 0 0
3491 0 0 0
3492 0 0 0
3493 0 0 0
3494 0 0 0
3495 0 0 0
3496 0 0 0
3497 0 0 0
3498 0 0 0
3549 0 0 0
3550 0 0 0
3551 0 0 0
3552 0 0 0
3553 0 0 0
3554 0 0 0
3555 0 0 0
3556 0 0 0
3557 0 0 0
3558 0 0 0
3569 0 0 0
3570 0 0 0
3571 0 0 0
3572 0 0 0
3573 0 0 0
3574 0 0 0
3575 0 0 0
3576 0 0 0
3577 0 0 0
3578 0 0 0
3616 0 0 0
3609 0 0 0
3610 0 0 0
3611 0 0 0
3615 0 0 0
3617 0 0 0
3618 0 0 0
3649 0 0 0
3650 0 0 0
3651 0 0 0
3652 0 0 0
3653 0 0 0
3654 0 0 0
3655 0 0 0
3656 0 0 0
3657 0 0 0
3658 0 0 0
3689 0 0 0
3690 0 0 0
3691 0 0 0
3692 0 0 0
3693 0 0 0
3694 0 0 0
3695 0 0 0
3696 0 0 0
3697 0 0 0
3698 0 0 0
3709 0 0 0
3710 0 0 0
3711 0 0 0
3712 0 0 0
3713 0 0 0
3714 0 0 0
3715 0 0 0
3716 0 0 0
3717 0 0 0
3718 0 0 0
3612 0 0 0
3613 0 0 0
3614 0 0 0
2853 0 0 0
2854 0 0 0
2852 0 0 0
2855 0 0 0
2856 0 0 0
2913 0 0 0
2912 0 0 0
2914 0 0 0
2915 0 0 0
2971 0 0 0
2969 0 0 0
2970 0 0 0
2992 0 0 0
2993 0 0 0
2996 0 0 0
2998 0 0 0
2994 0 0 0
2995 0 0 0
2997 0 0 0
3726 0 0 0
3728 0 0 0
3731 0 0 0
3727 0 0 0
3729 0 0 0
3730 0 0 0
3739 0 0 0
3736 0 0 0
3737 0 0 0
3738 0 0 0
3743 0 0 0
3744 0 0 0
2859 0 0 0
2864 0 0 0
3786 0 0 0
3787 0 0 0
3788 0 0 0
3789 0 0 0
3790 0 0 0
3791 0 0 0
3792 0 0 0
3793 0 0 0
3794 0 0 0
2863 0 0 0
103 0 0 0
2919 0 0 0
3846 0 0 0
3847 0 0 0
3848 0 0 0
3849 0 0 0
3850 0 0 0
3851 0 0 0
3852 0 0 0
3853 0 0 0
3854 0 0 0
3832 0 0 0
3835 0 0 0
3836 0 0 0
3839 0 0 0
3833 0 0 0
3834 0 0 0
3837 0 0 0
3838 0 0 0
104 0 0 0
2979 0 0 0
3886 0 0 0
3887 0 0 0
3888 0 0 0
3889 0 0 0
3890 0 0 0
3891 0 0 0
3892 0 0 0
3893 0 0 0
3894 0 0 0
3872 0 0 0
3875 0 0 0
3873 0 0 0
3874 0 0 0
105 0 0 0
3000 0 0 0
3001 0 0 0
3002 0 0 0
3003 0 0 0
3005 0 0 0
3881 0 0 0
3883 0 0 0
3884 0 0 0
3004 0 0 0
3765 0 0 0
3880 0 0 0
3882 0 0 0
3885 0 0 0
3764 0 0 0
3761 0 0 0
3762 0 0 0
3760 0 0 0
3763 0 0 0
101 0 0 0
3746 0 0 0
3748 0 0 0
3751 0 0 0
3747 0 0 0
3749 0 0 0
3750 0 0 0
3795 0 0 0
3796 0 0 0
3797 0 0 0
3798 0 0 0
3799 0 0 0
3800 0 0 0
3801 0 0 0
3802 0 0 0
3803 0 0 0
3855 0 0 0
3856 0 0 0
3857 0 0 0
3858 0 0 0
3859 0 0 0
3860 0 0 0
3861 0 0 0
3862 0 0 0
3863 0 0 0
3864 0 0 0
3895 0 0 0
3896 0 0 0
3897 0 0 0
3898 0 0 0
3899 0 0 0
3900 0 0 0
3901 0 0 0
3902 0 0 0
3903 0 0 0
106 0 0 0
465 0 0 0
3060 0 0 0
3062 0 0 0
3063 0 0 0
3064 0 0 0
3929 0 0 0
3930 0 0 0
3061 0 0 0
3065 0 0 0
3926 0 0 0
3927 0 0 0
3928 0 0 0
3931 0 0 0
464 0 0 0
3804 0 0 0
107 0 0 0
3099 0 0 0
3100 0 0 0
3101 0 0 0
3102 0 0 0
3103 0 0 0
3104 0 0 0
3105 0 0 0
3805 0 0 0
3966 0 0 0
3967 0 0 0
3968 0 0 0
3969 0 0 0
3970 0 0 0
3971 0 0 0
3972 0 0 0
108 0 0 0
545 0 0 0
3159 0 0 0
3160 0 0 0
3161 0 0 0
3162 0 0 0
3163 0 0 0
3164 0 0 0
3165 0 0 0
3865 0 0 0
3986 0 0 0
3987 0 0 0
3988 0 0 0
3989 0 0 0
3990 0 0 0
3991 0 0 0
3992 0 0 0
3904 0 0 0
109 0 0 0
585 0 0 0
3905 0 0 0
4006 0 0 0
4007 0 0 0
4008 0 0 0
4009 0 0 0
4010 0 0 0
4011 0 0 0
4012 0 0 0
110 0 0 0
3219 0 0 0
3220 0 0 0
3221 0 0 0
3222 0 0 0
3223 0 0 0
3224 0 0 0
3225 0 0 0
3965 0 0 0
4026 0 0 0
4027 0 0 0
4028 0 0 0
4029 0 0 0
4030 0 0 0
4031 0 0 0
4032 0 0 0
3964 0 0 0
3955 0 0 0
3956 0 0 0
3957 0 0 0
3958 0 0 0
3959 0 0 0
3960 0 0 0
3961 0 0 0
3962 0 0 0
3963 0 0 0
3059 0 0 0
3932 0 0 0
3946 0 0 0
3947 0 0 0
3948 0 0 0
3949 0 0 0
3950 0 0 0
3951 0 0 0
3952 0 0 0
3953 0 0 0
3954 0 0 0
3937 0 0 0
3936 0 0 0
3938 0 0 0
3939 0 0 0
3973 0 0 0
3974 0 0 0
3975 0 0 0
3976 0 0 0
3977 0 0 0
3978 0 0 0
3979 0 0 0
3980 0 0 0
3981 0 0 0
3982 0 0 0
3993 0 0 0
3994 0 0 0
3995 0 0 0
3996 0 0 0
3997 0 0 0
3998 0 0 0
3999 0 0 0
4000 0 0 0
4001 0 0 0
4002 0 0 0
4013 0 0 0
4014 0 0 0
4015 0 0 0
4016 0 0 0
4017 0 0 0
4018 0 0 0
4019 0 0 0
4020 0 0 0
4021 0 0 0
4022 0 0 0
4033 0 0 0
4034 0 0 0
4035 0 0 0
4036 0 0 0
4037 0 0 0
4038 0 0 0
4039 0 0 0
4040 0 0 0
4041 0 0 0
4042 0 0 0
3941 0 0 0
3942 0 0 0
3933 0 0 0
3934 0 0 0
3935 0 0 0
3940 0 0 0
111 0 0 0
3259 0 0 0
4046 0 0 0
4047 0 0 0
4048 0 0 0
4049 0 0 0
4050 0 0 0
4051 0 0 0
4052 0 0 0
4053 0 0 0
4054 0 0 0
4055 0 0 0
4056 0 0 0
4057 0 0 0
4058 0 0 0
4059 0 0 0
4060 0 0 0
4061 0 0 0
4062 0 0 0
4063 0 0 0
4064 0 0 0
112 0 0 0
3319 0 0 0
3320 0 0 0
3321 0 0 0
3322 0 0 0
3323 0 0 0
3324 0 0 0
3325 0 0 0
3983 0 0 0
3984 0 0 0
3985 0 0 0
4065 0 0 0
4086 0 0 0
4087 0 0 0
4088 0 0 0
4089 0 0 0
4090 0 0 0
4091 0 0 0
4092 0 0 0
4093 0 0 0
4094 0 0 0
4095 0 0 0
4096 0 0 0
4097 0 0 0
4098 0 0 0
4099 0 0 0
4100 0 0 0
4101 0 0 0
4102 0 0 0
113 0 0 0
765 0 0 0
4003 0 0 0
4004 0 0 0
4005 0 0 0
4103 0 0 0
4104 0 0 0
4105 0 0 0
4106 0 0 0
4107 0 0 0
4108 0 0 0
4109 0 0 0
4110 0 0 0
114 0 0 0
825 0 0 0
4023 0 0 0
4024 0 0 0
4025 0 0 0
4126 0 0 0
4127 0 0 0
4128 0 0 0
4146 0 0 0
4147 0 0 0
4148 0 0 0
4149 0 0 0
4150 0 0 0
4129 0 0 0
4130 0 0 0
4131 0 0 0
4132 0 0 0
4133 0 0 0
4134 0 0 0
4135 0 0 0
4136 0 0 0
4137 0 0 0
4138 0 0 0
115 0 0 0
3399 0 0 0
3400 0 0 0
3401 0 0 0
3402 0 0 0
3403 0 0 0
3404 0 0 0
3405 0 0 0
4043 0 0 0
4044 0 0 0
4045 0 0 0
4139 0 0 0
4140 0 0 0
4141 0 0 0
4142 0 0 0
4143 0 0 0
4144 0 0 0
4145 0 0 0
4166 0 0 0
4167 0 0 0
4168 0 0 0
4169 0 0 0
4170 0 0 0
3260 0 0 0
3261 0 0 0
3264 0 0 0
3265 0 0 0
3943 0 0 0
4067 0 0 0
4069 0 0 0
4070 0 0 0
3262 0 0 0
3263 0 0 0
3944 0 0 0
3945 0 0 0
4066 0 0 0
4068 0 0 0
4072 0 0 0
4073 0 0 0
4075 0 0 0
4080 0 0 0
4074 0 0 0
4111 0 0 0
4112 0 0 0
4113 0 0 0
4114 0 0 0
4115 0 0 0
4116 0 0 0
4117 0 0 0
4118 0 0 0
4119 0 0 0
4120 0 0 0
4151 0 0 0
4152 0 0 0
4153 0 0 0
4154 0 0 0
4155 0 0 0
4156 0 0 0
4157 0 0 0
4158 0 0 0
4159 0 0 0
4160 0 0 0
4171 0 0 0
4172 0 0 0
4173 0 0 0
4174 0 0 0
4175 0 0 0
4176 0 0 0
4177 0 0 0
4178 0 0 0
4179 0 0 0
4180 0 0 0
4076 0 0 0
4078 0 0 0
4079 0 0 0
4071 0 0 0
4077 0 0 0
116 0 0 0
4081 0 0 0
4082 0 0 0
4085 0 0 0
117 0 0 0
945 0 0 0
3479 0 0 0
3480 0 0 0
3481 0 0 0
3482 0 0 0
3483 0 0 0
3484 0 0 0
3485 0 0 0
4186 0 0 0
4187 0 0 0
4188 0 0 0
4189 0 0 0
4190 0 0 0
4191 0 0 0
4192 0 0 0
4206 0 0 0
4207 0 0 0
4208 0 0 0
944 0 0 0
4193 0 0 0
4194 0 0 0
4195 0 0 0
4196 0 0 0
4197 0 0 0
4198 0 0 0
4199 0 0 0
4200 0 0 0
4201 0 0 0
4202 0 0 0
118 0 0 0
3499 0 0 0
3500 0 0 0
3501 0 0 0
3502 0 0 0
3503 0 0 0
3504 0 0 0
3505 0 0 0
4121 0 0 0
4122 0 0 0
4123 0 0 0
4124 0 0 0
4125 0 0 0
4203 0 0 0
4204 0 0 0
4205 0 0 0
4226 0 0 0
4227 0 0 0
4228 0 0 0
119 0 0 0
1005 0 0 0
3559 0 0 0
3560 0 0 0
3561 0 0 0
3562 0 0 0
3563 0 0 0
3564 0 0 0
3565 0 0 0
4161 0 0 0
4162 0 0 0
4163 0 0 0
4164 0 0 0
4165 0 0 0
4246 0 0 0
4247 0 0 0
4248 0 0 0
120 0 0 0
1045 0 0 0
3579 0 0 0
3580 0 0 0
3581 0 0 0
3582 0 0 0
3583 0 0 0
3584 0 0 0
3585 0 0 0
4181 0 0 0
4182 0 0 0
4183 0 0 0
4184 0 0 0
4185 0 0 0
1044 0 0 0
4083 0 0 0
4084 0 0 0
4209 0 0 0
4210 0 0 0
4211 0 0 0
4212 0 0 0
4213 0 0 0
4214 0 0 0
4215 0 0 0
4216 0 0 0
4217 0 0 0
4218 0 0 0
4229 0 0 0
4230 0 0 0
4231 0 0 0
4232 0 0 0
4233 0 0 0
4234 0 0 0
4235 0 0 0
4236 0 0 0
4237 0 0 0
4238 0 0 0
4249 0 0 0
4250 0 0 0
4251 0 0 0
4252 0 0 0
4253 0 0 0
4254 0 0 0
4255 0 0 0
4256 0 0 0
4257 0 0 0
4258 0 0 0
121 0 0 0
3619 0 0 0
4266 0 0 0
4267 0 0 0
4268 0 0 0
4269 0 0 0
4270 0 0 0
4271 0 0 0
4272 0 0 0
4273 0 0 0
4274 0 0 0
4275 0 0 0
4276 0 0 0
4277 0 0 0
4278 0 0 0
4279 0 0 0
4280 0 0 0
4281 0 0 0
4282 0 0 0
4283 0 0 0
4284 0 0 0
122 0 0 0
3659 0 0 0
3660 0 0 0
3661 0 0 0
3662 0 0 0
3663 0 0 0
3664 0 0 0
3665 0 0 0
3825 0 0 0
4219 0 0 0
4220 0 0 0
4221 0 0 0
4222 0 0 0
4223 0 0 0
4224 0 0 0
4225 0 0 0
4285 0 0 0
3824 0 0 0
123 0 0 0
3699 0 0 0
3700 0 0 0
3701 0 0 0
3702 0 0 0
3703 0 0 0
3704 0 0 0
3705 0 0 0
4239 0 0 0
4240 0 0 0
4241 0 0 0
4242 0 0 0
4243 0 0 0
4244 0 0 0
4245 0 0 0
4286 0 0 0
4287 0 0 0
4288 0 0 0
4289 0 0 0
4290 0 0 0
4291 0 0 0
4292 0 0 0
4293 0 0 0
4294 0 0 0
4295 0 0 0
4296 0 0 0
4297 0 0 0
4298 0 0 0
4299 0 0 0
4300 0 0 0
124 0 0 0
3719 0 0 0
3720 0 0 0
3721 0 0 0
3722 0 0 0
3723 0 0 0
3724 0 0 0
3725 0 0 0
4259 0 0 0
4260 0 0 0
4261 0 0 0
4262 0 0 0
4263 0 0 0
4264 0 0 0
4265 0 0 0
4301 0 0 0
4302 0 0 0
4303 0 0 0
4304 0 0 0
4305 0 0 0
4306 0 0 0
4307 0 0 0
4308 0 0 0
4309 0 0 0
4310 0 0 0
4311 0 0 0
4312 0 0 0
4313 0 0 0
4314 0 0 0
4315 0 0 0
4316 0 0 0
4317 0 0 0
4318 0 0 0
125 0 0 0
1205 0 0 0
3925 0 0 0
4319 0 0 0
4320 0 0 0
4321 0 0 0
4322 0 0 0
4323 0 0 0
4324 0 0 0
4325 0 0 0
3924 0 0 0
1204 0 0 0
3620 0 0 0
3621 0 0 0
3622 0 0 0
3623 0 0 0
3624 0 0 0
3625 0 0 0
3785 0 0 0
3784 0 0 0
3776 0 0 0
3778 0 0 0
3779 0 0 0
3775 0 0 0
3777 0 0 0
3815 0 0 0
3816 0 0 0
3817 0 0 0
3818 0 0 0
3819 0 0 0
3820 0 0 0
3821 0 0 0
3822 0 0 0
3823 0 0 0
3915 0 0 0
3916 0 0 0
3917 0 0 0
3918 0 0 0
3919 0 0 0
3920 0 0 0
3921 0 0 0
3922 0 0 0
3923 0 0 0
3780 0 0 0
3782 0 0 0
3783 0 0 0
3781 0 0 0
3732 0 0 0
3733 0 0 0
3734 0 0 0
3766 0 0 0
3770 0 0 0
3771 0 0 0
3769 0 0 0
3735 0 0 0
3741 0 0 0
3742 0 0 0
3740 0 0 0
2861 0 0 0
102 0 0 0
2860 0 0 0
2862 0 0 0
2865 0 0 0
3745 0 0 0
3806 0 0 0
3807 0 0 0
3808 0 0 0
3809 0 0 0
3810 0 0 0
3811 0 0 0
3812 0 0 0
3813 0 0 0
3814 0 0 0
2922 0 0 0
2923 0 0 0
2924 0 0 0
3826 0 0 0
3828 0 0 0
2920 0 0 0
2921 0 0 0
2925 0 0 0
3827 0 0 0
3829 0 0 0
3830 0 0 0
3831 0 0 0
3840 0 0 0
2980 0 0 0
2981 0 0 0
2982 0 0 0
2983 0 0 0
3843 0 0 0
3866 0 0 0
3867 0 0 0
2984 0 0 0
2985 0 0 0
3841 0 0 0
3842 0 0 0
3844 0 0 0
3845 0 0 0
3868 0 0 0
3869 0 0 0
3870 0 0 0
3871 0 0 0
3876 0 0 0
3878 0 0 0
3877 0 0 0
2999 0 0 0
3879 0 0 0
3906 0 0 0
3907 0 0 0
3908 0 0 0
3909 0 0 0
3910 0 0 0
3911 0 0 0
3912 0 0 0
3913 0 0 0
3914 0 0 0
3755 0 0 0
3756 0 0 0
3757 0 0 0
3759 0 0 0
3758 0 0 0
3753 0 0 0
3754 0 0 0
3773 0 0 0
3774 0 0 0
3752 0 0 0
3767 0 0 0
3768 0 0 0
3772 0 0 0
460 0 0 0
462 0 0 0
461 0 0 0
463 0 0 0
535 0 0 0
536 0 0 0
537 0 0 0
538 0 0 0
539 0 0 0
540 0 0 0
541 0 0 0
542 0 0 0
543 0 0 0
544 0 0 0
575 0 0 0
576 0 0 0
577 0 0 0
578 0 0 0
579 0 0 0
580 0 0 0
581 0 0 0
582 0 0 0
583 0 0 0
584 0 0 0
456 0 0 0
458 0 0 0
459 0 0 0
455 0 0 0
457 0 0 0
755 0 0 0
756 0 0 0
757 0 0 0
758 0 0 0
759 0 0 0
760 0 0 0
761 0 0 0
762 0 0 0
763 0 0 0
764 0 0 0
815 0 0 0
816 0 0 0
817 0 0 0
818 0 0 0
819 0 0 0
820 0 0 0
821 0 0 0
822 0 0 0
823 0 0 0
824 0 0 0
935 0 0 0
936 0 0 0
937 0 0 0
938 0 0 0
939 0 0 0
940 0 0 0
941 0 0 0
942 0 0 0
943 0 0 0
995 0 0 0
996 0 0 0
997 0 0 0
998 0 0 0
999 0 0 0
1000 0 0 0
1001 0 0 0
1002 0 0 0
1003 0 0 0
1004 0 0 0
1035 0 0 0
1036 0 0 0
1037 0 0 0
1038 0 0 0
1039 0 0 0
1040 0 0 0
1041 0 0 0
1042 0 0 0
1043 0 0 0
1195 0 0 0
1196 0 0 0
1197 0 0 0
1198 0 0 0
1199 0 0 0
1200 0 0 0
1201 0 0 0
1202 0 0 0
1203 0 0 0
126 0 0 0
129 0 0 0
128 0 0 0
130 0 0 0
131 0 0 0
187 0 0 0
189 0 0 0
190 0 0 0
191 0 0 0
186 0 0 0
188 0 0 0
200 0 0 0
202 0 0 0
201 0 0 0
204 0 0 0
250 0 0 0
247 0 0 0
203 0 0 0
205 0 0 0
249 0 0 0
246 0 0 0
248 0 0 0
251 0 0 0
327 0 0 0
328 0 0 0
330 0 0 0
331 0 0 0
326 0 0 0
329 0 0 0
366 0 0 0
370 0 0 0
367 0 0 0
368 0 0 0
369 0 0 0
371 0 0 0
133 0 0 0
132 0 0 0
134 0 0 0
140 0 0 0
144 0 0 0
141 0 0 0
142 0 0 0
143 0 0 0
338 0 0 0
339 0 0 0
336 0 0 0
337 0 0 0
380 0 0 0
384 0 0 0
381 0 0 0
382 0 0 0
383 0 0 0
136 0 0 0
139 0 0 0
138 0 0 0
135 0 0 0
137 0 0 0
145 0 0 0
6 0 0 0
447 0 0 0
446 0 0 0
448 0 0 0
449 0 0 0
450 0 0 0
451 0 0 0
466 0 0 0
487 0 0 0
490 0 0 0
8 0 0 0
469 0 0 0
470 0 0 0
488 0 0 0
489 0 0 0
491 0 0 0
526 0 0 0
527 0 0 0
528 0 0 0
529 0 0 0
530 0 0 0
531 0 0 0
532 0 0 0
533 0 0 0
534 0 0 0
477 0 0 0
479 0 0 0
471 0 0 0
476 0 0 0
478 0 0 0
9 0 0 0
566 0 0 0
567 0 0 0
568 0 0 0
569 0 0 0
570 0 0 0
571 0 0 0
572 0 0 0
573 0 0 0
574 0 0 0
552 0 0 0
553 0 0 0
554 0 0 0
555 0 0 0
445 0 0 0
560 0 0 0
444 0 0 0
385 0 0 0
561 0 0 0
562 0 0 0
563 0 0 0
564 0 0 0
565 0 0 0
435 0 0 0
441 0 0 0
442 0 0 0
443 0 0 0
440 0 0 0
427 0 0 0
433 0 0 0
434 0 0 0
453 0 0 0
428 0 0 0
432 0 0 0
452 0 0 0
454 0 0 0
497 0 0 0
502 0 0 0
493 0 0 0
495 0 0 0
501 0 0 0
606 0 0 0
607 0 0 0
11 0 0 0
608 0 0 0
610 0 0 0
609 0 0 0
666 0 0 0
667 0 0 0
668 0 0 0
689 0 0 0
669 0 0 0
670 0 0 0
671 0 0 0
686 0 0 0
687 0 0 0
688 0 0 0
690 0 0 0
676 0 0 0
677 0 0 0
678 0 0 0
679 0 0 0
505 0 0 0
684 0 0 0
13 0 0 0
503 0 0 0
504 0 0 0
683 0 0 0
746 0 0 0
747 0 0 0
748 0 0 0
749 0 0 0
750 0 0 0
751 0 0 0
752 0 0 0
753 0 0 0
754 0 0 0
806 0 0 0
807 0 0 0
808 0 0 0
809 0 0 0
810 0 0 0
811 0 0 0
812 0 0 0
813 0 0 0
814 0 0 0
772 0 0 0
775 0 0 0
776 0 0 0
773 0 0 0
774 0 0 0
780 0 0 0
785 0 0 0
830 0 0 0
664 0 0 0
781 0 0 0
782 0 0 0
826 0 0 0
829 0 0 0
658 0 0 0
659 0 0 0
663 0 0 0
657 0 0 0
646 0 0 0
648 0 0 0
651 0 0 0
647 0 0 0
649 0 0 0
650 0 0 0
611 0 0 0
620 0 0 0
691 0 0 0
696 0 0 0
697 0 0 0
698 0 0 0
699 0 0 0
792 0 0 0
794 0 0 0
795 0 0 0
796 0 0 0
793 0 0 0
797 0 0 0
798 0 0 0
799 0 0 0
831 0 0 0
837 0 0 0
838 0 0 0
839 0 0 0
836 0 0 0
624 0 0 0
846 0 0 0
848 0 0 0
621 0 0 0
625 0 0 0
847 0 0 0
622 0 0 0
623 0 0 0
926 0 0 0
927 0 0 0
928 0 0 0
929 0 0 0
930 0 0 0
931 0 0 0
932 0 0 0
933 0 0 0
934 0 0 0
18 0 0 0
986 0 0 0
987 0 0 0
988 0 0 0
989 0 0 0
990 0 0 0
991 0 0 0
992 0 0 0
993 0 0 0
994 0 0 0
20 0 0 0
1026 0 0 0
1027 0 0 0
1028 0 0 0
1029 0 0 0
1030 0 0 0
1031 0 0 0
1032 0 0 0
1033 0 0 0
1034 0 0 0
896 0 0 0
897 0 0 0
898 0 0 0
899 0 0 0
887 0 0 0
889 0 0 0
890 0 0 0
891 0 0 0
886 0 0 0
888 0 0 0
851 0 0 0
857 0 0 0
850 0 0 0
856 0 0 0
858 0 0 0
849 0 0 0
912 0 0 0
913 0 0 0
915 0 0 0
914 0 0 0
972 0 0 0
974 0 0 0
975 0 0 0
973 0 0 0
1012 0 0 0
1014 0 0 0
1016 0 0 0
1017 0 0 0
1013 0 0 0
1015 0 0 0
1018 0 0 0
859 0 0 0
1052 0 0 0
1053 0 0 0
1054 0 0 0
863 0 0 0
864 0 0 0
1047 0 0 0
1048 0 0 0
1061 0 0 0
1062 0 0 0
1064 0 0 0
1060 0 0 0
1063 0 0 0
245 0 0 0
920 0 0 0
922 0 0 0
923 0 0 0
925 0 0 0
1065 0 0 0
921 0 0 0
924 0 0 0
244 0 0 0
1106 0 0 0
1108 0 0 0
304 0 0 0
305 0 0 0
1107 0 0 0
1109 0 0 0
1110 0 0 0
1111 0 0 0
1120 0 0 0
981 0 0 0
983 0 0 0
985 0 0 0
1123 0 0 0
1125 0 0 0
24 0 0 0
980 0 0 0
982 0 0 0
984 0 0 0
1121 0 0 0
1122 0 0 0
1124 0 0 0
1146 0 0 0
1147 0 0 0
1148 0 0 0
1149 0 0 0
1150 0 0 0
1157 0 0 0
1158 0 0 0
1151 0 0 0
1156 0 0 0
1019 0 0 0
1159 0 0 0
25 0 0 0
1186 0 0 0
1187 0 0 0
1188 0 0 0
1189 0 0 0
1190 0 0 0
1191 0 0 0
1192 0 0 0
1193 0 0 0
1194 0 0 0
1077 0 0 0
1078 0 0 0
1079 0 0 0
1076 0 0 0
1069 0 0 0
1070 0 0 0
1071 0 0 0
21 0 0 0
1066 0 0 0
176 0 0 0
241 0 0 0
242 0 0 0
240 0 0 0
243 0 0 0
302 0 0 0
303 0 0 0
300 0 0 0
301 0 0 0
175 0 0 0
227 0 0 0
230 0 0 0
231 0 0 0
2 0 0 0
226 0 0 0
228 0 0 0
229 0 0 0
287 0 0 0
289 0 0 0
286 0 0 0
288 0 0 0
290 0 0 0
291 0 0 0
260 0 0 0
262 0 0 0
263 0 0 0
264 0 0 0
306 0 0 0
308 0 0 0
265 0 0 0
261 0 0 0
4 0 0 0
307 0 0 0
309 0 0 0
310 0 0 0
311 0 0 0
165 0 0 0
320 0 0 0
323 0 0 0
324 0 0 0
321 0 0 0
322 0 0 0
164 0 0 0
5 0 0 0
325 0 0 0
155 0 0 0
163 0 0 0
162 0 0 0
161 0 0 0
160 0 0 0
148 0 0 0
152 0 0 0
147 0 0 0
153 0 0 0
154 0 0 0

Bonds

1 1 127 128
2 1 206 207
3 1 208 209
4 1 207 208
5 1 209 210
6 1 210 211
7 1 211 212
8 1 3 246
9 1 3 266
10 1 3 286
11 1 266 267
12 1 267 268
13 1 268 269
14 1 269 270
15 1 270 271
16 1 271 272
17 1 257 258
18 1 259 260
19 1 256 257
20 1 258 259
21 1 332 333
22 1 334 335
23 1 352 353
24 1 353 354
25 1 354 355
26 1 333 334
27 1 313 314
28 1 317 318
29 1 312 313
30 1 314 315
31 1 316 317
32 1 315 316
33 1 318 319
34 1 373 374
35 1 374 375
36 1 393 394
37 1 392 393
38 1 394 395
39 1 319 320
40 1 372 373
41 1 156 157
42 1 158 159
43 1 159 160
44 1 157 158
45 1 151 152
46 1 146 147
47 1 149 150
48 1 150 151
49 1 340 341
50 1 341 342
51 1 342 343
52 1 344 345
53 1 335 336
54 1 343 344
55 1 376 377
56 1 377 378
57 1 378 379
58 1 379 380
59 1 375 376
60 1 406 407
61 1 407 408
62 1 408 409
63 1 410 411
64 1 411 412
65 1 409 410
66 1 467 468
67 1 468 469
68 1 492 493
69 1 506 507
70 1 507 508
71 1 508 509
72 1 509 510
73 1 510 511
74 1 511 512
75 1 512 513
76 1 513 514
77 1 514 515
78 1 486 487
79 1 475 476
80 1 472 473
81 1 473 474
82 1 474 475
83 1 480 481
84 1 481 482
85 1 484 485
86 1 547 548
87 1 548 549
88 1 345 9
89 1 482 483
90 1 483 484
91 1 485 9
92 1 546 547
93 1 550 551
94 1 551 552
95 1 556 557
96 1 557 558
97 1 558 559
98 1 549 550
99 1 10 586
100 1 586 587
101 1 587 588
102 1 588 589
103 1 589 590
104 1 590 591
105 1 591 592
106 1 592 593
107 1 593 594
108 1 594 595
109 1 559 560
110 1 437 438
111 1 438 439
112 1 436 437
113 1 439 440
114 1 412 413
115 1 413 414
116 1 414 415
117 1 426 427
118 1 431 432
119 1 429 430
120 1 430 431
121 1 494 495
122 1 496 497
123 1 499 500
124 1 500 501
125 1 498 499
126 1 626 627
127 1 628 629
128 1 629 630
129 1 631 632
130 1 627 628
131 1 630 631
132 1 12 666
133 1 12 686
134 1 12 706
135 1 706 707
136 1 707 708
137 1 708 709
138 1 709 710
139 1 710 711
140 1 711 712
141 1 712 713
142 1 713 714
143 1 714 715
144 1 672 673
145 1 673 674
146 1 674 675
147 1 680 681
148 1 681 682
149 1 675 676
150 1 682 683
151 1 685 13
152 1 726 727
153 1 727 728
154 1 728 729
155 1 729 730
156 1 730 731
157 1 731 732
158 1 732 733
159 1 733 734
160 1 734 735
161 1 14 766
162 1 14 786
163 1 14 806
164 1 766 767
165 1 767 768
166 1 768 769
167 1 786 787
168 1 787 788
169 1 788 789
170 1 789 790
171 1 790 791
172 1 770 771
173 1 777 778
174 1 778 779
175 1 769 770
176 1 771 772
177 1 15 826
178 1 779 780
179 1 783 784
180 1 784 785
181 1 665 15
182 1 827 828
183 1 828 829
184 1 660 661
185 1 662 663
186 1 655 656
187 1 656 657
188 1 661 662
189 1 632 633
190 1 633 634
191 1 634 635
192 1 653 654
193 1 652 653
194 1 654 655
195 1 692 693
196 1 693 694
197 1 700 701
198 1 694 695
199 1 695 696
200 1 791 792
201 1 800 801
202 1 833 834
203 1 834 835
204 1 835 836
205 1 840 841
206 1 832 833
207 1 614 615
208 1 618 619
209 1 615 616
210 1 616 617
211 1 617 618
212 1 619 620
213 1 612 613
214 1 613 614
215 1 16 846
216 1 16 866
217 1 16 886
218 1 871 872
219 1 866 867
220 1 867 868
221 1 868 869
222 1 869 870
223 1 870 871
224 1 17 906
225 1 17 926
226 1 702 703
227 1 704 705
228 1 705 17
229 1 906 907
230 1 907 908
231 1 908 909
232 1 701 702
233 1 703 704
234 1 946 947
235 1 947 948
236 1 948 949
237 1 949 950
238 1 950 951
239 1 951 952
240 1 952 953
241 1 953 954
242 1 954 955
243 1 19 966
244 1 19 986
245 1 803 804
246 1 967 968
247 1 801 802
248 1 802 803
249 1 804 805
250 1 805 19
251 1 966 967
252 1 968 969
253 1 841 842
254 1 843 844
255 1 844 845
256 1 845 20
257 1 1008 1009
258 1 842 843
259 1 905 20
260 1 1006 1007
261 1 1007 1008
262 1 895 896
263 1 900 901
264 1 901 902
265 1 902 903
266 1 904 905
267 1 903 904
268 1 872 873
269 1 874 875
270 1 873 874
271 1 892 893
272 1 893 894
273 1 894 895
274 1 910 911
275 1 916 917
276 1 917 918
277 1 909 910
278 1 911 912
279 1 918 919
280 1 971 972
281 1 977 978
282 1 978 979
283 1 969 970
284 1 970 971
285 1 976 977
286 1 1009 1010
287 1 1010 1011
288 1 1011 1012
289 1 852 853
290 1 855 856
291 1 853 854
292 1 854 855
293 1 860 861
294 1 1046 1047
295 1 1049 1050
296 1 1050 1051
297 1 1051 1052
298 1 1056 1057
299 1 1057 1058
300 1 1059 1060
301 1 1055 1056
302 1 1058 1059
303 1 22 1086
304 1 1086 1087
305 1 1087 1088
306 1 1088 1089
307 1 1089 1090
308 1 1090 1091
309 1 1091 1092
310 1 1092 1093
311 1 1093 1094
312 1 1094 1095
313 1 919 920
314 1 23 1106
315 1 23 1126
316 1 1126 1127
317 1 1127 1128
318 1 1128 1129
319 1 1129 1130
320 1 1130 1131
321 1 1131 1132
322 1 1132 1133
323 1 1133 1134
324 1 1134 1135
325 1 1113 1114
326 1 1114 1115
327 1 1116 1117
328 1 1118 1119
329 1 1112 1113
330 1 1115 1116
331 1 1117 1118
332 1 1119 1120
333 1 1166 1167
334 1 1167 1168
335 1 1168 1169
336 1 1169 1170
337 1 1170 1171
338 1 1171 1172
339 1 1172 1173
340 1 1173 1174
341 1 1174 1175
342 1 979 980
343 1 1152 1153
344 1 1154 1155
345 1 1153 1154
346 1 1155 1156
347 1 1020 1021
348 1 1021 1022
349 1 1023 1024
350 1 1024 1025
351 1 1025 25
352 1 1085 25
353 1 1164 1165
354 1 1084 1085
355 1 1022 1023
356 1 1160 1161
357 1 1161 1162
358 1 1162 1163
359 1 1163 1164
360 1 1165 25
361 1 1075 1076
362 1 1082 1083
363 1 1080 1081
364 1 1081 1082
365 1 1083 1084
366 1 185 21
367 1 1067 1068
368 1 1068 1069
369 1 1073 1074
370 1 1074 1075
371 1 861 862
372 1 862 863
373 1 865 21
374 1 1072 1073
375 1 178 179
376 1 179 180
377 1 184 185
378 1 183 184
379 1 177 178
380 1 236 237
381 1 237 238
382 1 235 236
383 1 238 239
384 1 239 240
385 1 296 297
386 1 297 298
387 1 298 299
388 1 295 296
389 1 299 300
390 1 181 182
391 1 182 183
392 1 180 181
393 1 1 126
394 1 1 146
395 1 1 166
396 1 167 168
397 1 168 169
398 1 170 171
399 1 166 167
400 1 171 172
401 1 169 170
402 1 192 193
403 1 214 215
404 1 212 213
405 1 213 214
406 1 233 234
407 1 234 235
408 1 232 233
409 1 195 196
410 1 197 198
411 1 196 197
412 1 198 199
413 1 199 200
414 1 194 195
415 1 193 194
416 1 272 273
417 1 273 274
418 1 274 275
419 1 292 293
420 1 293 294
421 1 294 295
422 1 252 253
423 1 253 254
424 1 255 256
425 1 254 255
426 1 346 347
427 1 348 349
428 1 350 351
429 1 347 348
430 1 349 350
431 1 351 352
432 1 386 387
433 1 387 388
434 1 388 389
435 1 389 390
436 1 390 391
437 1 391 392
438 1 172 173
439 1 174 175
440 1 173 174
441 1 223 224
442 1 224 225
443 1 217 218
444 1 218 219
445 1 219 220
446 1 277 278
447 1 278 279
448 1 279 280
449 1 276 277
450 1 355 356
451 1 361 362
452 1 362 363
453 1 356 357
454 1 360 361
455 1 396 397
456 1 401 402
457 1 395 396
458 1 402 403
459 1 416 417
460 1 418 419
461 1 419 420
462 1 417 418
463 1 515 516
464 1 516 517
465 1 517 518
466 1 518 519
467 1 519 520
468 1 520 521
469 1 521 522
470 1 522 523
471 1 523 524
472 1 524 525
473 1 595 596
474 1 596 597
475 1 597 598
476 1 598 599
477 1 599 600
478 1 600 601
479 1 601 602
480 1 602 603
481 1 603 604
482 1 415 416
483 1 420 421
484 1 421 422
485 1 423 424
486 1 422 423
487 1 639 640
488 1 643 644
489 1 644 645
490 1 637 638
491 1 638 639
492 1 715 716
493 1 716 717
494 1 717 718
495 1 718 719
496 1 719 720
497 1 720 721
498 1 721 722
499 1 722 723
500 1 723 724
501 1 735 736
502 1 736 737
503 1 737 738
504 1 738 739
505 1 739 740
506 1 740 741
507 1 741 742
508 1 742 743
509 1 743 744
510 1 635 636
511 1 641 642
512 1 642 643
513 1 636 637
514 1 640 641
515 1 884 885
516 1 880 881
517 1 881 882
518 1 882 883
519 1 883 884
520 1 955 956
521 1 956 957
522 1 957 958
523 1 958 959
524 1 959 960
525 1 960 961
526 1 961 962
527 1 962 963
528 1 963 964
529 1 876 877
530 1 877 878
531 1 878 879
532 1 879 880
533 1 875 876
534 1 1095 1096
535 1 1096 1097
536 1 1097 1098
537 1 1098 1099
538 1 1099 1100
539 1 1100 1101
540 1 1101 1102
541 1 1102 1103
542 1 1103 1104
543 1 1135 1136
544 1 1136 1137
545 1 1137 1138
546 1 1138 1139
547 1 1139 1140
548 1 1140 1141
549 1 1141 1142
550 1 1142 1143
551 1 1143 1144
552 1 1144 1145
553 1 1175 1176
554 1 1176 1177
555 1 1177 1178
556 1 1178 1179
557 1 1179 1180
558 1 1180 1181
559 1 1181 1182
560 1 1182 1183
561 1 1183 1184
562 1 1184 1185
563 1 216 217
564 1 215 216
565 1 220 221
566 1 221 222
567 1 222 223
568 1 281 282
569 1 282 283
570 1 275 276
571 1 280 281
572 1 283 284
573 1 357 358
574 1 358 359
575 1 359 360
576 1 364 365
577 1 363 364
578 1 397 398
579 1 398 399
580 1 399 400
581 1 403 404
582 1 404 405
583 1 400 401
584 1 1210 1211
585 1 1211 1212
586 1 1206 1207
587 1 1209 1210
588 1 1207 1208
589 1 1208 1209
590 1 27 1266
591 1 27 1286
592 1 27 1306
593 1 1266 1267
594 1 1271 1272
595 1 1286 1287
596 1 1287 1288
597 1 1288 1289
598 1 1289 1290
599 1 1290 1291
600 1 1291 1292
601 1 1292 1293
602 1 1293 1294
603 1 1294 1295
604 1 1269 1270
605 1 1270 1271
606 1 1276 1277
607 1 1277 1278
608 1 1278 1279
609 1 1275 1276
610 1 1279 1280
611 1 1326 1327
612 1 1327 1328
613 1 1328 1329
614 1 1329 1330
615 1 1330 1331
616 1 1331 1332
617 1 1332 1333
618 1 1333 1334
619 1 1334 1335
620 1 1352 1353
621 1 29 1366
622 1 29 1386
623 1 29 1406
624 1 365 29
625 1 1368 1369
626 1 1386 1387
627 1 1387 1388
628 1 1388 1389
629 1 1389 1390
630 1 1390 1391
631 1 1391 1392
632 1 1392 1393
633 1 1393 1394
634 1 1394 1395
635 1 1367 1368
636 1 1369 1370
637 1 1370 1371
638 1 1371 1372
639 1 1372 1373
640 1 1373 1374
641 1 1374 1375
642 1 30 1426
643 1 405 30
644 1 1426 1427
645 1 1428 1429
646 1 1429 1430
647 1 1432 1433
648 1 1427 1428
649 1 1236 1237
650 1 1238 1239
651 1 1239 1240
652 1 1244 1245
653 1 1237 1238
654 1 1243 1244
655 1 26 1206
656 1 26 1226
657 1 26 1246
658 1 1226 1227
659 1 1228 1229
660 1 1227 1228
661 1 1229 1230
662 1 1230 1231
663 1 1231 1232
664 1 1295 1296
665 1 1296 1297
666 1 1297 1298
667 1 1298 1299
668 1 1299 1300
669 1 1300 1301
670 1 1301 1302
671 1 1302 1303
672 1 1303 1304
673 1 1335 1336
674 1 1336 1337
675 1 1337 1338
676 1 1338 1339
677 1 1339 1340
678 1 1340 1341
679 1 1341 1342
680 1 1342 1343
681 1 1343 1344
682 1 1344 1345
683 1 1395 1396
684 1 1396 1397
685 1 1397 1398
686 1 1398 1399
687 1 1399 1400
688 1 1400 1401
689 1 1401 1402
690 1 1402 1403
691 1 1403 1404
692 1 1446 1447
693 1 1447 1448
694 1 1448 1449
695 1 1449 1450
696 1 1450 1451
697 1 1451 1452
698 1 1452 1453
699 1 1453 1454
700 1 1454 1455
701 1 1472 1473
702 1 1455 1456
703 1 1456 1457
704 1 1457 1458
705 1 1458 1459
706 1 1459 1460
707 1 1460 1461
708 1 1461 1462
709 1 1462 1463
710 1 1463 1464
711 1 1464 1465
712 1 1304 1305
713 1 32 1486
714 1 32 1506
715 1 1305 32
716 1 1465 32
717 1 1486 1487
718 1 1487 1488
719 1 1488 1489
720 1 1489 1490
721 1 1490 1491
722 1 1491 1492
723 1 1492 1493
724 1 1506 1507
725 1 1507 1508
726 1 1508 1509
727 1 1509 1510
728 1 1510 1511
729 1 1511 1512
730 1 1512 1513
731 1 33 1526
732 1 33 1546
733 1 525 33
734 1 1345 33
735 1 1526 1527
736 1 1527 1528
737 1 1528 1529
738 1 1529 1530
739 1 1530 1531
740 1 1531 1532
741 1 1532 1533
742 1 1546 1547
743 1 1547 1548
744 1 1548 1549
745 1 1549 1550
746 1 1550 1551
747 1 1551 1552
748 1 1552 1553
749 1 1404 1405
750 1 34 1566
751 1 34 1586
752 1 1405 34
753 1 1566 1567
754 1 1567 1568
755 1 1568 1569
756 1 1586 1587
757 1 1587 1588
758 1 1588 1589
759 1 1589 1590
760 1 1590 1591
761 1 1591 1592
762 1 1592 1593
763 1 1569 1570
764 1 1570 1571
765 1 1571 1572
766 1 1572 1573
767 1 1573 1574
768 1 1574 1575
769 1 1575 1576
770 1 1576 1577
771 1 1577 1578
772 1 1578 1579
773 1 604 605
774 1 35 1606
775 1 605 35
776 1 1579 1580
777 1 1580 1581
778 1 1581 1582
779 1 1582 1583
780 1 1583 1584
781 1 1584 1585
782 1 1585 35
783 1 1606 1607
784 1 1607 1608
785 1 1608 1609
786 1 1609 1610
787 1 1610 1611
788 1 1611 1612
789 1 1612 1613
790 1 424 425
791 1 1467 1468
792 1 1468 1469
793 1 1470 1471
794 1 31 1446
795 1 31 1466
796 1 425 31
797 1 1466 1467
798 1 1469 1470
799 1 1471 1472
800 1 1473 1474
801 1 1474 1475
802 1 1476 1477
803 1 1480 1481
804 1 1481 1482
805 1 1475 1476
806 1 1482 1483
807 1 1493 1494
808 1 1494 1495
809 1 1495 1496
810 1 1496 1497
811 1 1497 1498
812 1 1498 1499
813 1 1499 1500
814 1 1500 1501
815 1 1501 1502
816 1 1502 1503
817 1 1533 1534
818 1 1534 1535
819 1 1535 1536
820 1 1536 1537
821 1 1537 1538
822 1 1538 1539
823 1 1539 1540
824 1 1540 1541
825 1 1541 1542
826 1 1542 1543
827 1 1613 1614
828 1 1614 1615
829 1 1615 1616
830 1 1616 1617
831 1 1617 1618
832 1 1618 1619
833 1 1619 1620
834 1 1620 1621
835 1 1621 1622
836 1 1622 1623
837 1 1477 1478
838 1 1478 1479
839 1 1479 1480
840 1 36 1626
841 1 1627 1628
842 1 1628 1629
843 1 1485 36
844 1 724 725
845 1 37 1646
846 1 725 37
847 1 1503 1504
848 1 1504 1505
849 1 1505 37
850 1 1646 1647
851 1 1647 1648
852 1 1648 1649
853 1 1649 1650
854 1 1650 1651
855 1 1651 1652
856 1 1652 1653
857 1 744 745
858 1 38 1666
859 1 38 1686
860 1 745 38
861 1 1543 1544
862 1 1544 1545
863 1 1545 38
864 1 1666 1667
865 1 1667 1668
866 1 1668 1669
867 1 1669 1670
868 1 1670 1671
869 1 1686 1687
870 1 1687 1688
871 1 1688 1689
872 1 1689 1690
873 1 1690 1691
874 1 1691 1692
875 1 1692 1693
876 1 1671 1672
877 1 1672 1673
878 1 1673 1674
879 1 1674 1675
880 1 1675 1676
881 1 1676 1677
882 1 1677 1678
883 1 1678 1679
884 1 1679 1680
885 1 1680 1681
886 1 39 1706
887 1 39 1726
888 1 39 1746
889 1 1681 1682
890 1 1682 1683
891 1 1683 1684
892 1 1684 1685
893 1 1685 39
894 1 1706 1707
895 1 1707 1708
896 1 1708 1709
897 1 1726 1727
898 1 1727 1728
899 1 1728 1729
900 1 1729 1730
901 1 1730 1731
902 1 1746 1747
903 1 1747 1748
904 1 1748 1749
905 1 1749 1750
906 1 1750 1751
907 1 1751 1752
908 1 1752 1753
909 1 1709 1710
910 1 1710 1711
911 1 1711 1712
912 1 1712 1713
913 1 1713 1714
914 1 1714 1715
915 1 1715 1716
916 1 1716 1717
917 1 1717 1718
918 1 1718 1719
919 1 40 1766
920 1 40 1786
921 1 1623 1624
922 1 1624 1625
923 1 1625 40
924 1 1719 1720
925 1 1720 1721
926 1 1721 1722
927 1 1722 1723
928 1 1723 1724
929 1 1724 1725
930 1 1725 40
931 1 1766 1767
932 1 1767 1768
933 1 1768 1769
934 1 1769 1770
935 1 1770 1771
936 1 1786 1787
937 1 1787 1788
938 1 1788 1789
939 1 1789 1790
940 1 1790 1791
941 1 1791 1792
942 1 1792 1793
943 1 645 36
944 1 1483 1484
945 1 1629 1630
946 1 1484 1485
947 1 1626 1627
948 1 1630 1631
949 1 1633 1634
950 1 1632 1633
951 1 1634 1635
952 1 1635 1636
953 1 1640 1641
954 1 1731 1732
955 1 1732 1733
956 1 1733 1734
957 1 1734 1735
958 1 1735 1736
959 1 1736 1737
960 1 1737 1738
961 1 1738 1739
962 1 1739 1740
963 1 1740 1741
964 1 1771 1772
965 1 1772 1773
966 1 1773 1774
967 1 1774 1775
968 1 1775 1776
969 1 1776 1777
970 1 1777 1778
971 1 1778 1779
972 1 1779 1780
973 1 1780 1781
974 1 1636 1637
975 1 1637 1638
976 1 1631 1632
977 1 1638 1639
978 1 1639 1640
979 1 41 1806
980 1 41 1826
981 1 1641 1642
982 1 1642 1643
983 1 885 41
984 1 1643 1644
985 1 1644 1645
986 1 1645 41
987 1 1806 1807
988 1 1807 1808
989 1 1808 1809
990 1 964 965
991 1 43 1846
992 1 43 1866
993 1 965 43
994 1 1846 1847
995 1 1847 1848
996 1 1848 1849
997 1 1849 1850
998 1 1850 1851
999 1 1866 1867
1000 1 1867 1868
1001 1 1868 1869
1002 1 1869 1870
1003 1 1870 1871
1004 1 1871 1872
1005 1 1872 1873
1006 1 1851 1852
1007 1 1852 1853
1008 1 1853 1854
1009 1 1854 1855
1010 1 1855 1856
1011 1 1856 1857
1012 1 1857 1858
1013 1 1858 1859
1014 1 1859 1860
1015 1 1860 1861
1016 1 44 1886
1017 1 1741 1742
1018 1 1742 1743
1019 1 1743 1744
1020 1 1744 1745
1021 1 1745 44
1022 1 1861 1862
1023 1 1862 1863
1024 1 1863 1864
1025 1 1864 1865
1026 1 1865 44
1027 1 1886 1887
1028 1 1887 1888
1029 1 1888 1889
1030 1 45 1906
1031 1 1781 1782
1032 1 1782 1783
1033 1 1783 1784
1034 1 1784 1785
1035 1 1785 45
1036 1 1845 45
1037 1 1906 1907
1038 1 1907 1908
1039 1 1908 1909
1040 1 1835 1836
1041 1 1836 1837
1042 1 1837 1838
1043 1 1838 1839
1044 1 1839 1840
1045 1 1840 1841
1046 1 1841 1842
1047 1 1842 1843
1048 1 1843 1844
1049 1 1844 1845
1050 1 1826 1827
1051 1 1827 1828
1052 1 1828 1829
1053 1 1829 1830
1054 1 1830 1831
1055 1 1831 1832
1056 1 1832 1833
1057 1 1833 1834
1058 1 1834 1835
1059 1 1811 1812
1060 1 1816 1817
1061 1 1817 1818
1062 1 1809 1810
1063 1 1810 1811
1064 1 1818 1819
1065 1 1889 1890
1066 1 1890 1891
1067 1 1891 1892
1068 1 1892 1893
1069 1 1893 1894
1070 1 1894 1895
1071 1 1895 1896
1072 1 1896 1897
1073 1 1897 1898
1074 1 1898 1899
1075 1 1909 1910
1076 1 1910 1911
1077 1 1911 1912
1078 1 1912 1913
1079 1 1913 1914
1080 1 1914 1915
1081 1 1915 1916
1082 1 1916 1917
1083 1 1917 1918
1084 1 1918 1919
1085 1 1813 1814
1086 1 1814 1815
1087 1 1812 1813
1088 1 1815 1816
1089 1 1819 1820
1090 1 1823 1824
1091 1 1926 1927
1092 1 1929 1930
1093 1 1931 1932
1094 1 1824 1825
1095 1 1930 1931
1096 1 1264 1265
1097 1 1104 1105
1098 1 47 1946
1099 1 1105 47
1100 1 1325 47
1101 1 1946 1947
1102 1 1947 1948
1103 1 1948 1949
1104 1 1949 1950
1105 1 1950 1951
1106 1 1951 1952
1107 1 1952 1953
1108 1 1145 48
1109 1 49 1966
1110 1 1185 49
1111 1 1425 49
1112 1 1899 1900
1113 1 1900 1901
1114 1 1901 1902
1115 1 1902 1903
1116 1 1903 1904
1117 1 1904 1905
1118 1 1905 49
1119 1 1966 1967
1120 1 1967 1968
1121 1 1968 1969
1122 1 1424 1425
1123 1 1969 1970
1124 1 1970 1971
1125 1 1971 1972
1126 1 1972 1973
1127 1 1973 1974
1128 1 1974 1975
1129 1 1975 1976
1130 1 1976 1977
1131 1 1977 1978
1132 1 1978 1979
1133 1 50 1986
1134 1 1919 1920
1135 1 1920 1921
1136 1 1921 1922
1137 1 1922 1923
1138 1 1923 1924
1139 1 1924 1925
1140 1 1925 50
1141 1 1979 1980
1142 1 1980 1981
1143 1 1981 1982
1144 1 1982 1983
1145 1 1983 1984
1146 1 1984 1985
1147 1 1985 50
1148 1 1986 1987
1149 1 1987 1988
1150 1 1988 1989
1151 1 1989 1990
1152 1 1990 1991
1153 1 1991 1992
1154 1 1992 1993
1155 1 1265 46
1156 1 1821 1822
1157 1 1825 46
1158 1 1927 1928
1159 1 46 1926
1160 1 1820 1821
1161 1 1822 1823
1162 1 1928 1929
1163 1 1932 1933
1164 1 1257 1258
1165 1 1258 1259
1166 1 1259 1260
1167 1 1263 1264
1168 1 1315 1316
1169 1 1316 1317
1170 1 1317 1318
1171 1 1318 1319
1172 1 1319 1320
1173 1 1320 1321
1174 1 1321 1322
1175 1 1322 1323
1176 1 1323 1324
1177 1 1324 1325
1178 1 1415 1416
1179 1 1416 1417
1180 1 1417 1418
1181 1 1418 1419
1182 1 1419 1420
1183 1 1420 1421
1184 1 1421 1422
1185 1 1422 1423
1186 1 1423 1424
1187 1 1261 1262
1188 1 1262 1263
1189 1 1255 1256
1190 1 1256 1257
1191 1 1260 1261
1192 1 1247 1248
1193 1 1248 1249
1194 1 1246 1247
1195 1 1249 1250
1196 1 1250 1251
1197 1 1251 1252
1198 1 1268 1269
1199 1 1272 1273
1200 1 225 27
1201 1 1267 1268
1202 1 1306 1307
1203 1 1307 1308
1204 1 1308 1309
1205 1 1309 1310
1206 1 1310 1311
1207 1 1311 1312
1208 1 1312 1313
1209 1 1313 1314
1210 1 1314 1315
1211 1 1273 1274
1212 1 1274 1275
1213 1 1280 1281
1214 1 1281 1282
1215 1 1282 1283
1216 1 284 285
1217 1 285 28
1218 1 1284 1285
1219 1 1285 28
1220 1 1346 1347
1221 1 1347 1348
1222 1 1349 1350
1223 1 1350 1351
1224 1 28 1326
1225 1 28 1346
1226 1 1283 1284
1227 1 1348 1349
1228 1 1351 1352
1229 1 1366 1367
1230 1 1406 1407
1231 1 1407 1408
1232 1 1408 1409
1233 1 1409 1410
1234 1 1410 1411
1235 1 1411 1412
1236 1 1412 1413
1237 1 1413 1414
1238 1 1414 1415
1239 1 1378 1379
1240 1 1375 1376
1241 1 1376 1377
1242 1 1377 1378
1243 1 1245 30
1244 1 1379 1380
1245 1 1381 1382
1246 1 1382 1383
1247 1 1385 30
1248 1 1431 1432
1249 1 1380 1381
1250 1 1383 1384
1251 1 1384 1385
1252 1 1430 1431
1253 1 1235 1236
1254 1 1240 1241
1255 1 1241 1242
1256 1 1242 1243
1257 1 1212 1213
1258 1 1232 1233
1259 1 1233 1234
1260 1 1234 1235
1261 1 1252 1253
1262 1 1253 1254
1263 1 1254 1255
1264 1 1219 1220
1265 1 1217 1218
1266 1 1218 1219
1267 1 1353 1354
1268 1 1358 1359
1269 1 1354 1355
1270 1 1355 1356
1271 1 1356 1357
1272 1 1357 1358
1273 1 1359 1360
1274 1 1433 1434
1275 1 1434 1435
1276 1 1440 1441
1277 1 1441 1442
1278 1 1442 1443
1279 1 1439 1440
1280 1 1513 1514
1281 1 1514 1515
1282 1 1515 1516
1283 1 1516 1517
1284 1 1517 1518
1285 1 1518 1519
1286 1 1519 1520
1287 1 1520 1521
1288 1 1521 1522
1289 1 1522 1523
1290 1 1553 1554
1291 1 1554 1555
1292 1 1555 1556
1293 1 1556 1557
1294 1 1557 1558
1295 1 1558 1559
1296 1 1559 1560
1297 1 1560 1561
1298 1 1561 1562
1299 1 1562 1563
1300 1 1593 1594
1301 1 1594 1595
1302 1 1595 1596
1303 1 1596 1597
1304 1 1597 1598
1305 1 1598 1599
1306 1 1599 1600
1307 1 1600 1601
1308 1 1601 1602
1309 1 1602 1603
1310 1 1653 1654
1311 1 1654 1655
1312 1 1655 1656
1313 1 1656 1657
1314 1 1657 1658
1315 1 1658 1659
1316 1 1659 1660
1317 1 1660 1661
1318 1 1661 1662
1319 1 1662 1663
1320 1 1693 1694
1321 1 1694 1695
1322 1 1695 1696
1323 1 1696 1697
1324 1 1697 1698
1325 1 1698 1699
1326 1 1699 1700
1327 1 1700 1701
1328 1 1701 1702
1329 1 1702 1703
1330 1 1753 1754
1331 1 1754 1755
1332 1 1755 1756
1333 1 1756 1757
1334 1 1757 1758
1335 1 1758 1759
1336 1 1759 1760
1337 1 1760 1761
1338 1 1761 1762
1339 1 1762 1763
1340 1 1793 1794
1341 1 1794 1795
1342 1 1795 1796
1343 1 1796 1797
1344 1 1797 1798
1345 1 1798 1799
1346 1 1799 1800
1347 1 1800 1801
1348 1 1801 1802
1349 1 1802 1803
1350 1 1873 1874
1351 1 1874 1875
1352 1 1875 1876
1353 1 1876 1877
1354 1 1877 1878
1355 1 1878 1879
1356 1 1879 1880
1357 1 1880 1881
1358 1 1881 1882
1359 1 1882 1883
1360 1 1936 1937
1361 1 1937 1938
1362 1 1938 1939
1363 1 1939 1940
1364 1 1953 1954
1365 1 1954 1955
1366 1 1955 1956
1367 1 1956 1957
1368 1 1957 1958
1369 1 1958 1959
1370 1 1959 1960
1371 1 1960 1961
1372 1 1961 1962
1373 1 1962 1963
1374 1 1993 1994
1375 1 1994 1995
1376 1 1995 1996
1377 1 1996 1997
1378 1 1997 1998
1379 1 1998 1999
1380 1 1999 2000
1381 1 2000 2001
1382 1 2001 2002
1383 1 2002 2003
1384 1 1933 1934
1385 1 1934 1935
1386 1 1935 1936
1387 1 1940 1941
1388 1 1941 1942
1389 1 1942 1943
1390 1 1360 1361
1391 1 1361 1362
1392 1 1362 1363
1393 1 1438 1439
1394 1 1435 1436
1395 1 1436 1437
1396 1 1437 1438
1397 1 1213 1214
1398 1 1214 1215
1399 1 1216 1217
1400 1 1215 1216
1401 1 1220 1221
1402 1 1222 1223
1403 1 1221 1222
1404 1 1224 1225
1405 1 1223 1224
1406 1 2026 2027
1407 1 2027 2028
1408 1 2028 2029
1409 1 2029 2030
1410 1 2030 2031
1411 1 2031 2032
1412 1 2032 2033
1413 1 2033 2034
1414 1 2034 2035
1415 1 2012 2013
1416 1 2013 2014
1417 1 2014 2015
1418 1 2015 2016
1419 1 2016 2017
1420 1 2020 2021
1421 1 54 2066
1422 1 54 2086
1423 1 54 2106
1424 1 2021 2022
1425 1 2025 54
1426 1 2066 2067
1427 1 2067 2068
1428 1 2068 2069
1429 1 2069 2070
1430 1 2070 2071
1431 1 2071 2072
1432 1 2072 2073
1433 1 2073 2074
1434 1 2074 2075
1435 1 2089 2090
1436 1 2022 2023
1437 1 2086 2087
1438 1 2090 2091
1439 1 2126 2127
1440 1 2127 2128
1441 1 2128 2129
1442 1 2129 2130
1443 1 2130 2131
1444 1 2131 2132
1445 1 2132 2133
1446 1 2133 2134
1447 1 2134 2135
1448 1 2148 2149
1449 1 2147 2148
1450 1 2035 2036
1451 1 2036 2037
1452 1 2037 2038
1453 1 2038 2039
1454 1 2039 2040
1455 1 2040 2041
1456 1 2041 2042
1457 1 2042 2043
1458 1 2043 2044
1459 1 2075 2076
1460 1 2076 2077
1461 1 2077 2078
1462 1 2078 2079
1463 1 2079 2080
1464 1 2080 2081
1465 1 2081 2082
1466 1 2082 2083
1467 1 2083 2084
1468 1 2135 2136
1469 1 2136 2137
1470 1 2137 2138
1471 1 2138 2139
1472 1 2139 2140
1473 1 2140 2141
1474 1 2141 2142
1475 1 2142 2143
1476 1 2143 2144
1477 1 56 2186
1478 1 56 2206
1479 1 56 2226
1480 1 56 2246
1481 1 2186 2187
1482 1 2187 2188
1483 1 2188 2189
1484 1 2189 2190
1485 1 2190 2191
1486 1 2191 2192
1487 1 2192 2193
1488 1 2193 2194
1489 1 2194 2195
1490 1 2212 2213
1491 1 2229 2230
1492 1 2230 2231
1493 1 2207 2208
1494 1 2208 2209
1495 1 2226 2227
1496 1 2195 2196
1497 1 2196 2197
1498 1 2197 2198
1499 1 2198 2199
1500 1 2199 2200
1501 1 2200 2201
1502 1 2201 2202
1503 1 2202 2203
1504 1 2203 2204
1505 1 2204 2205
1506 1 57 2266
1507 1 57 2286
1508 1 1523 1524
1509 1 1524 1525
1510 1 1525 57
1511 1 2205 57
1512 1 2266 2267
1513 1 2267 2268
1514 1 2268 2269
1515 1 2269 2270
1516 1 2270 2271
1517 1 2271 2272
1518 1 2272 2273
1519 1 2286 2287
1520 1 2287 2288
1521 1 2288 2289
1522 1 2289 2290
1523 1 2290 2291
1524 1 2044 2045
1525 1 58 2306
1526 1 1563 1564
1527 1 1564 1565
1528 1 1565 58
1529 1 2045 58
1530 1 2306 2307
1531 1 2307 2308
1532 1 2308 2309
1533 1 2309 2310
1534 1 2310 2311
1535 1 2311 2312
1536 1 2312 2313
1537 1 2313 2314
1538 1 2314 2315
1539 1 2315 2316
1540 1 2316 2317
1541 1 2317 2318
1542 1 2318 2319
1543 1 2319 2320
1544 1 2320 2321
1545 1 2084 2085
1546 1 1603 1604
1547 1 1604 1605
1548 1 1605 59
1549 1 2085 59
1550 1 2321 2322
1551 1 2322 2323
1552 1 2323 2324
1553 1 2324 2325
1554 1 2325 59
1555 1 2144 2145
1556 1 60 2326
1557 1 60 2346
1558 1 2145 60
1559 1 2265 60
1560 1 2326 2327
1561 1 2327 2328
1562 1 2328 2329
1563 1 2329 2330
1564 1 2330 2331
1565 1 2331 2332
1566 1 2332 2333
1567 1 2346 2347
1568 1 2347 2348
1569 1 2348 2349
1570 1 2349 2350
1571 1 2350 2351
1572 1 2255 2256
1573 1 2256 2257
1574 1 2257 2258
1575 1 2258 2259
1576 1 2259 2260
1577 1 2260 2261
1578 1 2261 2262
1579 1 2262 2263
1580 1 2263 2264
1581 1 2264 2265
1582 1 2206 2207
1583 1 2209 2210
1584 1 2227 2228
1585 1 2228 2229
1586 1 2210 2211
1587 1 2211 2212
1588 1 2246 2247
1589 1 2247 2248
1590 1 2248 2249
1591 1 2249 2250
1592 1 2250 2251
1593 1 2251 2252
1594 1 2252 2253
1595 1 2253 2254
1596 1 2254 2255
1597 1 2213 2214
1598 1 2221 2222
1599 1 2222 2223
1600 1 2214 2215
1601 1 2220 2221
1602 1 2273 2274
1603 1 2274 2275
1604 1 2275 2276
1605 1 2276 2277
1606 1 2277 2278
1607 1 2278 2279
1608 1 2279 2280
1609 1 2280 2281
1610 1 2281 2282
1611 1 2282 2283
1612 1 2333 2334
1613 1 2334 2335
1614 1 2335 2336
1615 1 2336 2337
1616 1 2337 2338
1617 1 2338 2339
1618 1 2339 2340
1619 1 2340 2341
1620 1 2341 2342
1621 1 2342 2343
1622 1 2215 2216
1623 1 2218 2219
1624 1 2219 2220
1625 1 2216 2217
1626 1 2217 2218
1627 1 2223 2224
1628 1 2225 61
1629 1 2368 2369
1630 1 2370 2371
1631 1 2224 2225
1632 1 2366 2367
1633 1 2367 2368
1634 1 2369 2370
1635 1 62 2406
1636 1 62 2426
1637 1 1663 1664
1638 1 1664 1665
1639 1 1665 62
1640 1 2283 2284
1641 1 2284 2285
1642 1 2285 62
1643 1 2406 2407
1644 1 2407 2408
1645 1 2408 2409
1646 1 2409 2410
1647 1 2410 2411
1648 1 2426 2427
1649 1 2427 2428
1650 1 2428 2429
1651 1 2429 2430
1652 1 2430 2431
1653 1 63 2446
1654 1 63 2466
1655 1 63 2486
1656 1 1703 1704
1657 1 1704 1705
1658 1 1705 63
1659 1 2446 2447
1660 1 2447 2448
1661 1 2448 2449
1662 1 2449 2450
1663 1 2450 2451
1664 1 2466 2467
1665 1 2467 2468
1666 1 2468 2469
1667 1 2469 2470
1668 1 2470 2471
1669 1 2486 2487
1670 1 2487 2488
1671 1 2488 2489
1672 1 2489 2490
1673 1 2490 2491
1674 1 2451 2452
1675 1 2452 2453
1676 1 2453 2454
1677 1 2454 2455
1678 1 2455 2456
1679 1 2456 2457
1680 1 2457 2458
1681 1 2458 2459
1682 1 2459 2460
1683 1 2460 2461
1684 1 64 2506
1685 1 64 2526
1686 1 1763 1764
1687 1 1764 1765
1688 1 1765 64
1689 1 2461 2462
1690 1 2462 2463
1691 1 2463 2464
1692 1 2464 2465
1693 1 2465 64
1694 1 2506 2507
1695 1 2507 2508
1696 1 2508 2509
1697 1 2509 2510
1698 1 2510 2511
1699 1 2526 2527
1700 1 2527 2528
1701 1 2528 2529
1702 1 2529 2530
1703 1 2530 2531
1704 1 65 2546
1705 1 1803 1804
1706 1 1804 1805
1707 1 1805 65
1708 1 2343 2344
1709 1 2344 2345
1710 1 2345 65
1711 1 2405 65
1712 1 2546 2547
1713 1 2547 2548
1714 1 2548 2549
1715 1 2549 2550
1716 1 2550 2551
1717 1 2395 2396
1718 1 2396 2397
1719 1 2397 2398
1720 1 2398 2399
1721 1 2399 2400
1722 1 2400 2401
1723 1 2401 2402
1724 1 2402 2403
1725 1 2403 2404
1726 1 2404 2405
1727 1 61 2366
1728 1 61 2386
1729 1 2386 2387
1730 1 2387 2388
1731 1 2388 2389
1732 1 2389 2390
1733 1 2390 2391
1734 1 2391 2392
1735 1 2392 2393
1736 1 2393 2394
1737 1 2394 2395
1738 1 2411 2412
1739 1 2412 2413
1740 1 2413 2414
1741 1 2414 2415
1742 1 2415 2416
1743 1 2416 2417
1744 1 2417 2418
1745 1 2418 2419
1746 1 2419 2420
1747 1 2420 2421
1748 1 2471 2472
1749 1 2472 2473
1750 1 2473 2474
1751 1 2474 2475
1752 1 2475 2476
1753 1 2476 2477
1754 1 2477 2478
1755 1 2478 2479
1756 1 2479 2480
1757 1 2480 2481
1758 1 2511 2512
1759 1 2512 2513
1760 1 2513 2514
1761 1 2514 2515
1762 1 2515 2516
1763 1 2516 2517
1764 1 2517 2518
1765 1 2518 2519
1766 1 2519 2520
1767 1 2520 2521
1768 1 2551 2552
1769 1 2552 2553
1770 1 2553 2554
1771 1 2554 2555
1772 1 2555 2556
1773 1 2556 2557
1774 1 2557 2558
1775 1 2558 2559
1776 1 2559 2560
1777 1 2560 2561
1778 1 67 2566
1779 1 67 2586
1780 1 2421 2422
1781 1 2422 2423
1782 1 2423 2424
1783 1 2424 2425
1784 1 2425 67
1785 1 2566 2567
1786 1 2567 2568
1787 1 2568 2569
1788 1 2586 2587
1789 1 2587 2588
1790 1 2588 2589
1791 1 2589 2590
1792 1 2590 2591
1793 1 68 2606
1794 1 68 2626
1795 1 1883 1884
1796 1 1884 1885
1797 1 1885 68
1798 1 2481 2482
1799 1 2482 2483
1800 1 2483 2484
1801 1 2484 2485
1802 1 2485 68
1803 1 2606 2607
1804 1 2607 2608
1805 1 2608 2609
1806 1 2609 2610
1807 1 2610 2611
1808 1 2626 2627
1809 1 2627 2628
1810 1 2628 2629
1811 1 2629 2630
1812 1 2630 2631
1813 1 2611 2612
1814 1 2612 2613
1815 1 2613 2614
1816 1 2614 2615
1817 1 2615 2616
1818 1 2616 2617
1819 1 2617 2618
1820 1 2618 2619
1821 1 2619 2620
1822 1 2620 2621
1823 1 69 2646
1824 1 69 2666
1825 1 2521 2522
1826 1 2522 2523
1827 1 2523 2524
1828 1 2524 2525
1829 1 2525 69
1830 1 2621 2622
1831 1 2622 2623
1832 1 2623 2624
1833 1 2624 2625
1834 1 2625 69
1835 1 2646 2647
1836 1 2647 2648
1837 1 2648 2649
1838 1 2666 2667
1839 1 2667 2668
1840 1 2668 2669
1841 1 2649 2650
1842 1 2650 2651
1843 1 2651 2652
1844 1 2652 2653
1845 1 2653 2654
1846 1 2654 2655
1847 1 2655 2656
1848 1 2656 2657
1849 1 2657 2658
1850 1 2658 2659
1851 1 70 2686
1852 1 2561 2562
1853 1 2562 2563
1854 1 2563 2564
1855 1 2564 2565
1856 1 2565 70
1857 1 2659 2660
1858 1 2660 2661
1859 1 2661 2662
1860 1 2662 2663
1861 1 2663 2664
1862 1 2664 2665
1863 1 2665 70
1864 1 2686 2687
1865 1 2687 2688
1866 1 2688 2689
1867 1 2689 2690
1868 1 2690 2691
1869 1 2569 2570
1870 1 2570 2571
1871 1 2571 2572
1872 1 2572 2573
1873 1 2573 2574
1874 1 2574 2575
1875 1 2575 2576
1876 1 2576 2577
1877 1 2577 2578
1878 1 2578 2579
1879 1 2669 2670
1880 1 2670 2671
1881 1 2671 2672
1882 1 2672 2673
1883 1 2673 2674
1884 1 2674 2675
1885 1 2675 2676
1886 1 2676 2677
1887 1 2677 2678
1888 1 2678 2679
1889 1 2706 2707
1890 1 2707 2708
1891 1 2708 2709
1892 1 2709 2710
1893 1 2710 2711
1894 1 2711 2712
1895 1 2712 2713
1896 1 2713 2714
1897 1 2714 2715
1898 1 2715 2716
1899 1 2716 2717
1900 1 2717 2718
1901 1 2718 2719
1902 1 2719 2720
1903 1 2720 2721
1904 1 2721 2722
1905 1 2722 2723
1906 1 2723 2724
1907 1 2724 2725
1908 1 72 2746
1909 1 1963 1964
1910 1 1964 1965
1911 1 1965 72
1912 1 2579 2580
1913 1 2580 2581
1914 1 2581 2582
1915 1 2582 2583
1916 1 2583 2584
1917 1 2584 2585
1918 1 2585 72
1919 1 2725 72
1920 1 2746 2747
1921 1 2747 2748
1922 1 2748 2749
1923 1 2749 2750
1924 1 2750 2751
1925 1 2751 2752
1926 1 2752 2753
1927 1 2753 2754
1928 1 2754 2755
1929 1 2755 2756
1930 1 2756 2757
1931 1 2757 2758
1932 1 2758 2759
1933 1 2759 2760
1934 1 2760 2761
1935 1 2761 2762
1936 1 2762 2763
1937 1 2763 2764
1938 1 2764 2765
1939 1 2765 73
1940 1 74 2766
1941 1 74 2786
1942 1 2125 74
1943 1 2679 2680
1944 1 2680 2681
1945 1 2681 2682
1946 1 2682 2683
1947 1 2683 2684
1948 1 2684 2685
1949 1 2685 74
1950 1 2766 2767
1951 1 2767 2768
1952 1 2768 2769
1953 1 2786 2787
1954 1 2787 2788
1955 1 2788 2789
1956 1 2789 2790
1957 1 2790 2791
1958 1 2124 2125
1959 1 2769 2770
1960 1 2770 2771
1961 1 2771 2772
1962 1 2772 2773
1963 1 2773 2774
1964 1 2774 2775
1965 1 2775 2776
1966 1 2776 2777
1967 1 2777 2778
1968 1 2778 2779
1969 1 75 2806
1970 1 2003 2004
1971 1 2004 2005
1972 1 2005 75
1973 1 2185 75
1974 1 2779 2780
1975 1 2780 2781
1976 1 2781 2782
1977 1 2782 2783
1978 1 2783 2784
1979 1 2784 2785
1980 1 2785 75
1981 1 2806 2807
1982 1 2807 2808
1983 1 2808 2809
1984 1 2809 2810
1985 1 2810 2811
1986 1 1943 1944
1987 1 1945 71
1988 1 2726 2727
1989 1 2727 2728
1990 1 71 2706
1991 1 71 2726
1992 1 1944 1945
1993 1 2728 2729
1994 1 2729 2730
1995 1 2730 2731
1996 1 2115 2116
1997 1 2116 2117
1998 1 2117 2118
1999 1 2118 2119
2000 1 2119 2120
2001 1 2120 2121
2002 1 2121 2122
2003 1 2122 2123
2004 1 2123 2124
2005 1 2175 2176
2006 1 2176 2177
2007 1 2177 2178
2008 1 2178 2179
2009 1 2179 2180
2010 1 2180 2181
2011 1 2181 2182
2012 1 2182 2183
2013 1 2183 2184
2014 1 2184 2185
2015 1 1364 1365
2016 1 2006 2007
2017 1 2007 2008
2018 1 2010 2011
2019 1 2047 2048
2020 1 2048 2049
2021 1 2049 2050
2022 1 2050 2051
2023 1 53 2006
2024 1 53 2026
2025 1 53 2046
2026 1 1363 1364
2027 1 1365 53
2028 1 2008 2009
2029 1 2009 2010
2030 1 2046 2047
2031 1 2017 2018
2032 1 2018 2019
2033 1 2011 2012
2034 1 2019 2020
2035 1 2023 2024
2036 1 2087 2088
2037 1 2088 2089
2038 1 2024 2025
2039 1 2106 2107
2040 1 2107 2108
2041 1 2108 2109
2042 1 2109 2110
2043 1 2110 2111
2044 1 2111 2112
2045 1 2112 2113
2046 1 2113 2114
2047 1 2114 2115
2048 1 1445 55
2049 1 2146 2147
2050 1 2150 2151
2051 1 55 2126
2052 1 55 2146
2053 1 55 2166
2054 1 1443 1444
2055 1 1444 1445
2056 1 2149 2150
2057 1 2166 2167
2058 1 2167 2168
2059 1 2168 2169
2060 1 2169 2170
2061 1 2170 2171
2062 1 2171 2172
2063 1 2172 2173
2064 1 2173 2174
2065 1 2174 2175
2066 1 1225 51
2067 1 2052 2053
2068 1 2060 2061
2069 1 2053 2054
2070 1 2054 2055
2071 1 2055 2056
2072 1 2098 2099
2073 1 2099 2100
2074 1 2091 2092
2075 1 2096 2097
2076 1 2097 2098
2077 1 2152 2153
2078 1 2160 2161
2079 1 2153 2154
2080 1 2154 2155
2081 1 2155 2156
2082 1 2231 2232
2083 1 2237 2238
2084 1 2236 2237
2085 1 2238 2239
2086 1 2239 2240
2087 1 2291 2292
2088 1 2292 2293
2089 1 2293 2294
2090 1 2294 2295
2091 1 2295 2296
2092 1 2296 2297
2093 1 2297 2298
2094 1 2298 2299
2095 1 2299 2300
2096 1 2300 2301
2097 1 2351 2352
2098 1 2352 2353
2099 1 2353 2354
2100 1 2354 2355
2101 1 2355 2356
2102 1 2356 2357
2103 1 2357 2358
2104 1 2358 2359
2105 1 2359 2360
2106 1 2360 2361
2107 1 2232 2233
2108 1 2233 2234
2109 1 2235 2236
2110 1 2240 2241
2111 1 2234 2235
2112 1 2371 2372
2113 1 2380 2381
2114 1 2431 2432
2115 1 2432 2433
2116 1 2433 2434
2117 1 2434 2435
2118 1 2435 2436
2119 1 2436 2437
2120 1 2437 2438
2121 1 2438 2439
2122 1 2439 2440
2123 1 2440 2441
2124 1 2491 2492
2125 1 2492 2493
2126 1 2493 2494
2127 1 2494 2495
2128 1 2495 2496
2129 1 2496 2497
2130 1 2497 2498
2131 1 2498 2499
2132 1 2499 2500
2133 1 2500 2501
2134 1 2531 2532
2135 1 2532 2533
2136 1 2533 2534
2137 1 2534 2535
2138 1 2535 2536
2139 1 2536 2537
2140 1 2537 2538
2141 1 2538 2539
2142 1 2539 2540
2143 1 2540 2541
2144 1 2372 2373
2145 1 2374 2375
2146 1 2376 2377
2147 1 2377 2378
2148 1 2379 2380
2149 1 2373 2374
2150 1 2375 2376
2151 1 2378 2379
2152 1 2591 2592
2153 1 2592 2593
2154 1 2593 2594
2155 1 2594 2595
2156 1 2595 2596
2157 1 2596 2597
2158 1 2597 2598
2159 1 2598 2599
2160 1 2599 2600
2161 1 2600 2601
2162 1 2631 2632
2163 1 2632 2633
2164 1 2633 2634
2165 1 2634 2635
2166 1 2635 2636
2167 1 2636 2637
2168 1 2637 2638
2169 1 2638 2639
2170 1 2639 2640
2171 1 2640 2641
2172 1 2691 2692
2173 1 2692 2693
2174 1 2693 2694
2175 1 2694 2695
2176 1 2695 2696
2177 1 2696 2697
2178 1 2697 2698
2179 1 2698 2699
2180 1 2699 2700
2181 1 2700 2701
2182 1 2732 2733
2183 1 2733 2734
2184 1 2734 2735
2185 1 2740 2741
2186 1 2735 2736
2187 1 2791 2792
2188 1 2792 2793
2189 1 2793 2794
2190 1 2794 2795
2191 1 2795 2796
2192 1 2796 2797
2193 1 2797 2798
2194 1 2798 2799
2195 1 2799 2800
2196 1 2800 2801
2197 1 2811 2812
2198 1 2812 2813
2199 1 2813 2814
2200 1 2814 2815
2201 1 2815 2816
2202 1 2816 2817
2203 1 2817 2818
2204 1 2818 2819
2205 1 2819 2820
2206 1 2820 2821
2207 1 2736 2737
2208 1 2739 2740
2209 1 2731 2732
2210 1 2737 2738
2211 1 2738 2739
2212 1 2057 2058
2213 1 2058 2059
2214 1 2059 2060
2215 1 2051 2052
2216 1 2056 2057
2217 1 2092 2093
2218 1 2093 2094
2219 1 2094 2095
2220 1 2095 2096
2221 1 2100 2101
2222 1 2156 2157
2223 1 2157 2158
2224 1 2151 2152
2225 1 2158 2159
2226 1 2159 2160
2227 1 2827 2828
2228 1 2828 2829
2229 1 2834 2835
2230 1 2832 2833
2231 1 2833 2834
2232 1 2840 2841
2233 1 2842 2843
2234 1 2843 2844
2235 1 2841 2842
2236 1 2845 77
2237 1 2846 2847
2238 1 2844 2845
2239 1 2847 2848
2240 1 2848 2849
2241 1 78 2886
2242 1 78 2906
2243 1 78 2926
2244 1 2061 2062
2245 1 2064 2065
2246 1 2065 78
2247 1 2886 2887
2248 1 2888 2889
2249 1 2908 2909
2250 1 2062 2063
2251 1 2063 2064
2252 1 2887 2888
2253 1 2889 2890
2254 1 2890 2891
2255 1 2906 2907
2256 1 2907 2908
2257 1 2891 2892
2258 1 2898 2899
2259 1 2896 2897
2260 1 2897 2898
2261 1 2899 2900
2262 1 2946 2947
2263 1 2947 2948
2264 1 2948 2949
2265 1 2949 2950
2266 1 2950 2951
2267 1 2951 2952
2268 1 2952 2953
2269 1 2953 2954
2270 1 2954 2955
2271 1 80 2986
2272 1 80 3006
2273 1 2161 2162
2274 1 2162 2163
2275 1 2163 2164
2276 1 2164 2165
2277 1 2165 80
2278 1 2988 2989
2279 1 2986 2987
2280 1 2987 2988
2281 1 76 2826
2282 1 2955 2956
2283 1 2956 2957
2284 1 2957 2958
2285 1 2958 2959
2286 1 2959 2960
2287 1 2960 2961
2288 1 2961 2962
2289 1 2962 2963
2290 1 2963 2964
2291 1 3026 3027
2292 1 3027 3028
2293 1 3028 3029
2294 1 3029 3030
2295 1 3030 3031
2296 1 3031 3032
2297 1 3032 3033
2298 1 3033 3034
2299 1 3034 3035
2300 1 3035 3036
2301 1 3036 3037
2302 1 3037 3038
2303 1 3038 3039
2304 1 3039 3040
2305 1 3040 3041
2306 1 3041 3042
2307 1 3042 3043
2308 1 3043 3044
2309 1 3044 3045
2310 1 82 3066
2311 1 82 3086
2312 1 2301 2302
2313 1 2302 2303
2314 1 2303 2304
2315 1 2304 2305
2316 1 2305 82
2317 1 3045 82
2318 1 3066 3067
2319 1 3067 3068
2320 1 3068 3069
2321 1 3069 3070
2322 1 3070 3071
2323 1 3071 3072
2324 1 3072 3073
2325 1 3086 3087
2326 1 3087 3088
2327 1 3088 3089
2328 1 3073 3074
2329 1 3074 3075
2330 1 3075 3076
2331 1 3076 3077
2332 1 3077 3078
2333 1 3078 3079
2334 1 3079 3080
2335 1 3080 3081
2336 1 3081 3082
2337 1 3082 3083
2338 1 83 3106
2339 1 83 3126
2340 1 83 3146
2341 1 3083 3084
2342 1 3084 3085
2343 1 3085 83
2344 1 3106 3107
2345 1 3107 3108
2346 1 3108 3109
2347 1 3109 3110
2348 1 3110 3111
2349 1 3126 3127
2350 1 3127 3128
2351 1 3128 3129
2352 1 3129 3130
2353 1 3130 3131
2354 1 3131 3132
2355 1 3132 3133
2356 1 3146 3147
2357 1 3147 3148
2358 1 3148 3149
2359 1 3111 3112
2360 1 3112 3113
2361 1 3113 3114
2362 1 3114 3115
2363 1 3115 3116
2364 1 3116 3117
2365 1 3117 3118
2366 1 3118 3119
2367 1 3119 3120
2368 1 3120 3121
2369 1 2964 2965
2370 1 84 3166
2371 1 2965 84
2372 1 3121 3122
2373 1 3122 3123
2374 1 3123 3124
2375 1 3124 3125
2376 1 3125 84
2377 1 3166 3167
2378 1 3167 3168
2379 1 3168 3169
2380 1 3169 3170
2381 1 3170 3171
2382 1 3171 3172
2383 1 3172 3173
2384 1 85 3186
2385 1 85 3206
2386 1 2361 2362
2387 1 2362 2363
2388 1 2363 2364
2389 1 2364 2365
2390 1 2365 85
2391 1 3186 3187
2392 1 3187 3188
2393 1 3188 3189
2394 1 3189 3190
2395 1 3190 3191
2396 1 3191 3192
2397 1 3192 3193
2398 1 3206 3207
2399 1 3207 3208
2400 1 3208 3209
2401 1 2241 2242
2402 1 2242 2243
2403 1 3046 3047
2404 1 81 3026
2405 1 81 3046
2406 1 2243 2244
2407 1 2244 2245
2408 1 2245 81
2409 1 3047 3048
2410 1 3048 3049
2411 1 3133 3134
2412 1 3134 3135
2413 1 3135 3136
2414 1 3136 3137
2415 1 3137 3138
2416 1 3138 3139
2417 1 3139 3140
2418 1 3140 3141
2419 1 3141 3142
2420 1 3142 3143
2421 1 3173 3174
2422 1 3174 3175
2423 1 3175 3176
2424 1 3176 3177
2425 1 3177 3178
2426 1 3178 3179
2427 1 3179 3180
2428 1 3180 3181
2429 1 3181 3182
2430 1 3182 3183
2431 1 3193 3194
2432 1 3194 3195
2433 1 3195 3196
2434 1 3196 3197
2435 1 3197 3198
2436 1 3198 3199
2437 1 3199 3200
2438 1 3200 3201
2439 1 3201 3202
2440 1 3202 3203
2441 1 2381 2382
2442 1 2385 86
2443 1 3226 3227
2444 1 3227 3228
2445 1 3228 3229
2446 1 3229 3230
2447 1 3246 3247
2448 1 3247 3248
2449 1 2382 2383
2450 1 2383 2384
2451 1 2384 2385
2452 1 3230 3231
2453 1 3248 3249
2454 1 87 3286
2455 1 87 3306
2456 1 2441 2442
2457 1 2442 2443
2458 1 2443 2444
2459 1 2444 2445
2460 1 2445 87
2461 1 3286 3287
2462 1 3287 3288
2463 1 3288 3289
2464 1 3289 3290
2465 1 3290 3291
2466 1 3291 3292
2467 1 3292 3293
2468 1 3306 3307
2469 1 3307 3308
2470 1 3308 3309
2471 1 3293 3294
2472 1 3294 3295
2473 1 3295 3296
2474 1 3296 3297
2475 1 3297 3298
2476 1 3298 3299
2477 1 3299 3300
2478 1 3300 3301
2479 1 3301 3302
2480 1 3302 3303
2481 1 88 3326
2482 1 2501 2502
2483 1 2502 2503
2484 1 2503 2504
2485 1 2504 2505
2486 1 2505 88
2487 1 3143 3144
2488 1 3144 3145
2489 1 3145 88
2490 1 3303 3304
2491 1 3304 3305
2492 1 3305 88
2493 1 3326 3327
2494 1 3327 3328
2495 1 3328 3329
2496 1 3329 3330
2497 1 3330 3331
2498 1 89 3346
2499 1 89 3366
2500 1 2541 2542
2501 1 2542 2543
2502 1 2543 2544
2503 1 2544 2545
2504 1 2545 89
2505 1 3183 3184
2506 1 3184 3185
2507 1 3185 89
2508 1 3346 3347
2509 1 3347 3348
2510 1 3348 3349
2511 1 3366 3367
2512 1 3367 3368
2513 1 3368 3369
2514 1 3369 3370
2515 1 3370 3371
2516 1 3349 3350
2517 1 3350 3351
2518 1 3351 3352
2519 1 3352 3353
2520 1 3353 3354
2521 1 3354 3355
2522 1 3355 3356
2523 1 3356 3357
2524 1 3357 3358
2525 1 3358 3359
2526 1 90 3386
2527 1 3203 3204
2528 1 3204 3205
2529 1 3205 90
2530 1 3285 90
2531 1 3359 3360
2532 1 3360 3361
2533 1 3361 3362
2534 1 3362 3363
2535 1 3363 3364
2536 1 3364 3365
2537 1 3365 90
2538 1 3386 3387
2539 1 3387 3388
2540 1 3388 3389
2541 1 3284 3285
2542 1 3275 3276
2543 1 3276 3277
2544 1 3277 3278
2545 1 3278 3279
2546 1 3279 3280
2547 1 3280 3281
2548 1 3281 3282
2549 1 3282 3283
2550 1 3283 3284
2551 1 86 3226
2552 1 86 3246
2553 1 86 3266
2554 1 3266 3267
2555 1 3267 3268
2556 1 3268 3269
2557 1 3269 3270
2558 1 3270 3271
2559 1 3271 3272
2560 1 3272 3273
2561 1 3273 3274
2562 1 3274 3275
2563 1 3237 3238
2564 1 3239 3240
2565 1 3231 3232
2566 1 3238 3239
2567 1 3331 3332
2568 1 3332 3333
2569 1 3333 3334
2570 1 3334 3335
2571 1 3335 3336
2572 1 3336 3337
2573 1 3337 3338
2574 1 3338 3339
2575 1 3339 3340
2576 1 3340 3341
2577 1 3371 3372
2578 1 3372 3373
2579 1 3373 3374
2580 1 3374 3375
2581 1 3375 3376
2582 1 3376 3377
2583 1 3377 3378
2584 1 3378 3379
2585 1 3379 3380
2586 1 3380 3381
2587 1 3232 3233
2588 1 3233 3234
2589 1 3235 3236
2590 1 3240 3241
2591 1 3234 3235
2592 1 3236 3237
2593 1 91 3406
2594 1 91 3426
2595 1 3244 3245
2596 1 3406 3407
2597 1 3407 3408
2598 1 3408 3409
2599 1 3409 3410
2600 1 3410 3411
2601 1 3411 3412
2602 1 3412 3413
2603 1 3413 3414
2604 1 3414 3415
2605 1 3243 3244
2606 1 3415 3416
2607 1 3416 3417
2608 1 3417 3418
2609 1 3418 3419
2610 1 3419 3420
2611 1 3420 3421
2612 1 3421 3422
2613 1 3422 3423
2614 1 3423 3424
2615 1 3424 3425
2616 1 92 3446
2617 1 92 3466
2618 1 2601 2602
2619 1 2602 2603
2620 1 2603 2604
2621 1 2604 2605
2622 1 2605 92
2623 1 3425 92
2624 1 3446 3447
2625 1 3447 3448
2626 1 3448 3449
2627 1 3466 3467
2628 1 3467 3468
2629 1 3468 3469
2630 1 93 3486
2631 1 2641 2642
2632 1 2642 2643
2633 1 2643 2644
2634 1 2644 2645
2635 1 2645 93
2636 1 3341 3342
2637 1 3342 3343
2638 1 3343 3344
2639 1 3344 3345
2640 1 3345 93
2641 1 3486 3487
2642 1 3487 3488
2643 1 3488 3489
2644 1 94 3506
2645 1 94 3526
2646 1 94 3546
2647 1 3381 3382
2648 1 3382 3383
2649 1 3383 3384
2650 1 3384 3385
2651 1 3385 94
2652 1 3506 3507
2653 1 3507 3508
2654 1 3508 3509
2655 1 3526 3527
2656 1 3527 3528
2657 1 3528 3529
2658 1 3546 3547
2659 1 3547 3548
2660 1 3548 3549
2661 1 3509 3510
2662 1 3510 3511
2663 1 3511 3512
2664 1 3512 3513
2665 1 3513 3514
2666 1 3514 3515
2667 1 3515 3516
2668 1 3516 3517
2669 1 3517 3518
2670 1 3518 3519
2671 1 95 3566
2672 1 2701 2702
2673 1 2702 2703
2674 1 2703 2704
2675 1 2704 2705
2676 1 2705 95
2677 1 3445 95
2678 1 3519 3520
2679 1 3520 3521
2680 1 3521 3522
2681 1 3522 3523
2682 1 3523 3524
2683 1 3524 3525
2684 1 3525 95
2685 1 3566 3567
2686 1 3567 3568
2687 1 3568 3569
2688 1 3435 3436
2689 1 3436 3437
2690 1 3437 3438
2691 1 3438 3439
2692 1 3439 3440
2693 1 3440 3441
2694 1 3441 3442
2695 1 3442 3443
2696 1 3443 3444
2697 1 3444 3445
2698 1 3245 91
2699 1 3241 3242
2700 1 3242 3243
2701 1 3426 3427
2702 1 3427 3428
2703 1 3428 3429
2704 1 3429 3430
2705 1 3430 3431
2706 1 3431 3432
2707 1 3432 3433
2708 1 3433 3434
2709 1 3434 3435
2710 1 3449 3450
2711 1 3450 3451
2712 1 3451 3452
2713 1 3452 3453
2714 1 3453 3454
2715 1 3454 3455
2716 1 3455 3456
2717 1 3456 3457
2718 1 3457 3458
2719 1 3458 3459
2720 1 3529 3530
2721 1 3530 3531
2722 1 3531 3532
2723 1 3532 3533
2724 1 3533 3534
2725 1 3534 3535
2726 1 3535 3536
2727 1 3536 3537
2728 1 3537 3538
2729 1 3538 3539
2730 1 96 3586
2731 1 96 3606
2732 1 96 3626
2733 1 2741 2742
2734 1 3586 3587
2735 1 3587 3588
2736 1 3588 3589
2737 1 3589 3590
2738 1 3590 3591
2739 1 3591 3592
2740 1 3592 3593
2741 1 3593 3594
2742 1 3594 3595
2743 1 2742 2743
2744 1 2745 96
2745 1 3606 3607
2746 1 3595 3596
2747 1 3596 3597
2748 1 3597 3598
2749 1 3598 3599
2750 1 3599 3600
2751 1 3600 3601
2752 1 3601 3602
2753 1 3602 3603
2754 1 3603 3604
2755 1 3604 3605
2756 1 97 3646
2757 1 2885 97
2758 1 3459 3460
2759 1 3460 3461
2760 1 3461 3462
2761 1 3462 3463
2762 1 3463 3464
2763 1 3464 3465
2764 1 3465 97
2765 1 3605 97
2766 1 3646 3647
2767 1 3647 3648
2768 1 3648 3649
2769 1 2884 2885
2770 1 98 3666
2771 1 98 3686
2772 1 2945 98
2773 1 3666 3667
2774 1 3667 3668
2775 1 3668 3669
2776 1 3669 3670
2777 1 3670 3671
2778 1 3686 3687
2779 1 3687 3688
2780 1 3688 3689
2781 1 2944 2945
2782 1 3671 3672
2783 1 3672 3673
2784 1 3673 3674
2785 1 3674 3675
2786 1 3675 3676
2787 1 3676 3677
2788 1 3677 3678
2789 1 3678 3679
2790 1 3679 3680
2791 1 3680 3681
2792 1 99 3706
2793 1 2801 2802
2794 1 2802 2803
2795 1 2803 2804
2796 1 2804 2805
2797 1 2805 99
2798 1 3539 3540
2799 1 3540 3541
2800 1 3541 3542
2801 1 3542 3543
2802 1 3543 3544
2803 1 3544 3545
2804 1 3545 99
2805 1 3681 3682
2806 1 3682 3683
2807 1 3683 3684
2808 1 3684 3685
2809 1 3685 99
2810 1 3706 3707
2811 1 3707 3708
2812 1 3708 3709
2813 1 2821 2822
2814 1 2822 2823
2815 1 2823 2824
2816 1 2824 2825
2817 1 2825 100
2818 1 3025 100
2819 1 3645 100
2820 1 3644 3645
2821 1 3024 3025
2822 1 3635 3636
2823 1 3636 3637
2824 1 3637 3638
2825 1 3638 3639
2826 1 3639 3640
2827 1 3640 3641
2828 1 3641 3642
2829 1 3642 3643
2830 1 3643 3644
2831 1 3607 3608
2832 1 3608 3609
2833 1 2743 2744
2834 1 2744 2745
2835 1 3626 3627
2836 1 3627 3628
2837 1 3628 3629
2838 1 3629 3630
2839 1 3630 3631
2840 1 3631 3632
2841 1 3632 3633
2842 1 3633 3634
2843 1 3634 3635
2844 1 2875 2876
2845 1 2876 2877
2846 1 2877 2878
2847 1 2878 2879
2848 1 2879 2880
2849 1 2880 2881
2850 1 2881 2882
2851 1 2882 2883
2852 1 2883 2884
2853 1 2935 2936
2854 1 2936 2937
2855 1 2937 2938
2856 1 2938 2939
2857 1 2939 2940
2858 1 2940 2941
2859 1 2941 2942
2860 1 2942 2943
2861 1 2943 2944
2862 1 3015 3016
2863 1 3016 3017
2864 1 3017 3018
2865 1 3018 3019
2866 1 3019 3020
2867 1 3020 3021
2868 1 3021 3022
2869 1 3022 3023
2870 1 3023 3024
2871 1 2826 2827
2872 1 2829 2830
2873 1 2830 2831
2874 1 2831 2832
2875 1 2835 2836
2876 1 2839 2840
2877 1 2836 2837
2878 1 2837 2838
2879 1 2838 2839
2880 1 77 2846
2881 1 77 2866
2882 1 2866 2867
2883 1 2867 2868
2884 1 2868 2869
2885 1 2869 2870
2886 1 2870 2871
2887 1 2871 2872
2888 1 2872 2873
2889 1 2873 2874
2890 1 2874 2875
2891 1 2926 2927
2892 1 2927 2928
2893 1 2928 2929
2894 1 2929 2930
2895 1 2930 2931
2896 1 2931 2932
2897 1 2932 2933
2898 1 2933 2934
2899 1 2934 2935
2900 1 2894 2895
2901 1 2892 2893
2902 1 2893 2894
2903 1 2895 2896
2904 1 2900 2901
2905 1 2101 2102
2906 1 2102 2103
2907 1 2104 2105
2908 1 2105 79
2909 1 2902 2903
2910 1 2904 2905
2911 1 2966 2967
2912 1 2968 2969
2913 1 79 2946
2914 1 79 2966
2915 1 2103 2104
2916 1 2901 2902
2917 1 2903 2904
2918 1 2905 79
2919 1 2967 2968
2920 1 3006 3007
2921 1 3007 3008
2922 1 3008 3009
2923 1 3009 3010
2924 1 3010 3011
2925 1 3011 3012
2926 1 3012 3013
2927 1 3013 3014
2928 1 3014 3015
2929 1 2849 2850
2930 1 2850 2851
2931 1 2851 2852
2932 1 2857 2858
2933 1 2858 2859
2934 1 2910 2911
2935 1 2911 2912
2936 1 2917 2918
2937 1 2909 2910
2938 1 2916 2917
2939 1 2918 2919
2940 1 2972 2973
2941 1 2974 2975
2942 1 2975 2976
2943 1 2977 2978
2944 1 2978 2979
2945 1 2973 2974
2946 1 2976 2977
2947 1 2989 2990
2948 1 2990 2991
2949 1 2991 2992
2950 1 3052 3053
2951 1 3053 3054
2952 1 3055 3056
2953 1 3054 3055
2954 1 3089 3090
2955 1 3090 3091
2956 1 3091 3092
2957 1 3092 3093
2958 1 3093 3094
2959 1 3094 3095
2960 1 3095 3096
2961 1 3096 3097
2962 1 3097 3098
2963 1 3098 3099
2964 1 3149 3150
2965 1 3150 3151
2966 1 3151 3152
2967 1 3152 3153
2968 1 3153 3154
2969 1 3154 3155
2970 1 3155 3156
2971 1 3156 3157
2972 1 3157 3158
2973 1 3158 3159
2974 1 3209 3210
2975 1 3210 3211
2976 1 3211 3212
2977 1 3212 3213
2978 1 3213 3214
2979 1 3214 3215
2980 1 3215 3216
2981 1 3216 3217
2982 1 3217 3218
2983 1 3218 3219
2984 1 3049 3050
2985 1 3050 3051
2986 1 3056 3057
2987 1 3051 3052
2988 1 3057 3058
2989 1 3058 3059
2990 1 3250 3251
2991 1 3257 3258
2992 1 3258 3259
2993 1 3249 3250
2994 1 3251 3252
2995 1 3256 3257
2996 1 3309 3310
2997 1 3310 3311
2998 1 3311 3312
2999 1 3312 3313
3000 1 3313 3314
3001 1 3314 3315
3002 1 3315 3316
3003 1 3316 3317
3004 1 3317 3318
3005 1 3318 3319
3006 1 3389 3390
3007 1 3390 3391
3008 1 3391 3392
3009 1 3392 3393
3010 1 3393 3394
3011 1 3394 3395
3012 1 3395 3396
3013 1 3396 3397
3014 1 3397 3398
3015 1 3398 3399
3016 1 3252 3253
3017 1 3254 3255
3018 1 3253 3254
3019 1 3255 3256
3020 1 3469 3470
3021 1 3470 3471
3022 1 3471 3472
3023 1 3472 3473
3024 1 3473 3474
3025 1 3474 3475
3026 1 3475 3476
3027 1 3476 3477
3028 1 3477 3478
3029 1 3478 3479
3030 1 3489 3490
3031 1 3490 3491
3032 1 3491 3492
3033 1 3492 3493
3034 1 3493 3494
3035 1 3494 3495
3036 1 3495 3496
3037 1 3496 3497
3038 1 3497 3498
3039 1 3498 3499
3040 1 3549 3550
3041 1 3550 3551
3042 1 3551 3552
3043 1 3552 3553
3044 1 3553 3554
3045 1 3554 3555
3046 1 3555 3556
3047 1 3556 3557
3048 1 3557 3558
3049 1 3558 3559
3050 1 3569 3570
3051 1 3570 3571
3052 1 3571 3572
3053 1 3572 3573
3054 1 3573 3574
3055 1 3574 3575
3056 1 3575 3576
3057 1 3576 3577
3058 1 3577 3578
3059 1 3578 3579
3060 1 3616 3617
3061 1 3609 3610
3062 1 3610 3611
3063 1 3611 3612
3064 1 3615 3616
3065 1 3617 3618
3066 1 3618 3619
3067 1 3649 3650
3068 1 3650 3651
3069 1 3651 3652
3070 1 3652 3653
3071 1 3653 3654
3072 1 3654 3655
3073 1 3655 3656
3074 1 3656 3657
3075 1 3657 3658
3076 1 3658 3659
3077 1 3689 3690
3078 1 3690 3691
3079 1 3691 3692
3080 1 3692 3693
3081 1 3693 3694
3082 1 3694 3695
3083 1 3695 3696
3084 1 3696 3697
3085 1 3697 3698
3086 1 3698 3699
3087 1 3709 3710
3088 1 3710 3711
3089 1 3711 3712
3090 1 3712 3713
3091 1 3713 3714
3092 1 3714 3715
3093 1 3715 3716
3094 1 3716 3717
3095 1 3717 3718
3096 1 3718 3719
3097 1 3612 3613
3098 1 3613 3614
3099 1 3614 3615
3100 1 2853 2854
3101 1 2854 2855
3102 1 2852 2853
3103 1 2855 2856
3104 1 2856 2857
3105 1 2913 2914
3106 1 2912 2913
3107 1 2914 2915
3108 1 2915 2916
3109 1 2971 2972
3110 1 2969 2970
3111 1 2970 2971
3112 1 2992 2993
3113 1 2993 2994
3114 1 2996 2997
3115 1 2998 2999
3116 1 2994 2995
3117 1 2995 2996
3118 1 2997 2998
3119 1 3726 3727
3120 1 3728 3729
3121 1 3731 3732
3122 1 3727 3728
3123 1 3729 3730
3124 1 3730 3731
3125 1 3739 3740
3126 1 3736 3737
3127 1 3737 3738
3128 1 3738 3739
3129 1 3743 3744
3130 1 3744 3745
3131 1 2859 2860
3132 1 2864 2865
3133 1 3786 3787
3134 1 3787 3788
3135 1 3788 3789
3136 1 3789 3790
3137 1 3790 3791
3138 1 3791 3792
3139 1 3792 3793
3140 1 3793 3794
3141 1 3794 3795
3142 1 2863 2864
3143 1 103 3826
3144 1 103 3846
3145 1 2919 2920
3146 1 3846 3847
3147 1 3847 3848
3148 1 3848 3849
3149 1 3849 3850
3150 1 3850 3851
3151 1 3851 3852
3152 1 3852 3853
3153 1 3853 3854
3154 1 3854 3855
3155 1 3832 3833
3156 1 3835 3836
3157 1 3836 3837
3158 1 3839 3840
3159 1 3833 3834
3160 1 3834 3835
3161 1 3837 3838
3162 1 3838 3839
3163 1 104 3866
3164 1 104 3886
3165 1 2979 2980
3166 1 3886 3887
3167 1 3887 3888
3168 1 3888 3889
3169 1 3889 3890
3170 1 3890 3891
3171 1 3891 3892
3172 1 3892 3893
3173 1 3893 3894
3174 1 3894 3895
3175 1 3872 3873
3176 1 3875 3876
3177 1 3873 3874
3178 1 3874 3875
3179 1 105 3906
3180 1 3000 3001
3181 1 3001 3002
3182 1 3002 3003
3183 1 3003 3004
3184 1 3005 105
3185 1 3881 3882
3186 1 3883 3884
3187 1 3884 3885
3188 1 3004 3005
3189 1 3765 105
3190 1 3880 3881
3191 1 3882 3883
3192 1 3885 105
3193 1 3764 3765
3194 1 3761 3762
3195 1 3762 3763
3196 1 3760 3761
3197 1 3763 3764
3198 1 101 3726
3199 1 101 3746
3200 1 101 3766
3201 1 3746 3747
3202 1 3748 3749
3203 1 3751 3752
3204 1 3747 3748
3205 1 3749 3750
3206 1 3750 3751
3207 1 3795 3796
3208 1 3796 3797
3209 1 3797 3798
3210 1 3798 3799
3211 1 3799 3800
3212 1 3800 3801
3213 1 3801 3802
3214 1 3802 3803
3215 1 3803 3804
3216 1 3855 3856
3217 1 3856 3857
3218 1 3857 3858
3219 1 3858 3859
3220 1 3859 3860
3221 1 3860 3861
3222 1 3861 3862
3223 1 3862 3863
3224 1 3863 3864
3225 1 3864 3865
3226 1 3895 3896
3227 1 3896 3897
3228 1 3897 3898
3229 1 3898 3899
3230 1 3899 3900
3231 1 3900 3901
3232 1 3901 3902
3233 1 3902 3903
3234 1 3903 3904
3235 1 106 3926
3236 1 106 3946
3237 1 465 106
3238 1 3060 3061
3239 1 3062 3063
3240 1 3063 3064
3241 1 3064 3065
3242 1 3929 3930
3243 1 3930 3931
3244 1 3061 3062
3245 1 3065 106
3246 1 3926 3927
3247 1 3927 3928
3248 1 3928 3929
3249 1 3931 3932
3250 1 464 465
3251 1 3804 3805
3252 1 107 3966
3253 1 3099 3100
3254 1 3100 3101
3255 1 3101 3102
3256 1 3102 3103
3257 1 3103 3104
3258 1 3104 3105
3259 1 3105 107
3260 1 3805 107
3261 1 3966 3967
3262 1 3967 3968
3263 1 3968 3969
3264 1 3969 3970
3265 1 3970 3971
3266 1 3971 3972
3267 1 3972 3973
3268 1 108 3986
3269 1 545 108
3270 1 3159 3160
3271 1 3160 3161
3272 1 3161 3162
3273 1 3162 3163
3274 1 3163 3164
3275 1 3164 3165
3276 1 3165 108
3277 1 3865 108
3278 1 3986 3987
3279 1 3987 3988
3280 1 3988 3989
3281 1 3989 3990
3282 1 3990 3991
3283 1 3991 3992
3284 1 3992 3993
3285 1 3904 3905
3286 1 109 4006
3287 1 585 109
3288 1 3905 109
3289 1 4006 4007
3290 1 4007 4008
3291 1 4008 4009
3292 1 4009 4010
3293 1 4010 4011
3294 1 4011 4012
3295 1 4012 4013
3296 1 110 4026
3297 1 3219 3220
3298 1 3220 3221
3299 1 3221 3222
3300 1 3222 3223
3301 1 3223 3224
3302 1 3224 3225
3303 1 3225 110
3304 1 3965 110
3305 1 4026 4027
3306 1 4027 4028
3307 1 4028 4029
3308 1 4029 4030
3309 1 4030 4031
3310 1 4031 4032
3311 1 4032 4033
3312 1 3964 3965
3313 1 3955 3956
3314 1 3956 3957
3315 1 3957 3958
3316 1 3958 3959
3317 1 3959 3960
3318 1 3960 3961
3319 1 3961 3962
3320 1 3962 3963
3321 1 3963 3964
3322 1 3059 3060
3323 1 3932 3933
3324 1 3946 3947
3325 1 3947 3948
3326 1 3948 3949
3327 1 3949 3950
3328 1 3950 3951
3329 1 3951 3952
3330 1 3952 3953
3331 1 3953 3954
3332 1 3954 3955
3333 1 3937 3938
3334 1 3936 3937
3335 1 3938 3939
3336 1 3939 3940
3337 1 3973 3974
3338 1 3974 3975
3339 1 3975 3976
3340 1 3976 3977
3341 1 3977 3978
3342 1 3978 3979
3343 1 3979 3980
3344 1 3980 3981
3345 1 3981 3982
3346 1 3982 3983
3347 1 3993 3994
3348 1 3994 3995
3349 1 3995 3996
3350 1 3996 3997
3351 1 3997 3998
3352 1 3998 3999
3353 1 3999 4000
3354 1 4000 4001
3355 1 4001 4002
3356 1 4002 4003
3357 1 4013 4014
3358 1 4014 4015
3359 1 4015 4016
3360 1 4016 4017
3361 1 4017 4018
3362 1 4018 4019
3363 1 4019 4020
3364 1 4020 4021
3365 1 4021 4022
3366 1 4022 4023
3367 1 4033 4034
3368 1 4034 4035
3369 1 4035 4036
3370 1 4036 4037
3371 1 4037 4038
3372 1 4038 4039
3373 1 4039 4040
3374 1 4040 4041
3375 1 4041 4042
3376 1 4042 4043
3377 1 3941 3942
3378 1 3942 3943
3379 1 3933 3934
3380 1 3934 3935
3381 1 3935 3936
3382 1 3940 3941
3383 1 111 4046
3384 1 111 4066
3385 1 3259 3260
3386 1 4046 4047
3387 1 4047 4048
3388 1 4048 4049
3389 1 4049 4050
3390 1 4050 4051
3391 1 4051 4052
3392 1 4052 4053
3393 1 4053 4054
3394 1 4054 4055
3395 1 4055 4056
3396 1 4056 4057
3397 1 4057 4058
3398 1 4058 4059
3399 1 4059 4060
3400 1 4060 4061
3401 1 4061 4062
3402 1 4062 4063
3403 1 4063 4064
3404 1 4064 4065
3405 1 112 4086
3406 1 3319 3320
3407 1 3320 3321
3408 1 3321 3322
3409 1 3322 3323
3410 1 3323 3324
3411 1 3324 3325
3412 1 3325 112
3413 1 3983 3984
3414 1 3984 3985
3415 1 3985 112
3416 1 4065 112
3417 1 4086 4087
3418 1 4087 4088
3419 1 4088 4089
3420 1 4089 4090
3421 1 4090 4091
3422 1 4091 4092
3423 1 4092 4093
3424 1 4093 4094
3425 1 4094 4095
3426 1 4095 4096
3427 1 4096 4097
3428 1 4097 4098
3429 1 4098 4099
3430 1 4099 4100
3431 1 4100 4101
3432 1 4101 4102
3433 1 4102 4103
3434 1 113 4106
3435 1 765 113
3436 1 4003 4004
3437 1 4004 4005
3438 1 4005 113
3439 1 4103 4104
3440 1 4104 4105
3441 1 4105 113
3442 1 4106 4107
3443 1 4107 4108
3444 1 4108 4109
3445 1 4109 4110
3446 1 4110 4111
3447 1 114 4126
3448 1 114 4146
3449 1 825 114
3450 1 4023 4024
3451 1 4024 4025
3452 1 4025 114
3453 1 4126 4127
3454 1 4127 4128
3455 1 4128 4129
3456 1 4146 4147
3457 1 4147 4148
3458 1 4148 4149
3459 1 4149 4150
3460 1 4150 4151
3461 1 4129 4130
3462 1 4130 4131
3463 1 4131 4132
3464 1 4132 4133
3465 1 4133 4134
3466 1 4134 4135
3467 1 4135 4136
3468 1 4136 4137
3469 1 4137 4138
3470 1 4138 4139
3471 1 115 4166
3472 1 3399 3400
3473 1 3400 3401
3474 1 3401 3402
3475 1 3402 3403
3476 1 3403 3404
3477 1 3404 3405
3478 1 3405 115
3479 1 4043 4044
3480 1 4044 4045
3481 1 4045 115
3482 1 4139 4140
3483 1 4140 4141
3484 1 4141 4142
3485 1 4142 4143
3486 1 4143 4144
3487 1 4144 4145
3488 1 4145 115
3489 1 4166 4167
3490 1 4167 4168
3491 1 4168 4169
3492 1 4169 4170
3493 1 4170 4171
3494 1 3260 3261
3495 1 3261 3262
3496 1 3264 3265
3497 1 3265 111
3498 1 3943 3944
3499 1 4067 4068
3500 1 4069 4070
3501 1 4070 4071
3502 1 3262 3263
3503 1 3263 3264
3504 1 3944 3945
3505 1 3945 111
3506 1 4066 4067
3507 1 4068 4069
3508 1 4072 4073
3509 1 4073 4074
3510 1 4075 4076
3511 1 4080 4081
3512 1 4074 4075
3513 1 4111 4112
3514 1 4112 4113
3515 1 4113 4114
3516 1 4114 4115
3517 1 4115 4116
3518 1 4116 4117
3519 1 4117 4118
3520 1 4118 4119
3521 1 4119 4120
3522 1 4120 4121
3523 1 4151 4152
3524 1 4152 4153
3525 1 4153 4154
3526 1 4154 4155
3527 1 4155 4156
3528 1 4156 4157
3529 1 4157 4158
3530 1 4158 4159
3531 1 4159 4160
3532 1 4160 4161
3533 1 4171 4172
3534 1 4172 4173
3535 1 4173 4174
3536 1 4174 4175
3537 1 4175 4176
3538 1 4176 4177
3539 1 4177 4178
3540 1 4178 4179
3541 1 4179 4180
3542 1 4180 4181
3543 1 4076 4077
3544 1 4078 4079
3545 1 4079 4080
3546 1 4071 4072
3547 1 4077 4078
3548 1 4081 4082
3549 1 4082 4083
3550 1 4085 116
3551 1 117 4186
3552 1 117 4206
3553 1 945 117
3554 1 3479 3480
3555 1 3480 3481
3556 1 3481 3482
3557 1 3482 3483
3558 1 3483 3484
3559 1 3484 3485
3560 1 3485 117
3561 1 4186 4187
3562 1 4187 4188
3563 1 4188 4189
3564 1 4189 4190
3565 1 4190 4191
3566 1 4191 4192
3567 1 4192 4193
3568 1 4206 4207
3569 1 4207 4208
3570 1 4208 4209
3571 1 944 945
3572 1 4193 4194
3573 1 4194 4195
3574 1 4195 4196
3575 1 4196 4197
3576 1 4197 4198
3577 1 4198 4199
3578 1 4199 4200
3579 1 4200 4201
3580 1 4201 4202
3581 1 4202 4203
3582 1 118 4226
3583 1 3499 3500
3584 1 3500 3501
3585 1 3501 3502
3586 1 3502 3503
3587 1 3503 3504
3588 1 3504 3505
3589 1 3505 118
3590 1 4121 4122
3591 1 4122 4123
3592 1 4123 4124
3593 1 4124 4125
3594 1 4125 118
3595 1 4203 4204
3596 1 4204 4205
3597 1 4205 118
3598 1 4226 4227
3599 1 4227 4228
3600 1 4228 4229
3601 1 119 4246
3602 1 1005 119
3603 1 3559 3560
3604 1 3560 3561
3605 1 3561 3562
3606 1 3562 3563
3607 1 3563 3564
3608 1 3564 3565
3609 1 3565 119
3610 1 4161 4162
3611 1 4162 4163
3612 1 4163 4164
3613 1 4164 4165
3614 1 4165 119
3615 1 4246 4247
3616 1 4247 4248
3617 1 4248 4249
3618 1 1045 120
3619 1 3579 3580
3620 1 3580 3581
3621 1 3581 3582
3622 1 3582 3583
3623 1 3583 3584
3624 1 3584 3585
3625 1 3585 120
3626 1 4181 4182
3627 1 4182 4183
3628 1 4183 4184
3629 1 4184 4185
3630 1 4185 120
3631 1 1044 1045
3632 1 4083 4084
3633 1 4084 4085
3634 1 4209 4210
3635 1 4210 4211
3636 1 4211 4212
3637 1 4212 4213
3638 1 4213 4214
3639 1 4214 4215
3640 1 4215 4216
3641 1 4216 4217
3642 1 4217 4218
3643 1 4218 4219
3644 1 4229 4230
3645 1 4230 4231
3646 1 4231 4232
3647 1 4232 4233
3648 1 4233 4234
3649 1 4234 4235
3650 1 4235 4236
3651 1 4236 4237
3652 1 4237 4238
3653 1 4238 4239
3654 1 4249 4250
3655 1 4250 4251
3656 1 4251 4252
3657 1 4252 4253
3658 1 4253 4254
3659 1 4254 4255
3660 1 4255 4256
3661 1 4256 4257
3662 1 4257 4258
3663 1 4258 4259
3664 1 121 4266
3665 1 3619 3620
3666 1 4266 4267
3667 1 4267 4268
3668 1 4268 4269
3669 1 4269 4270
3670 1 4270 4271
3671 1 4271 4272
3672 1 4272 4273
3673 1 4273 4274
3674 1 4274 4275
3675 1 4275 4276
3676 1 4276 4277
3677 1 4277 4278
3678 1 4278 4279
3679 1 4279 4280
3680 1 4280 4281
3681 1 4281 4282
3682 1 4282 4283
3683 1 4283 4284
3684 1 4284 4285
3685 1 3659 3660
3686 1 3660 3661
3687 1 3661 3662
3688 1 3662 3663
3689 1 3663 3664
3690 1 3664 3665
3691 1 3665 122
3692 1 3825 122
3693 1 4219 4220
3694 1 4220 4221
3695 1 4221 4222
3696 1 4222 4223
3697 1 4223 4224
3698 1 4224 4225
3699 1 4225 122
3700 1 4285 122
3701 1 3824 3825
3702 1 123 4286
3703 1 3699 3700
3704 1 3700 3701
3705 1 3701 3702
3706 1 3702 3703
3707 1 3703 3704
3708 1 3704 3705
3709 1 3705 123
3710 1 4239 4240
3711 1 4240 4241
3712 1 4241 4242
3713 1 4242 4243
3714 1 4243 4244
3715 1 4244 4245
3716 1 4245 123
3717 1 4286 4287
3718 1 4287 4288
3719 1 4288 4289
3720 1 4289 4290
3721 1 4290 4291
3722 1 4291 4292
3723 1 4292 4293
3724 1 4293 4294
3725 1 4294 4295
3726 1 4295 4296
3727 1 4296 4297
3728 1 4297 4298
3729 1 4298 4299
3730 1 4299 4300
3731 1 4300 4301
3732 1 124 4306
3733 1 3719 3720
3734 1 3720 3721
3735 1 3721 3722
3736 1 3722 3723
3737 1 3723 3724
3738 1 3724 3725
3739 1 3725 124
3740 1 4259 4260
3741 1 4260 4261
3742 1 4261 4262
3743 1 4262 4263
3744 1 4263 4264
3745 1 4264 4265
3746 1 4265 124
3747 1 4301 4302
3748 1 4302 4303
3749 1 4303 4304
3750 1 4304 4305
3751 1 4305 124
3752 1 4306 4307
3753 1 4307 4308
3754 1 4308 4309
3755 1 4309 4310
3756 1 4310 4311
3757 1 4311 4312
3758 1 4312 4313
3759 1 4313 4314
3760 1 4314 4315
3761 1 4315 4316
3762 1 4316 4317
3763 1 4317 4318
3764 1 4318 4319
3765 1 1205 125
3766 1 3925 125
3767 1 4319 4320
3768 1 4320 4321
3769 1 4321 4322
3770 1 4322 4323
3771 1 4323 4324
3772 1 4324 4325
3773 1 4325 125
3774 1 3924 3925
3775 1 1204 1205
3776 1 3620 3621
3777 1 3621 3622
3778 1 3622 3623
3779 1 3623 3624
3780 1 3624 3625
3781 1 3625 121
3782 1 3785 121
3783 1 3784 3785
3784 1 3776 3777
3785 1 3778 3779
3786 1 3779 3780
3787 1 3775 3776
3788 1 3777 3778
3789 1 3815 3816
3790 1 3816 3817
3791 1 3817 3818
3792 1 3818 3819
3793 1 3819 3820
3794 1 3820 3821
3795 1 3821 3822
3796 1 3822 3823
3797 1 3823 3824
3798 1 3915 3916
3799 1 3916 3917
3800 1 3917 3918
3801 1 3918 3919
3802 1 3919 3920
3803 1 3920 3921
3804 1 3921 3922
3805 1 3922 3923
3806 1 3923 3924
3807 1 3780 3781
3808 1 3782 3783
3809 1 3783 3784
3810 1 3781 3782
3811 1 3732 3733
3812 1 3733 3734
3813 1 3734 3735
3814 1 3766 3767
3815 1 3770 3771
3816 1 3771 3772
3817 1 3769 3770
3818 1 3735 3736
3819 1 3741 3742
3820 1 3742 3743
3821 1 3740 3741
3822 1 2861 2862
3823 1 102 3786
3824 1 102 3806
3825 1 2860 2861
3826 1 2862 2863
3827 1 2865 102
3828 1 3745 102
3829 1 3806 3807
3830 1 3807 3808
3831 1 3808 3809
3832 1 3809 3810
3833 1 3810 3811
3834 1 3811 3812
3835 1 3812 3813
3836 1 3813 3814
3837 1 3814 3815
3838 1 2922 2923
3839 1 2923 2924
3840 1 2924 2925
3841 1 3826 3827
3842 1 3828 3829
3843 1 2920 2921
3844 1 2921 2922
3845 1 2925 103
3846 1 3827 3828
3847 1 3829 3830
3848 1 3830 3831
3849 1 3831 3832
3850 1 3840 3841
3851 1 2980 2981
3852 1 2981 2982
3853 1 2982 2983
3854 1 2983 2984
3855 1 3843 3844
3856 1 3866 3867
3857 1 3867 3868
3858 1 2984 2985
3859 1 2985 104
3860 1 3841 3842
3861 1 3842 3843
3862 1 3844 3845
3863 1 3845 104
3864 1 3868 3869
3865 1 3869 3870
3866 1 3870 3871
3867 1 3871 3872
3868 1 3876 3877
3869 1 3878 3879
3870 1 3877 3878
3871 1 2999 3000
3872 1 3879 3880
3873 1 3906 3907
3874 1 3907 3908
3875 1 3908 3909
3876 1 3909 3910
3877 1 3910 3911
3878 1 3911 3912
3879 1 3912 3913
3880 1 3913 3914
3881 1 3914 3915
3882 1 3755 3756
3883 1 3756 3757
3884 1 3757 3758
3885 1 3759 3760
3886 1 3758 3759
3887 1 3753 3754
3888 1 3754 3755
3889 1 3773 3774
3890 1 3774 3775
3891 1 3752 3753
3892 1 3767 3768
3893 1 3768 3769
3894 1 3772 3773
3895 1 460 461
3896 1 462 463
3897 1 461 462
3898 1 463 464
3899 1 535 536
3900 1 536 537
3901 1 537 538
3902 1 538 539
3903 1 539 540
3904 1 540 541
3905 1 541 542
3906 1 542 543
3907 1 543 544
3908 1 544 545
3909 1 575 576
3910 1 576 577
3911 1 577 578
3912 1 578 579
3913 1 579 580
3914 1 580 581
3915 1 581 582
3916 1 582 583
3917 1 583 584
3918 1 584 585
3919 1 456 457
3920 1 458 459
3921 1 459 460
3922 1 455 456
3923 1 457 458
3924 1 755 756
3925 1 756 757
3926 1 757 758
3927 1 758 759
3928 1 759 760
3929 1 760 761
3930 1 761 762
3931 1 762 763
3932 1 763 764
3933 1 764 765
3934 1 815 816
3935 1 816 817
3936 1 817 818
3937 1 818 819
3938 1 819 820
3939 1 820 821
3940 1 821 822
3941 1 822 823
3942 1 823 824
3943 1 824 825
3944 1 935 936
3945 1 936 937
3946 1 937 938
3947 1 938 939
3948 1 939 940
3949 1 940 941
3950 1 941 942
3951 1 942 943
3952 1 943 944
3953 1 995 996
3954 1 996 997
3955 1 997 998
3956 1 998 999
3957 1 999 1000
3958 1 1000 1001
3959 1 1001 1002
3960 1 1002 1003
3961 1 1003 1004
3962 1 1004 1005
3963 1 1035 1036
3964 1 1036 1037
3965 1 1037 1038
3966 1 1038 1039
3967 1 1039 1040
3968 1 1040 1041
3969 1 1041 1042
3970 1 1042 1043
3971 1 1043 1044
3972 1 1195 1196
3973 1 1196 1197
3974 1 1197 1198
3975 1 1198 1199
3976 1 1199 1200
3977 1 1200 1201
3978 1 1201 1202
3979 1 1202 1203
3980 1 1203 1204
3981 1 126 127
3982 1 129 130
3983 1 128 129
3984 1 130 131
3985 1 131 132
3986 1 187 188
3987 1 189 190
3988 1 190 191
3989 1 191 192
3990 1 186 187
3991 1 188 189
3992 1 200 201
3993 1 202 203
3994 1 201 202
3995 1 204 205
3996 1 250 251
3997 1 247 248
3998 1 203 204
3999 1 205 3
4000 1 249 250
4001 1 246 247
4002 1 248 249
4003 1 251 252
4004 1 327 328
4005 1 328 329
4006 1 330 331
4007 1 331 332
4008 1 326 327
4009 1 329 330
4010 1 366 367
4011 1 370 371
4012 1 367 368
4013 1 368 369
4014 1 369 370
4015 1 371 372
4016 1 133 134
4017 1 132 133
4018 1 134 135
4019 1 140 141
4020 1 144 145
4021 1 141 142
4022 1 142 143
4023 1 143 144
4024 1 338 339
4025 1 339 340
4026 1 336 337
4027 1 337 338
4028 1 380 381
4029 1 384 385
4030 1 381 382
4031 1 382 383
4032 1 383 384
4033 1 136 137
4034 1 139 140
4035 1 138 139
4036 1 135 136
4037 1 137 138
4038 1 145 6
4039 1 6 406
4040 1 6 426
4041 1 6 446
4042 1 447 448
4043 1 446 447
4044 1 448 449
4045 1 449 450
4046 1 450 451
4047 1 451 452
4048 1 466 467
4049 1 487 488
4050 1 490 491
4051 1 8 466
4052 1 8 486
4053 1 8 506
4054 1 8 526
4055 1 469 470
4056 1 470 471
4057 1 488 489
4058 1 489 490
4059 1 491 492
4060 1 526 527
4061 1 527 528
4062 1 528 529
4063 1 529 530
4064 1 530 531
4065 1 531 532
4066 1 532 533
4067 1 533 534
4068 1 534 535
4069 1 477 478
4070 1 479 480
4071 1 471 472
4072 1 476 477
4073 1 478 479
4074 1 9 546
4075 1 9 566
4076 1 566 567
4077 1 567 568
4078 1 568 569
4079 1 569 570
4080 1 570 571
4081 1 571 572
4082 1 572 573
4083 1 573 574
4084 1 574 575
4085 1 552 553
4086 1 553 554
4087 1 554 555
4088 1 555 556
4089 1 445 10
4090 1 560 561
4091 1 444 445
4092 1 385 10
4093 1 561 562
4094 1 562 563
4095 1 563 564
4096 1 564 565
4097 1 565 10
4098 1 435 436
4099 1 441 442
4100 1 442 443
4101 1 443 444
4102 1 440 441
4103 1 427 428
4104 1 433 434
4105 1 434 435
4106 1 453 454
4107 1 428 429
4108 1 432 433
4109 1 452 453
4110 1 454 455
4111 1 497 498
4112 1 502 503
4113 1 493 494
4114 1 495 496
4115 1 501 502
4116 1 606 607
4117 1 607 608
4118 1 11 606
4119 1 11 626
4120 1 11 646
4121 1 608 609
4122 1 610 611
4123 1 609 610
4124 1 666 667
4125 1 667 668
4126 1 668 669
4127 1 689 690
4128 1 669 670
4129 1 670 671
4130 1 671 672
4131 1 686 687
4132 1 687 688
4133 1 688 689
4134 1 690 691
4135 1 676 677
4136 1 677 678
4137 1 678 679
4138 1 679 680
4139 1 505 13
4140 1 684 685
4141 1 13 726
4142 1 13 746
4143 1 503 504
4144 1 504 505
4145 1 683 684
4146 1 746 747
4147 1 747 748
4148 1 748 749
4149 1 749 750
4150 1 750 751
4151 1 751 752
4152 1 752 753
4153 1 753 754
4154 1 754 755
4155 1 806 807
4156 1 807 808
4157 1 808 809
4158 1 809 810
4159 1 810 811
4160 1 811 812
4161 1 812 813
4162 1 813 814
4163 1 814 815
4164 1 772 773
4165 1 775 776
4166 1 776 777
4167 1 773 774
4168 1 774 775
4169 1 780 781
4170 1 785 15
4171 1 830 831
4172 1 664 665
4173 1 781 782
4174 1 782 783
4175 1 826 827
4176 1 829 830
4177 1 658 659
4178 1 659 660
4179 1 663 664
4180 1 657 658
4181 1 646 647
4182 1 648 649
4183 1 651 652
4184 1 647 648
4185 1 649 650
4186 1 650 651
4187 1 611 612
4188 1 620 621
4189 1 691 692
4190 1 696 697
4191 1 697 698
4192 1 698 699
4193 1 699 700
4194 1 792 793
4195 1 794 795
4196 1 795 796
4197 1 796 797
4198 1 793 794
4199 1 797 798
4200 1 798 799
4201 1 799 800
4202 1 831 832
4203 1 837 838
4204 1 838 839
4205 1 839 840
4206 1 836 837
4207 1 624 625
4208 1 846 847
4209 1 848 849
4210 1 621 622
4211 1 625 16
4212 1 847 848
4213 1 622 623
4214 1 623 624
4215 1 926 927
4216 1 927 928
4217 1 928 929
4218 1 929 930
4219 1 930 931
4220 1 931 932
4221 1 932 933
4222 1 933 934
4223 1 934 935
4224 1 18 946
4225 1 986 987
4226 1 987 988
4227 1 988 989
4228 1 989 990
4229 1 990 991
4230 1 991 992
4231 1 992 993
4232 1 993 994
4233 1 994 995
4234 1 20 1006
4235 1 20 1026
4236 1 1026 1027
4237 1 1027 1028
4238 1 1028 1029
4239 1 1029 1030
4240 1 1030 1031
4241 1 1031 1032
4242 1 1032 1033
4243 1 1033 1034
4244 1 1034 1035
4245 1 896 897
4246 1 897 898
4247 1 898 899
4248 1 899 900
4249 1 887 888
4250 1 889 890
4251 1 890 891
4252 1 891 892
4253 1 886 887
4254 1 888 889
4255 1 851 852
4256 1 857 858
4257 1 850 851
4258 1 856 857
4259 1 858 859
4260 1 849 850
4261 1 912 913
4262 1 913 914
4263 1 915 916
4264 1 914 915
4265 1 972 973
4266 1 974 975
4267 1 975 976
4268 1 973 974
4269 1 1012 1013
4270 1 1014 1015
4271 1 1016 1017
4272 1 1017 1018
4273 1 1013 1014
4274 1 1015 1016
4275 1 1018 1019
4276 1 859 860
4277 1 1052 1053
4278 1 1053 1054
4279 1 1054 1055
4280 1 863 864
4281 1 864 865
4282 1 1047 1048
4283 1 1048 1049
4284 1 1061 1062
4285 1 1062 1063
4286 1 1064 1065
4287 1 1060 1061
4288 1 1063 1064
4289 1 245 22
4290 1 920 921
4291 1 922 923
4292 1 923 924
4293 1 925 22
4294 1 1065 22
4295 1 921 922
4296 1 924 925
4297 1 244 245
4298 1 1106 1107
4299 1 1108 1109
4300 1 304 305
4301 1 305 23
4302 1 1107 1108
4303 1 1109 1110
4304 1 1110 1111
4305 1 1111 1112
4306 1 1120 1121
4307 1 981 982
4308 1 983 984
4309 1 985 24
4310 1 1123 1124
4311 1 1125 24
4312 1 24 1146
4313 1 24 1166
4314 1 980 981
4315 1 982 983
4316 1 984 985
4317 1 1121 1122
4318 1 1122 1123
4319 1 1124 1125
4320 1 1146 1147
4321 1 1147 1148
4322 1 1148 1149
4323 1 1149 1150
4324 1 1150 1151
4325 1 1157 1158
4326 1 1158 1159
4327 1 1151 1152
4328 1 1156 1157
4329 1 1019 1020
4330 1 1159 1160
4331 1 25 1186
4332 1 1186 1187
4333 1 1187 1188
4334 1 1188 1189
4335 1 1189 1190
4336 1 1190 1191
4337 1 1191 1192
4338 1 1192 1193
4339 1 1193 1194
4340 1 1194 1195
4341 1 1077 1078
4342 1 1078 1079
4343 1 1079 1080
4344 1 1076 1077
4345 1 1069 1070
4346 1 1070 1071
4347 1 1071 1072
4348 1 21 1046
4349 1 21 1066
4350 1 1066 1067
4351 1 176 177
4352 1 241 242
4353 1 242 243
4354 1 240 241
4355 1 243 244
4356 1 302 303
4357 1 303 304
4358 1 300 301
4359 1 301 302
4360 1 175 176
4361 1 227 228
4362 1 230 231
4363 1 231 232
4364 1 2 186
4365 1 2 206
4366 1 2 226
4367 1 226 227
4368 1 228 229
4369 1 229 230
4370 1 287 288
4371 1 289 290
4372 1 286 287
4373 1 288 289
4374 1 290 291
4375 1 291 292
4376 1 260 261
4377 1 262 263
4378 1 263 264
4379 1 264 265
4380 1 306 307
4381 1 308 309
4382 1 265 4
4383 1 261 262
4384 1 4 306
4385 1 4 326
4386 1 4 346
4387 1 307 308
4388 1 309 310
4389 1 310 311
4390 1 311 312
4391 1 165 5
4392 1 320 321
4393 1 323 324
4394 1 324 325
4395 1 321 322
4396 1 322 323
4397 1 164 165
4398 1 5 366
4399 1 5 386
4400 1 325 5
4401 1 155 156
4402 1 163 164
4403 1 162 163
4404 1 161 162
4405 1 160 161
4406 1 148 149
4407 1 152 153
4408 1 147 148
4409 1 153 154
4410 1 154 155

Angles

1 1 126 127 128
2 1 2 206 207
3 1 207 208 209
4 1 206 207 208
5 1 208 209 210
6 1 209 210 211
7 1 210 211 212
8 1 205 3 246
9 1 205 3 266
10 1 205 3 286
11 1 246 3 266
12 1 246 3 286
13 1 266 3 286
14 1 3 266 267
15 1 266 267 268
16 1 267 268 269
17 1 268 269 270
18 1 269 270 271
19 1 270 271 272
20 1 256 257 258
21 1 258 259 260
22 1 255 256 257
23 1 257 258 259
24 1 331 332 333
25 1 333 334 335
26 1 351 352 353
27 1 352 353 354
28 1 353 354 355
29 1 332 333 334
30 1 312 313 314
31 1 316 317 318
32 1 311 312 313
33 1 313 314 315
34 1 315 316 317
35 1 314 315 316
36 1 317 318 319
37 1 372 373 374
38 1 373 374 375
39 1 392 393 394
40 1 391 392 393
41 1 393 394 395
42 1 318 319 320
43 1 371 372 373
44 1 155 156 157
45 1 157 158 159
46 1 158 159 160
47 1 156 157 158
48 1 150 151 152
49 1 1 146 147
50 1 148 149 150
51 1 149 150 151
52 1 339 340 341
53 1 340 341 342
54 1 341 342 343
55 1 343 344 345
56 1 334 335 336
57 1 342 343 344
58 1 375 376 377
59 1 376 377 378
60 1 377 378 379
61 1 378 379 380
62 1 374 375 376
63 1 6 406 407
64 1 406 407 408
65 1 407 408 409
66 1 409 410 411
67 1 410 411 412
68 1 408 409 410
69 1 466 467 468
70 1 467 468 469
71 1 491 492 493
72 1 8 506 507
73 1 506 507 508
74 1 507 508 509
75 1 508 509 510
76 1 509 510 511
77 1 510 511 512
78 1 511 512 513
79 1 512 513 514
80 1 513 514 515
81 1 8 486 487
82 1 474 475 476
83 1 471 472 473
84 1 472 473 474
85 1 473 474 475
86 1 479 480 481
87 1 480 481 482
88 1 483 484 485
89 1 546 547 548
90 1 547 548 549
91 1 344 345 9
92 1 481 482 483
93 1 482 483 484
94 1 484 485 9
95 1 9 546 547
96 1 549 550 551
97 1 550 551 552
98 1 555 556 557
99 1 556 557 558
100 1 557 558 559
101 1 548 549 550
102 1 385 10 445
103 1 385 10 565
104 1 385 10 586
105 1 445 10 565
106 1 445 10 586
107 1 565 10 586
108 1 10 586 587
109 1 586 587 588
110 1 587 588 589
111 1 588 589 590
112 1 589 590 591
113 1 590 591 592
114 1 591 592 593
115 1 592 593 594
116 1 593 594 595
117 1 558 559 560
118 1 436 437 438
119 1 437 438 439
120 1 435 436 437
121 1 438 439 440
122 1 411 412 413
123 1 412 413 414
124 1 413 414 415
125 1 6 426 427
126 1 430 431 432
127 1 428 429 430
128 1 429 430 431
129 1 493 494 495
130 1 495 496 497
131 1 498 499 500
132 1 499 500 501
133 1 497 498 499
134 1 11 626 627
135 1 627 628 629
136 1 628 629 630
137 1 630 631 632
138 1 626 627 628
139 1 629 630 631
140 1 666 12 686
141 1 666 12 706
142 1 686 12 706
143 1 12 706 707
144 1 706 707 708
145 1 707 708 709
146 1 708 709 710
147 1 709 710 711
148 1 710 711 712
149 1 711 712 713
150 1 712 713 714
151 1 713 714 715
152 1 671 672 673
153 1 672 673 674
154 1 673 674 675
155 1 679 680 681
156 1 680 681 682
157 1 674 675 676
158 1 681 682 683
159 1 684 685 13
160 1 13 726 727
161 1 726 727 728
162 1 727 728 729
163 1 728 729 730
164 1 729 730 731
165 1 730 731 732
166 1 731 732 733
167 1 732 733 734
168 1 733 734 735
169 1 766 14 786
170 1 766 14 806
171 1 786 14 806
172 1 14 766 767
173 1 766 767 768
174 1 767 768 769
175 1 14 786 787
176 1 786 787 788
177 1 787 788 789
178 1 788 789 790
179 1 789 790 791
180 1 769 770 771
181 1 776 777 778
182 1 777 778 779
183 1 768 769 770
184 1 770 771 772
185 1 665 15 785
186 1 665 15 826
187 1 785 15 826
188 1 778 779 780
189 1 782 783 784
190 1 783 784 785
191 1 664 665 15
192 1 826 827 828
193 1 827 828 829
194 1 659 660 661
195 1 661 662 663
196 1 654 655 656
197 1 655 656 657
198 1 660 661 662
199 1 631 632 633
200 1 632 633 634
201 1 633 634 635
202 1 652 653 654
203 1 651 652 653
204 1 653 654 655
205 1 691 692 693
206 1 692 693 694
207 1 699 700 701
208 1 693 694 695
209 1 694 695 696
210 1 790 791 792
211 1 799 800 801
212 1 832 833 834
213 1 833 834 835
214 1 834 835 836
215 1 839 840 841
216 1 831 832 833
217 1 613 614 615
218 1 617 618 619
219 1 614 615 616
220 1 615 616 617
221 1 616 617 618
222 1 618 619 620
223 1 611 612 613
224 1 612 613 614
225 1 625 16 846
226 1 625 16 866
227 1 625 16 886
228 1 846 16 866
229 1 846 16 886
230 1 866 16 886
231 1 870 871 872
232 1 16 866 867
233 1 866 867 868
234 1 867 868 869
235 1 868 869 870
236 1 869 870 871
237 1 705 17 906
238 1 705 17 926
239 1 906 17 926
240 1 701 702 703
241 1 703 704 705
242 1 704 705 17
243 1 17 906 907
244 1 906 907 908
245 1 907 908 909
246 1 700 701 702
247 1 702 703 704
248 1 18 946 947
249 1 946 947 948
250 1 947 948 949
251 1 948 949 950
252 1 949 950 951
253 1 950 951 952
254 1 951 952 953
255 1 952 953 954
256 1 953 954 955
257 1 805 19 966
258 1 805 19 986
259 1 966 19 986
260 1 802 803 804
261 1 966 967 968
262 1 800 801 802
263 1 801 802 803
264 1 803 804 805
265 1 804 805 19
266 1 19 966 967
267 1 967 968 969
268 1 840 841 842
269 1 842 843 844
270 1 843 844 845
271 1 844 845 20
272 1 1007 1008 1009
273 1 841 842 843
274 1 904 905 20
275 1 20 1006 1007
276 1 1006 1007 1008
277 1 894 895 896
278 1 899 900 901
279 1 900 901 902
280 1 901 902 903
281 1 903 904 905
282 1 902 903 904
283 1 871 872 873
284 1 873 874 875
285 1 872 873 874
286 1 891 892 893
287 1 892 893 894
288 1 893 894 895
289 1 909 910 911
290 1 915 916 917
291 1 916 917 918
292 1 908 909 910
293 1 910 911 912
294 1 917 918 919
295 1 970 971 972
296 1 976 977 978
297 1 977 978 979
298 1 968 969 970
299 1 969 970 971
300 1 975 976 977
301 1 1008 1009 1010
302 1 1009 1010 1011
303 1 1010 1011 1012
304 1 851 852 853
305 1 854 855 856
306 1 852 853 854
307 1 853 854 855
308 1 859 860 861
309 1 21 1046 1047
310 1 1048 1049 1050
311 1 1049 1050 1051
312 1 1050 1051 1052
313 1 1055 1056 1057
314 1 1056 1057 1058
315 1 1058 1059 1060
316 1 1054 1055 1056
317 1 1057 1058 1059
318 1 245 22 925
319 1 245 22 1065
320 1 245 22 1086
321 1 925 22 1065
322 1 925 22 1086
323 1 1065 22 1086
324 1 22 1086 1087
325 1 1086 1087 1088
326 1 1087 1088 1089
327 1 1088 1089 1090
328 1 1089 1090 1091
329 1 1090 1091 1092
330 1 1091 1092 1093
331 1 1092 1093 1094
332 1 1093 1094 1095
333 1 918 919 920
334 1 305 23 1106
335 1 305 23 1126
336 1 1106 23 1126
337 1 23 1126 1127
338 1 1126 1127 1128
339 1 1127 1128 1129
340 1 1128 1129 1130
341 1 1129 1130 1131
342 1 1130 1131 1132
343 1 1131 1132 1133
344 1 1132 1133 1134
345 1 1133 1134 1135
346 1 1112 1113 1114
347 1 1113 1114 1115
348 1 1115 1116 1117
349 1 1117 1118 1119
350 1 1111 1112 1113
351 1 1114 1115 1116
352 1 1116 1117 1118
353 1 1118 1119 1120
354 1 24 1166 1167
355 1 1166 1167 1168
356 1 1167 1168 1169
357 1 1168 1169 1170
358 1 1169 1170 1171
359 1 1170 1171 1172
360 1 1171 1172 1173
361 1 1172 1173 1174
362 1 1173 1174 1175
363 1 978 979 980
364 1 1151 1152 1153
365 1 1153 1154 1155
366 1 1152 1153 1154
367 1 1154 1155 1156
368 1 1019 1020 1021
369 1 1020 1021 1022
370 1 1022 1023 1024
371 1 1023 1024 1025
372 1 1024 1025 25
373 1 1084 1085 25
374 1 1163 1164 1165
375 1 1083 1084 1085
376 1 1021 1022 1023
377 1 1159 1160 1161
378 1 1160 1161 1162
379 1 1161 1162 1163
380 1 1162 1163 1164
381 1 1164 1165 25
382 1 1074 1075 1076
383 1 1081 1082 1083
384 1 1079 1080 1081
385 1 1080 1081 1082
386 1 1082 1083 1084
387 1 184 185 21
388 1 1066 1067 1068
389 1 1067 1068 1069
390 1 1072 1073 1074
391 1 1073 1074 1075
392 1 860 861 862
393 1 861 862 863
394 1 864 865 21
395 1 1071 1072 1073
396 1 177 178 179
397 1 178 179 180
398 1 183 184 185
399 1 182 183 184
400 1 176 177 178
401 1 235 236 237
402 1 236 237 238
403 1 234 235 236
404 1 237 238 239
405 1 238 239 240
406 1 295 296 297
407 1 296 297 298
408 1 297 298 299
409 1 294 295 296
410 1 298 299 300
411 1 180 181 182
412 1 181 182 183
413 1 179 180 181
414 1 126 1 146
415 1 126 1 166
416 1 146 1 166
417 1 166 167 168
418 1 167 168 169
419 1 169 170 171
420 1 1 166 167
421 1 170 171 172
422 1 168 169 170
423 1 191 192 193
424 1 213 214 215
425 1 211 212 213
426 1 212 213 214
427 1 232 233 234
428 1 233 234 235
429 1 231 232 233
430 1 194 195 196
431 1 196 197 198
432 1 195 196 197
433 1 197 198 199
434 1 198 199 200
435 1 193 194 195
436 1 192 193 194
437 1 271 272 273
438 1 272 273 274
439 1 273 274 275
440 1 291 292 293
441 1 292 293 294
442 1 293 294 295
443 1 251 252 253
444 1 252 253 254
445 1 254 255 256
446 1 253 254 255
447 1 4 346 347
448 1 347 348 349
449 1 349 350 351
450 1 346 347 348
451 1 348 349 350
452 1 350 351 352
453 1 5 386 387
454 1 386 387 388
455 1 387 388 389
456 1 388 389 390
457 1 389 390 391
458 1 390 391 392
459 1 171 172 173
460 1 173 174 175
461 1 172 173 174
462 1 222 223 224
463 1 223 224 225
464 1 216 217 218
465 1 217 218 219
466 1 218 219 220
467 1 276 277 278
468 1 277 278 279
469 1 278 279 280
470 1 275 276 277
471 1 354 355 356
472 1 360 361 362
473 1 361 362 363
474 1 355 356 357
475 1 359 360 361
476 1 395 396 397
477 1 400 401 402
478 1 394 395 396
479 1 401 402 403
480 1 415 416 417
481 1 417 418 419
482 1 418 419 420
483 1 416 417 418
484 1 514 515 516
485 1 515 516 517
486 1 516 517 518
487 1 517 518 519
488 1 518 519 520
489 1 519 520 521
490 1 520 521 522
491 1 521 522 523
492 1 522 523 524
493 1 523 524 525
494 1 594 595 596
495 1 595 596 597
496 1 596 597 598
497 1 597 598 599
498 1 598 599 600
499 1 599 600 601
500 1 600 601 602
501 1 601 602 603
502 1 602 603 604
503 1 414 415 416
504 1 419 420 421
505 1 420 421 422
506 1 422 423 424
507 1 421 422 423
508 1 638 639 640
509 1 642 643 644
510 1 643 644 645
511 1 636 637 638
512 1 637 638 639
513 1 714 715 716
514 1 715 716 717
515 1 716 717 718
516 1 717 718 719
517 1 718 719 720
518 1 719 720 721
519 1 720 721 722
520 1 721 722 723
521 1 722 723 724
522 1 734 735 736
523 1 735 736 737
524 1 736 737 738
525 1 737 738 739
526 1 738 739 740
527 1 739 740 741
528 1 740 741 742
529 1 741 742 743
530 1 742 743 744
531 1 634 635 636
532 1 640 641 642
533 1 641 642 643
534 1 635 636 637
535 1 639 640 641
536 1 883 884 885
537 1 879 880 881
538 1 880 881 882
539 1 881 882 883
540 1 882 883 884
541 1 954 955 956
542 1 955 956 957
543 1 956 957 958
544 1 957 958 959
545 1 958 959 960
546 1 959 960 961
547 1 960 961 962
548 1 961 962 963
549 1 962 963 964
550 1 875 876 877
551 1 876 877 878
552 1 877 878 879
553 1 878 879 880
554 1 874 875 876
555 1 1094 1095 1096
556 1 1095 1096 1097
557 1 1096 1097 1098
558 1 1097 1098 1099
559 1 1098 1099 1100
560 1 1099 1100 1101
561 1 1100 1101 1102
562 1 1101 1102 1103
563 1 1102 1103 1104
564 1 1134 1135 1136
565 1 1135 1136 1137
566 1 1136 1137 1138
567 1 1137 1138 1139
568 1 1138 1139 1140
569 1 1139 1140 1141
570 1 1140 1141 1142
571 1 1141 1142 1143
572 1 1142 1143 1144
573 1 1143 1144 1145
574 1 1174 1175 1176
575 1 1175 1176 1177
576 1 1176 1177 1178
577 1 1177 1178 1179
578 1 1178 1179 1180
579 1 1179 1180 1181
580 1 1180 1181 1182
581 1 1181 1182 1183
582 1 1182 1183 1184
583 1 1183 1184 1185
584 1 215 216 217
585 1 214 215 216
586 1 219 220 221
587 1 220 221 222
588 1 221 222 223
589 1 280 281 282
590 1 281 282 283
591 1 274 275 276
592 1 279 280 281
593 1 282 283 284
594 1 356 357 358
595 1 357 358 359
596 1 358 359 360
597 1 363 364 365
598 1 362 363 364
599 1 396 397 398
600 1 397 398 399
601 1 398 399 400
602 1 402 403 404
603 1 403 404 405
604 1 399 400 401
605 1 1209 1210 1211
606 1 1210 1211 1212
607 1 26 1206 1207
608 1 1208 1209 1210
609 1 1206 1207 1208
610 1 1207 1208 1209
611 1 225 27 1266
612 1 225 27 1286
613 1 225 27 1306
614 1 1266 27 1286
615 1 1266 27 1306
616 1 1286 27 1306
617 1 27 1266 1267
618 1 1270 1271 1272
619 1 27 1286 1287
620 1 1286 1287 1288
621 1 1287 1288 1289
622 1 1288 1289 1290
623 1 1289 1290 1291
624 1 1290 1291 1292
625 1 1291 1292 1293
626 1 1292 1293 1294
627 1 1293 1294 1295
628 1 1268 1269 1270
629 1 1269 1270 1271
630 1 1275 1276 1277
631 1 1276 1277 1278
632 1 1277 1278 1279
633 1 1274 1275 1276
634 1 1278 1279 1280
635 1 28 1326 1327
636 1 1326 1327 1328
637 1 1327 1328 1329
638 1 1328 1329 1330
639 1 1329 1330 1331
640 1 1330 1331 1332
641 1 1331 1332 1333
642 1 1332 1333 1334
643 1 1333 1334 1335
644 1 1351 1352 1353
645 1 365 29 1366
646 1 365 29 1386
647 1 365 29 1406
648 1 1366 29 1386
649 1 1366 29 1406
650 1 1386 29 1406
651 1 364 365 29
652 1 1367 1368 1369
653 1 29 1386 1387
654 1 1386 1387 1388
655 1 1387 1388 1389
656 1 1388 1389 1390
657 1 1389 1390 1391
658 1 1390 1391 1392
659 1 1391 1392 1393
660 1 1392 1393 1394
661 1 1393 1394 1395
662 1 1366 1367 1368
663 1 1368 1369 1370
664 1 1369 1370 1371
665 1 1370 1371 1372
666 1 1371 1372 1373
667 1 1372 1373 1374
668 1 1373 1374 1375
669 1 405 30 1245
670 1 405 30 1385
671 1 405 30 1426
672 1 1245 30 1385
673 1 1245 30 1426
674 1 1385 30 1426
675 1 404 405 30
676 1 30 1426 1427
677 1 1427 1428 1429
678 1 1428 1429 1430
679 1 1431 1432 1433
680 1 1426 1427 1428
681 1 1235 1236 1237
682 1 1237 1238 1239
683 1 1238 1239 1240
684 1 1243 1244 1245
685 1 1236 1237 1238
686 1 1242 1243 1244
687 1 1206 26 1226
688 1 1206 26 1246
689 1 1226 26 1246
690 1 26 1226 1227
691 1 1227 1228 1229
692 1 1226 1227 1228
693 1 1228 1229 1230
694 1 1229 1230 1231
695 1 1230 1231 1232
696 1 1294 1295 1296
697 1 1295 1296 1297
698 1 1296 1297 1298
699 1 1297 1298 1299
700 1 1298 1299 1300
701 1 1299 1300 1301
702 1 1300 1301 1302
703 1 1301 1302 1303
704 1 1302 1303 1304
705 1 1334 1335 1336
706 1 1335 1336 1337
707 1 1336 1337 1338
708 1 1337 1338 1339
709 1 1338 1339 1340
710 1 1339 1340 1341
711 1 1340 1341 1342
712 1 1341 1342 1343
713 1 1342 1343 1344
714 1 1343 1344 1345
715 1 1394 1395 1396
716 1 1395 1396 1397
717 1 1396 1397 1398
718 1 1397 1398 1399
719 1 1398 1399 1400
720 1 1399 1400 1401
721 1 1400 1401 1402
722 1 1401 1402 1403
723 1 1402 1403 1404
724 1 31 1446 1447
725 1 1446 1447 1448
726 1 1447 1448 1449
727 1 1448 1449 1450
728 1 1449 1450 1451
729 1 1450 1451 1452
730 1 1451 1452 1453
731 1 1452 1453 1454
732 1 1453 1454 1455
733 1 1471 1472 1473
734 1 1454 1455 1456
735 1 1455 1456 1457
736 1 1456 1457 1458
737 1 1457 1458 1459
738 1 1458 1459 1460
739 1 1459 1460 1461
740 1 1460 1461 1462
741 1 1461 1462 1463
742 1 1462 1463 1464
743 1 1463 1464 1465
744 1 1303 1304 1305
745 1 1305 32 1465
746 1 1305 32 1486
747 1 1305 32 1506
748 1 1465 32 1486
749 1 1465 32 1506
750 1 1486 32 1506
751 1 1304 1305 32
752 1 1464 1465 32
753 1 32 1486 1487
754 1 1486 1487 1488
755 1 1487 1488 1489
756 1 1488 1489 1490
757 1 1489 1490 1491
758 1 1490 1491 1492
759 1 1491 1492 1493
760 1 32 1506 1507
761 1 1506 1507 1508
762 1 1507 1508 1509
763 1 1508 1509 1510
764 1 1509 1510 1511
765 1 1510 1511 1512
766 1 1511 1512 1513
767 1 525 33 1345
768 1 525 33 1526
769 1 525 33 1546
770 1 1345 33 1526
771 1 1345 33 1546
772 1 1526 33 1546
773 1 524 525 33
774 1 1344 1345 33
775 1 33 1526 1527
776 1 1526 1527 1528
777 1 1527 1528 1529
778 1 1528 1529 1530
779 1 1529 1530 1531
780 1 1530 1531 1532
781 1 1531 1532 1533
782 1 33 1546 1547
783 1 1546 1547 1548
784 1 1547 1548 1549
785 1 1548 1549 1550
786 1 1549 1550 1551
787 1 1550 1551 1552
788 1 1551 1552 1553
789 1 1403 1404 1405
790 1 1405 34 1566
791 1 1405 34 1586
792 1 1566 34 1586
793 1 1404 1405 34
794 1 34 1566 1567
795 1 1566 1567 1568
796 1 1567 1568 1569
797 1 34 1586 1587
798 1 1586 1587 1588
799 1 1587 1588 1589
800 1 1588 1589 1590
801 1 1589 1590 1591
802 1 1590 1591 1592
803 1 1591 1592 1593
804 1 1568 1569 1570
805 1 1569 1570 1571
806 1 1570 1571 1572
807 1 1571 1572 1573
808 1 1572 1573 1574
809 1 1573 1574 1575
810 1 1574 1575 1576
811 1 1575 1576 1577
812 1 1576 1577 1578
813 1 1577 1578 1579
814 1 603 604 605
815 1 605 35 1585
816 1 605 35 1606
817 1 1585 35 1606
818 1 604 605 35
819 1 1578 1579 1580
820 1 1579 1580 1581
821 1 1580 1581 1582
822 1 1581 1582 1583
823 1 1582 1583 1584
824 1 1583 1584 1585
825 1 1584 1585 35
826 1 35 1606 1607
827 1 1606 1607 1608
828 1 1607 1608 1609
829 1 1608 1609 1610
830 1 1609 1610 1611
831 1 1610 1611 1612
832 1 1611 1612 1613
833 1 423 424 425
834 1 1466 1467 1468
835 1 1467 1468 1469
836 1 1469 1470 1471
837 1 425 31 1446
838 1 425 31 1466
839 1 1446 31 1466
840 1 424 425 31
841 1 31 1466 1467
842 1 1468 1469 1470
843 1 1470 1471 1472
844 1 1472 1473 1474
845 1 1473 1474 1475
846 1 1475 1476 1477
847 1 1479 1480 1481
848 1 1480 1481 1482
849 1 1474 1475 1476
850 1 1481 1482 1483
851 1 1492 1493 1494
852 1 1493 1494 1495
853 1 1494 1495 1496
854 1 1495 1496 1497
855 1 1496 1497 1498
856 1 1497 1498 1499
857 1 1498 1499 1500
858 1 1499 1500 1501
859 1 1500 1501 1502
860 1 1501 1502 1503
861 1 1532 1533 1534
862 1 1533 1534 1535
863 1 1534 1535 1536
864 1 1535 1536 1537
865 1 1536 1537 1538
866 1 1537 1538 1539
867 1 1538 1539 1540
868 1 1539 1540 1541
869 1 1540 1541 1542
870 1 1541 1542 1543
871 1 1612 1613 1614
872 1 1613 1614 1615
873 1 1614 1615 1616
874 1 1615 1616 1617
875 1 1616 1617 1618
876 1 1617 1618 1619
877 1 1618 1619 1620
878 1 1619 1620 1621
879 1 1620 1621 1622
880 1 1621 1622 1623
881 1 1476 1477 1478
882 1 1477 1478 1479
883 1 1478 1479 1480
884 1 645 36 1485
885 1 645 36 1626
886 1 1485 36 1626
887 1 1626 1627 1628
888 1 1627 1628 1629
889 1 1484 1485 36
890 1 723 724 725
891 1 725 37 1505
892 1 725 37 1646
893 1 1505 37 1646
894 1 724 725 37
895 1 1502 1503 1504
896 1 1503 1504 1505
897 1 1504 1505 37
898 1 37 1646 1647
899 1 1646 1647 1648
900 1 1647 1648 1649
901 1 1648 1649 1650
902 1 1649 1650 1651
903 1 1650 1651 1652
904 1 1651 1652 1653
905 1 743 744 745
906 1 745 38 1545
907 1 745 38 1666
908 1 745 38 1686
909 1 1545 38 1666
910 1 1545 38 1686
911 1 1666 38 1686
912 1 744 745 38
913 1 1542 1543 1544
914 1 1543 1544 1545
915 1 1544 1545 38
916 1 38 1666 1667
917 1 1666 1667 1668
918 1 1667 1668 1669
919 1 1668 1669 1670
920 1 1669 1670 1671
921 1 38 1686 1687
922 1 1686 1687 1688
923 1 1687 1688 1689
924 1 1688 1689 1690
925 1 1689 1690 1691
926 1 1690 1691 1692
927 1 1691 1692 1693
928 1 1670 1671 1672
929 1 1671 1672 1673
930 1 1672 1673 1674
931 1 1673 1674 1675
932 1 1674 1675 1676
933 1 1675 1676 1677
934 1 1676 1677 1678
935 1 1677 1678 1679
936 1 1678 1679 1680
937 1 1679 1680 1681
938 1 1685 39 1706
939 1 1685 39 1726
940 1 1685 39 1746
941 1 1706 39 1726
942 1 1706 39 1746
943 1 1726 39 1746
944 1 1680 1681 1682
945 1 1681 1682 1683
946 1 1682 1683 1684
947 1 1683 1684 1685
948 1 1684 1685 39
949 1 39 1706 1707
950 1 1706 1707 1708
951 1 1707 1708 1709
952 1 39 1726 1727
953 1 1726 1727 1728
954 1 1727 1728 1729
955 1 1728 1729 1730
956 1 1729 1730 1731
957 1 39 1746 1747
958 1 1746 1747 1748
959 1 1747 1748 1749
960 1 1748 1749 1750
961 1 1749 1750 1751
962 1 1750 1751 1752
963 1 1751 1752 1753
964 1 1708 1709 1710
965 1 1709 1710 1711
966 1 1710 1711 1712
967 1 1711 1712 1713
968 1 1712 1713 1714
969 1 1713 1714 1715
970 1 1714 1715 1716
971 1 1715 1716 1717
972 1 1716 1717 1718
973 1 1717 1718 1719
974 1 1625 40 1725
975 1 1625 40 1766
976 1 1625 40 1786
977 1 1725 40 1766
978 1 1725 40 1786
979 1 1766 40 1786
980 1 1622 1623 1624
981 1 1623 1624 1625
982 1 1624 1625 40
983 1 1718 1719 1720
984 1 1719 1720 1721
985 1 1720 1721 1722
986 1 1721 1722 1723
987 1 1722 1723 1724
988 1 1723 1724 1725
989 1 1724 1725 40
990 1 40 1766 1767
991 1 1766 1767 1768
992 1 1767 1768 1769
993 1 1768 1769 1770
994 1 1769 1770 1771
995 1 40 1786 1787
996 1 1786 1787 1788
997 1 1787 1788 1789
998 1 1788 1789 1790
999 1 1789 1790 1791
1000 1 1790 1791 1792
1001 1 1791 1792 1793
1002 1 644 645 36
1003 1 1482 1483 1484
1004 1 1628 1629 1630
1005 1 1483 1484 1485
1006 1 36 1626 1627
1007 1 1629 1630 1631
1008 1 1632 1633 1634
1009 1 1631 1632 1633
1010 1 1633 1634 1635
1011 1 1634 1635 1636
1012 1 1639 1640 1641
1013 1 1730 1731 1732
1014 1 1731 1732 1733
1015 1 1732 1733 1734
1016 1 1733 1734 1735
1017 1 1734 1735 1736
1018 1 1735 1736 1737
1019 1 1736 1737 1738
1020 1 1737 1738 1739
1021 1 1738 1739 1740
1022 1 1739 1740 1741
1023 1 1770 1771 1772
1024 1 1771 1772 1773
1025 1 1772 1773 1774
1026 1 1773 1774 1775
1027 1 1774 1775 1776
1028 1 1775 1776 1777
1029 1 1776 1777 1778
1030 1 1777 1778 1779
1031 1 1778 1779 1780
1032 1 1779 1780 1781
1033 1 1635 1636 1637
1034 1 1636 1637 1638
1035 1 1630 1631 1632
1036 1 1637 1638 1639
1037 1 1638 1639 1640
1038 1 885 41 1645
1039 1 885 41 1806
1040 1 885 41 1826
1041 1 1645 41 1806
1042 1 1645 41 1826
1043 1 1806 41 1826
1044 1 1640 1641 1642
1045 1 1641 1642 1643
1046 1 884 885 41
1047 1 1642 1643 1644
1048 1 1643 1644 1645
1049 1 1644 1645 41
1050 1 41 1806 1807
1051 1 1806 1807 1808
1052 1 1807 1808 1809
1053 1 963 964 965
1054 1 965 43 1846
1055 1 965 43 1866
1056 1 1846 43 1866
1057 1 964 965 43
1058 1 43 1846 1847
1059 1 1846 1847 1848
1060 1 1847 1848 1849
1061 1 1848 1849 1850
1062 1 1849 1850 1851
1063 1 43 1866 1867
1064 1 1866 1867 1868
1065 1 1867 1868 1869
1066 1 1868 1869 1870
1067 1 1869 1870 1871
1068 1 1870 1871 1872
1069 1 1871 1872 1873
1070 1 1850 1851 1852
1071 1 1851 1852 1853
1072 1 1852 1853 1854
1073 1 1853 1854 1855
1074 1 1854 1855 1856
1075 1 1855 1856 1857
1076 1 1856 1857 1858
1077 1 1857 1858 1859
1078 1 1858 1859 1860
1079 1 1859 1860 1861
1080 1 1745 44 1865
1081 1 1745 44 1886
1082 1 1865 44 1886
1083 1 1740 1741 1742
1084 1 1741 1742 1743
1085 1 1742 1743 1744
1086 1 1743 1744 1745
1087 1 1744 1745 44
1088 1 1860 1861 1862
1089 1 1861 1862 1863
1090 1 1862 1863 1864
1091 1 1863 1864 1865
1092 1 1864 1865 44
1093 1 44 1886 1887
1094 1 1886 1887 1888
1095 1 1887 1888 1889
1096 1 1785 45 1845
1097 1 1785 45 1906
1098 1 1845 45 1906
1099 1 1780 1781 1782
1100 1 1781 1782 1783
1101 1 1782 1783 1784
1102 1 1783 1784 1785
1103 1 1784 1785 45
1104 1 1844 1845 45
1105 1 45 1906 1907
1106 1 1906 1907 1908
1107 1 1907 1908 1909
1108 1 1834 1835 1836
1109 1 1835 1836 1837
1110 1 1836 1837 1838
1111 1 1837 1838 1839
1112 1 1838 1839 1840
1113 1 1839 1840 1841
1114 1 1840 1841 1842
1115 1 1841 1842 1843
1116 1 1842 1843 1844
1117 1 1843 1844 1845
1118 1 41 1826 1827
1119 1 1826 1827 1828
1120 1 1827 1828 1829
1121 1 1828 1829 1830
1122 1 1829 1830 1831
1123 1 1830 1831 1832
1124 1 1831 1832 1833
1125 1 1832 1833 1834
1126 1 1833 1834 1835
1127 1 1810 1811 1812
1128 1 1815 1816 1817
1129 1 1816 1817 1818
1130 1 1808 1809 1810
1131 1 1809 1810 1811
1132 1 1817 1818 1819
1133 1 1888 1889 1890
1134 1 1889 1890 1891
1135 1 1890 1891 1892
1136 1 1891 1892 1893
1137 1 1892 1893 1894
1138 1 1893 1894 1895
1139 1 1894 1895 1896
1140 1 1895 1896 1897
1141 1 1896 1897 1898
1142 1 1897 1898 1899
1143 1 1908 1909 1910
1144 1 1909 1910 1911
1145 1 1910 1911 1912
1146 1 1911 1912 1913
1147 1 1912 1913 1914
1148 1 1913 1914 1915
1149 1 1914 1915 1916
1150 1 1915 1916 1917
1151 1 1916 1917 1918
1152 1 1917 1918 1919
1153 1 1812 1813 1814
1154 1 1813 1814 1815
1155 1 1811 1812 1813
1156 1 1814 1815 1816
1157 1 1818 1819 1820
1158 1 1822 1823 1824
1159 1 46 1926 1927
1160 1 1928 1929 1930
1161 1 1930 1931 1932
1162 1 1823 1824 1825
1163 1 1929 1930 1931
1164 1 1263 1264 1265
1165 1 1103 1104 1105
1166 1 1105 47 1325
1167 1 1105 47 1946
1168 1 1325 47 1946
1169 1 1104 1105 47
1170 1 1324 1325 47
1171 1 47 1946 1947
1172 1 1946 1947 1948
1173 1 1947 1948 1949
1174 1 1948 1949 1950
1175 1 1949 1950 1951
1176 1 1950 1951 1952
1177 1 1951 1952 1953
1178 1 1144 1145 48
1179 1 1185 49 1425
1180 1 1185 49 1905
1181 1 1185 49 1966
1182 1 1425 49 1905
1183 1 1425 49 1966
1184 1 1905 49 1966
1185 1 1184 1185 49
1186 1 1424 1425 49
1187 1 1898 1899 1900
1188 1 1899 1900 1901
1189 1 1900 1901 1902
1190 1 1901 1902 1903
1191 1 1902 1903 1904
1192 1 1903 1904 1905
1193 1 1904 1905 49
1194 1 49 1966 1967
1195 1 1966 1967 1968
1196 1 1967 1968 1969
1197 1 1423 1424 1425
1198 1 1968 1969 1970
1199 1 1969 1970 1971
1200 1 1970 1971 1972
1201 1 1971 1972 1973
1202 1 1972 1973 1974
1203 1 1973 1974 1975
1204 1 1974 1975 1976
1205 1 1975 1976 1977
1206 1 1976 1977 1978
1207 1 1977 1978 1979
1208 1 1925 50 1985
1209 1 1925 50 1986
1210 1 1985 50 1986
1211 1 1918 1919 1920
1212 1 1919 1920 1921
1213 1 1920 1921 1922
1214 1 1921 1922 1923
1215 1 1922 1923 1924
1216 1 1923 1924 1925
1217 1 1924 1925 50
1218 1 1978 1979 1980
1219 1 1979 1980 1981
1220 1 1980 1981 1982
1221 1 1981 1982 1983
1222 1 1982 1983 1984
1223 1 1983 1984 1985
1224 1 1984 1985 50
1225 1 50 1986 1987
1226 1 1986 1987 1988
1227 1 1987 1988 1989
1228 1 1988 1989 1990
1229 1 1989 1990 1991
1230 1 1990 1991 1992
1231 1 1991 1992 1993
1232 1 1264 1265 46
1233 1 1820 1821 1822
1234 1 1824 1825 46
1235 1 1926 1927 1928
1236 1 1265 46 1825
1237 1 1265 46 1926
1238 1 1825 46 1926
1239 1 1819 1820 1821
1240 1 1821 1822 1823
1241 1 1927 1928 1929
1242 1 1931 1932 1933
1243 1 1256 1257 1258
1244 1 1257 1258 1259
1245 1 1258 1259 1260
1246 1 1262 1263 1264
1247 1 1314 1315 1316
1248 1 1315 1316 1317
1249 1 1316 1317 1318
1250 1 1317 1318 1319
1251 1 1318 1319 1320
1252 1 1319 1320 1321
1253 1 1320 1321 1322
1254 1 1321 1322 1323
1255 1 1322 1323 1324
1256 1 1323 1324 1325
1257 1 1414 1415 1416
1258 1 1415 1416 1417
1259 1 1416 1417 1418
1260 1 1417 1418 1419
1261 1 1418 1419 1420
1262 1 1419 1420 1421
1263 1 1420 1421 1422
1264 1 1421 1422 1423
1265 1 1422 1423 1424
1266 1 1260 1261 1262
1267 1 1261 1262 1263
1268 1 1254 1255 1256
1269 1 1255 1256 1257
1270 1 1259 1260 1261
1271 1 1246 1247 1248
1272 1 1247 1248 1249
1273 1 26 1246 1247
1274 1 1248 1249 1250
1275 1 1249 1250 1251
1276 1 1250 1251 1252
1277 1 1267 1268 1269
1278 1 1271 1272 1273
1279 1 224 225 27
1280 1 1266 1267 1268
1281 1 27 1306 1307
1282 1 1306 1307 1308
1283 1 1307 1308 1309
1284 1 1308 1309 1310
1285 1 1309 1310 1311
1286 1 1310 1311 1312
1287 1 1311 1312 1313
1288 1 1312 1313 1314
1289 1 1313 1314 1315
1290 1 1272 1273 1274
1291 1 1273 1274 1275
1292 1 1279 1280 1281
1293 1 1280 1281 1282
1294 1 1281 1282 1283
1295 1 283 284 285
1296 1 284 285 28
1297 1 1283 1284 1285
1298 1 1284 1285 28
1299 1 28 1346 1347
1300 1 1346 1347 1348
1301 1 1348 1349 1350
1302 1 1349 1350 1351
1303 1 285 28 1285
1304 1 285 28 1326
1305 1 285 28 1346
1306 1 1285 28 1326
1307 1 1285 28 1346
1308 1 1326 28 1346
1309 1 1282 1283 1284
1310 1 1347 1348 1349
1311 1 1350 1351 1352
1312 1 29 1366 1367
1313 1 29 1406 1407
1314 1 1406 1407 1408
1315 1 1407 1408 1409
1316 1 1408 1409 1410
1317 1 1409 1410 1411
1318 1 1410 1411 1412
1319 1 1411 1412 1413
1320 1 1412 1413 1414
1321 1 1413 1414 1415
1322 1 1377 1378 1379
1323 1 1374 1375 1376
1324 1 1375 1376 1377
1325 1 1376 1377 1378
1326 1 1244 1245 30
1327 1 1378 1379 1380
1328 1 1380 1381 1382
1329 1 1381 1382 1383
1330 1 1384 1385 30
1331 1 1430 1431 1432
1332 1 1379 1380 1381
1333 1 1382 1383 1384
1334 1 1383 1384 1385
1335 1 1429 1430 1431
1336 1 1234 1235 1236
1337 1 1239 1240 1241
1338 1 1240 1241 1242
1339 1 1241 1242 1243
1340 1 1211 1212 1213
1341 1 1231 1232 1233
1342 1 1232 1233 1234
1343 1 1233 1234 1235
1344 1 1251 1252 1253
1345 1 1252 1253 1254
1346 1 1253 1254 1255
1347 1 1218 1219 1220
1348 1 1216 1217 1218
1349 1 1217 1218 1219
1350 1 1352 1353 1354
1351 1 1357 1358 1359
1352 1 1353 1354 1355
1353 1 1354 1355 1356
1354 1 1355 1356 1357
1355 1 1356 1357 1358
1356 1 1358 1359 1360
1357 1 1432 1433 1434
1358 1 1433 1434 1435
1359 1 1439 1440 1441
1360 1 1440 1441 1442
1361 1 1441 1442 1443
1362 1 1438 1439 1440
1363 1 1512 1513 1514
1364 1 1513 1514 1515
1365 1 1514 1515 1516
1366 1 1515 1516 1517
1367 1 1516 1517 1518
1368 1 1517 1518 1519
1369 1 1518 1519 1520
1370 1 1519 1520 1521
1371 1 1520 1521 1522
1372 1 1521 1522 1523
1373 1 1552 1553 1554
1374 1 1553 1554 1555
1375 1 1554 1555 1556
1376 1 1555 1556 1557
1377 1 1556 1557 1558
1378 1 1557 1558 1559
1379 1 1558 1559 1560
1380 1 1559 1560 1561
1381 1 1560 1561 1562
1382 1 1561 1562 1563
1383 1 1592 1593 1594
1384 1 1593 1594 1595
1385 1 1594 1595 1596
1386 1 1595 1596 1597
1387 1 1596 1597 1598
1388 1 1597 1598 1599
1389 1 1598 1599 1600
1390 1 1599 1600 1601
1391 1 1600 1601 1602
1392 1 1601 1602 1603
1393 1 1652 1653 1654
1394 1 1653 1654 1655
1395 1 1654 1655 1656
1396 1 1655 1656 1657
1397 1 1656 1657 1658
1398 1 1657 1658 1659
1399 1 1658 1659 1660
1400 1 1659 1660 1661
1401 1 1660 1661 1662
1402 1 1661 1662 1663
1403 1 1692 1693 1694
1404 1 1693 1694 1695
1405 1 1694 1695 1696
1406 1 1695 1696 1697
1407 1 1696 1697 1698
1408 1 1697 1698 1699
1409 1 1698 1699 1700
1410 1 1699 1700 1701
1411 1 1700 1701 1702
1412 1 1701 1702 1703
1413 1 1752 1753 1754
1414 1 1753 1754 1755
1415 1 1754 1755 1756
1416 1 1755 1756 1757
1417 1 1756 1757 1758
1418 1 1757 1758 1759
1419 1 1758 1759 1760
1420 1 1759 1760 1761
1421 1 1760 1761 1762
1422 1 1761 1762 1763
1423 1 1792 1793 1794
1424 1 1793 1794 1795
1425 1 1794 1795 1796
1426 1 1795 1796 1797
1427 1 1796 1797 1798
1428 1 1797 1798 1799
1429 1 1798 1799 1800
1430 1 1799 1800 1801
1431 1 1800 1801 1802
1432 1 1801 1802 1803
1433 1 1872 1873 1874
1434 1 1873 1874 1875
1435 1 1874 1875 1876
1436 1 1875 1876 1877
1437 1 1876 1877 1878
1438 1 1877 1878 1879
1439 1 1878 1879 1880
1440 1 1879 1880 1881
1441 1 1880 1881 1882
1442 1 1881 1882 1883
1443 1 1935 1936 1937
1444 1 1936 1937 1938
1445 1 1937 1938 1939
1446 1 1938 1939 1940
1447 1 1952 1953 1954
1448 1 1953 1954 1955
1449 1 1954 1955 1956
1450 1 1955 1956 1957
1451 1 1956 1957 1958
1452 1 1957 1958 1959
1453 1 1958 1959 1960
1454 1 1959 1960 1961
1455 1 1960 1961 1962
1456 1 1961 1962 1963
1457 1 1992 1993 1994
1458 1 1993 1994 1995
1459 1 1994 1995 1996
1460 1 1995 1996 1997
1461 1 1996 1997 1998
1462 1 1997 1998 1999
1463 1 1998 1999 2000
1464 1 1999 2000 2001
1465 1 2000 2001 2002
1466 1 2001 2002 2003
1467 1 1932 1933 1934
1468 1 1933 1934 1935
1469 1 1934 1935 1936
1470 1 1939 1940 1941
1471 1 1940 1941 1942
1472 1 1941 1942 1943
1473 1 1359 1360 1361
1474 1 1360 1361 1362
1475 1 1361 1362 1363
1476 1 1437 1438 1439
1477 1 1434 1435 1436
1478 1 1435 1436 1437
1479 1 1436 1437 1438
1480 1 1212 1213 1214
1481 1 1213 1214 1215
1482 1 1215 1216 1217
1483 1 1214 1215 1216
1484 1 1219 1220 1221
1485 1 1221 1222 1223
1486 1 1220 1221 1222
1487 1 1223 1224 1225
1488 1 1222 1223 1224
1489 1 53 2026 2027
1490 1 2026 2027 2028
1491 1 2027 2028 2029
1492 1 2028 2029 2030
1493 1 2029 2030 2031
1494 1 2030 2031 2032
1495 1 2031 2032 2033
1496 1 2032 2033 2034
1497 1 2033 2034 2035
1498 1 2011 2012 2013
1499 1 2012 2013 2014
1500 1 2013 2014 2015
1501 1 2014 2015 2016
1502 1 2015 2016 2017
1503 1 2019 2020 2021
1504 1 2025 54 2066
1505 1 2025 54 2086
1506 1 2025 54 2106
1507 1 2066 54 2086
1508 1 2066 54 2106
1509 1 2086 54 2106
1510 1 2020 2021 2022
1511 1 2024 2025 54
1512 1 54 2066 2067
1513 1 2066 2067 2068
1514 1 2067 2068 2069
1515 1 2068 2069 2070
1516 1 2069 2070 2071
1517 1 2070 2071 2072
1518 1 2071 2072 2073
1519 1 2072 2073 2074
1520 1 2073 2074 2075
1521 1 2088 2089 2090
1522 1 2021 2022 2023
1523 1 54 2086 2087
1524 1 2089 2090 2091
1525 1 55 2126 2127
1526 1 2126 2127 2128
1527 1 2127 2128 2129
1528 1 2128 2129 2130
1529 1 2129 2130 2131
1530 1 2130 2131 2132
1531 1 2131 2132 2133
1532 1 2132 2133 2134
1533 1 2133 2134 2135
1534 1 2147 2148 2149
1535 1 2146 2147 2148
1536 1 2034 2035 2036
1537 1 2035 2036 2037
1538 1 2036 2037 2038
1539 1 2037 2038 2039
1540 1 2038 2039 2040
1541 1 2039 2040 2041
1542 1 2040 2041 2042
1543 1 2041 2042 2043
1544 1 2042 2043 2044
1545 1 2074 2075 2076
1546 1 2075 2076 2077
1547 1 2076 2077 2078
1548 1 2077 2078 2079
1549 1 2078 2079 2080
1550 1 2079 2080 2081
1551 1 2080 2081 2082
1552 1 2081 2082 2083
1553 1 2082 2083 2084
1554 1 2134 2135 2136
1555 1 2135 2136 2137
1556 1 2136 2137 2138
1557 1 2137 2138 2139
1558 1 2138 2139 2140
1559 1 2139 2140 2141
1560 1 2140 2141 2142
1561 1 2141 2142 2143
1562 1 2142 2143 2144
1563 1 2186 56 2206
1564 1 2186 56 2226
1565 1 2186 56 2246
1566 1 2206 56 2226
1567 1 2206 56 2246
1568 1 2226 56 2246
1569 1 56 2186 2187
1570 1 2186 2187 2188
1571 1 2187 2188 2189
1572 1 2188 2189 2190
1573 1 2189 2190 2191
1574 1 2190 2191 2192
1575 1 2191 2192 2193
1576 1 2192 2193 2194
1577 1 2193 2194 2195
1578 1 2211 2212 2213
1579 1 2228 2229 2230
1580 1 2229 2230 2231
1581 1 2206 2207 2208
1582 1 2207 2208 2209
1583 1 56 2226 2227
1584 1 2194 2195 2196
1585 1 2195 2196 2197
1586 1 2196 2197 2198
1587 1 2197 2198 2199
1588 1 2198 2199 2200
1589 1 2199 2200 2201
1590 1 2200 2201 2202
1591 1 2201 2202 2203
1592 1 2202 2203 2204
1593 1 2203 2204 2205
1594 1 1525 57 2205
1595 1 1525 57 2266
1596 1 1525 57 2286
1597 1 2205 57 2266
1598 1 2205 57 2286
1599 1 2266 57 2286
1600 1 1522 1523 1524
1601 1 1523 1524 1525
1602 1 1524 1525 57
1603 1 2204 2205 57
1604 1 57 2266 2267
1605 1 2266 2267 2268
1606 1 2267 2268 2269
1607 1 2268 2269 2270
1608 1 2269 2270 2271
1609 1 2270 2271 2272
1610 1 2271 2272 2273
1611 1 57 2286 2287
1612 1 2286 2287 2288
1613 1 2287 2288 2289
1614 1 2288 2289 2290
1615 1 2289 2290 2291
1616 1 2043 2044 2045
1617 1 1565 58 2045
1618 1 1565 58 2306
1619 1 2045 58 2306
1620 1 1562 1563 1564
1621 1 1563 1564 1565
1622 1 1564 1565 58
1623 1 2044 2045 58
1624 1 58 2306 2307
1625 1 2306 2307 2308
1626 1 2307 2308 2309
1627 1 2308 2309 2310
1628 1 2309 2310 2311
1629 1 2310 2311 2312
1630 1 2311 2312 2313
1631 1 2312 2313 2314
1632 1 2313 2314 2315
1633 1 2314 2315 2316
1634 1 2315 2316 2317
1635 1 2316 2317 2318
1636 1 2317 2318 2319
1637 1 2318 2319 2320
1638 1 2319 2320 2321
1639 1 2083 2084 2085
1640 1 1605 59 2085
1641 1 1605 59 2325
1642 1 2085 59 2325
1643 1 1602 1603 1604
1644 1 1603 1604 1605
1645 1 1604 1605 59
1646 1 2084 2085 59
1647 1 2320 2321 2322
1648 1 2321 2322 2323
1649 1 2322 2323 2324
1650 1 2323 2324 2325
1651 1 2324 2325 59
1652 1 2143 2144 2145
1653 1 2145 60 2265
1654 1 2145 60 2326
1655 1 2145 60 2346
1656 1 2265 60 2326
1657 1 2265 60 2346
1658 1 2326 60 2346
1659 1 2144 2145 60
1660 1 2264 2265 60
1661 1 60 2326 2327
1662 1 2326 2327 2328
1663 1 2327 2328 2329
1664 1 2328 2329 2330
1665 1 2329 2330 2331
1666 1 2330 2331 2332
1667 1 2331 2332 2333
1668 1 60 2346 2347
1669 1 2346 2347 2348
1670 1 2347 2348 2349
1671 1 2348 2349 2350
1672 1 2349 2350 2351
1673 1 2254 2255 2256
1674 1 2255 2256 2257
1675 1 2256 2257 2258
1676 1 2257 2258 2259
1677 1 2258 2259 2260
1678 1 2259 2260 2261
1679 1 2260 2261 2262
1680 1 2261 2262 2263
1681 1 2262 2263 2264
1682 1 2263 2264 2265
1683 1 56 2206 2207
1684 1 2208 2209 2210
1685 1 2226 2227 2228
1686 1 2227 2228 2229
1687 1 2209 2210 2211
1688 1 2210 2211 2212
1689 1 56 2246 2247
1690 1 2246 2247 2248
1691 1 2247 2248 2249
1692 1 2248 2249 2250
1693 1 2249 2250 2251
1694 1 2250 2251 2252
1695 1 2251 2252 2253
1696 1 2252 2253 2254
1697 1 2253 2254 2255
1698 1 2212 2213 2214
1699 1 2220 2221 2222
1700 1 2221 2222 2223
1701 1 2213 2214 2215
1702 1 2219 2220 2221
1703 1 2272 2273 2274
1704 1 2273 2274 2275
1705 1 2274 2275 2276
1706 1 2275 2276 2277
1707 1 2276 2277 2278
1708 1 2277 2278 2279
1709 1 2278 2279 2280
1710 1 2279 2280 2281
1711 1 2280 2281 2282
1712 1 2281 2282 2283
1713 1 2332 2333 2334
1714 1 2333 2334 2335
1715 1 2334 2335 2336
1716 1 2335 2336 2337
1717 1 2336 2337 2338
1718 1 2337 2338 2339
1719 1 2338 2339 2340
1720 1 2339 2340 2341
1721 1 2340 2341 2342
1722 1 2341 2342 2343
1723 1 2214 2215 2216
1724 1 2217 2218 2219
1725 1 2218 2219 2220
1726 1 2215 2216 2217
1727 1 2216 2217 2218
1728 1 2222 2223 2224
1729 1 2224 2225 61
1730 1 2367 2368 2369
1731 1 2369 2370 2371
1732 1 2223 2224 2225
1733 1 61 2366 2367
1734 1 2366 2367 2368
1735 1 2368 2369 2370
1736 1 1665 62 2285
1737 1 1665 62 2406
1738 1 1665 62 2426
1739 1 2285 62 2406
1740 1 2285 62 2426
1741 1 2406 62 2426
1742 1 1662 1663 1664
1743 1 1663 1664 1665
1744 1 1664 1665 62
1745 1 2282 2283 2284
1746 1 2283 2284 2285
1747 1 2284 2285 62
1748 1 62 2406 2407
1749 1 2406 2407 2408
1750 1 2407 2408 2409
1751 1 2408 2409 2410
1752 1 2409 2410 2411
1753 1 62 2426 2427
1754 1 2426 2427 2428
1755 1 2427 2428 2429
1756 1 2428 2429 2430
1757 1 2429 2430 2431
1758 1 1705 63 2446
1759 1 1705 63 2466
1760 1 1705 63 2486
1761 1 2446 63 2466
1762 1 2446 63 2486
1763 1 2466 63 2486
1764 1 1702 1703 1704
1765 1 1703 1704 1705
1766 1 1704 1705 63
1767 1 63 2446 2447
1768 1 2446 2447 2448
1769 1 2447 2448 2449
1770 1 2448 2449 2450
1771 1 2449 2450 2451
1772 1 63 2466 2467
1773 1 2466 2467 2468
1774 1 2467 2468 2469
1775 1 2468 2469 2470
1776 1 2469 2470 2471
1777 1 63 2486 2487
1778 1 2486 2487 2488
1779 1 2487 2488 2489
1780 1 2488 2489 2490
1781 1 2489 2490 2491
1782 1 2450 2451 2452
1783 1 2451 2452 2453
1784 1 2452 2453 2454
1785 1 2453 2454 2455
1786 1 2454 2455 2456
1787 1 2455 2456 2457
1788 1 2456 2457 2458
1789 1 2457 2458 2459
1790 1 2458 2459 2460
1791 1 2459 2460 2461
1792 1 1765 64 2465
1793 1 1765 64 2506
1794 1 1765 64 2526
1795 1 2465 64 2506
1796 1 2465 64 2526
1797 1 2506 64 2526
1798 1 1762 1763 1764
1799 1 1763 1764 1765
1800 1 1764 1765 64
1801 1 2460 2461 2462
1802 1 2461 2462 2463
1803 1 2462 2463 2464
1804 1 2463 2464 2465
1805 1 2464 2465 64
1806 1 64 2506 2507
1807 1 2506 2507 2508
1808 1 2507 2508 2509
1809 1 2508 2509 2510
1810 1 2509 2510 2511
1811 1 64 2526 2527
1812 1 2526 2527 2528
1813 1 2527 2528 2529
1814 1 2528 2529 2530
1815 1 2529 2530 2531
1816 1 1805 65 2345
1817 1 1805 65 2405
1818 1 1805 65 2546
1819 1 2345 65 2405
1820 1 2345 65 2546
1821 1 2405 65 2546
1822 1 1802 1803 1804
1823 1 1803 1804 1805
1824 1 1804 1805 65
1825 1 2342 2343 2344
1826 1 2343 2344 2345
1827 1 2344 2345 65
1828 1 2404 2405 65
1829 1 65 2546 2547
1830 1 2546 2547 2548
1831 1 2547 2548 2549
1832 1 2548 2549 2550
1833 1 2549 2550 2551
1834 1 2394 2395 2396
1835 1 2395 2396 2397
1836 1 2396 2397 2398
1837 1 2397 2398 2399
1838 1 2398 2399 2400
1839 1 2399 2400 2401
1840 1 2400 2401 2402
1841 1 2401 2402 2403
1842 1 2402 2403 2404
1843 1 2403 2404 2405
1844 1 2225 61 2366
1845 1 2225 61 2386
1846 1 2366 61 2386
1847 1 61 2386 2387
1848 1 2386 2387 2388
1849 1 2387 2388 2389
1850 1 2388 2389 2390
1851 1 2389 2390 2391
1852 1 2390 2391 2392
1853 1 2391 2392 2393
1854 1 2392 2393 2394
1855 1 2393 2394 2395
1856 1 2410 2411 2412
1857 1 2411 2412 2413
1858 1 2412 2413 2414
1859 1 2413 2414 2415
1860 1 2414 2415 2416
1861 1 2415 2416 2417
1862 1 2416 2417 2418
1863 1 2417 2418 2419
1864 1 2418 2419 2420
1865 1 2419 2420 2421
1866 1 2470 2471 2472
1867 1 2471 2472 2473
1868 1 2472 2473 2474
1869 1 2473 2474 2475
1870 1 2474 2475 2476
1871 1 2475 2476 2477
1872 1 2476 2477 2478
1873 1 2477 2478 2479
1874 1 2478 2479 2480
1875 1 2479 2480 2481
1876 1 2510 2511 2512
1877 1 2511 2512 2513
1878 1 2512 2513 2514
1879 1 2513 2514 2515
1880 1 2514 2515 2516
1881 1 2515 2516 2517
1882 1 2516 2517 2518
1883 1 2517 2518 2519
1884 1 2518 2519 2520
1885 1 2519 2520 2521
1886 1 2550 2551 2552
1887 1 2551 2552 2553
1888 1 2552 2553 2554
1889 1 2553 2554 2555
1890 1 2554 2555 2556
1891 1 2555 2556 2557
1892 1 2556 2557 2558
1893 1 2557 2558 2559
1894 1 2558 2559 2560
1895 1 2559 2560 2561
1896 1 2425 67 2566
1897 1 2425 67 2586
1898 1 2566 67 2586
1899 1 2420 2421 2422
1900 1 2421 2422 2423
1901 1 2422 2423 2424
1902 1 2423 2424 2425
1903 1 2424 2425 67
1904 1 67 2566 2567
1905 1 2566 2567 2568
1906 1 2567 2568 2569
1907 1 67 2586 2587
1908 1 2586 2587 2588
1909 1 2587 2588 2589
1910 1 2588 2589 2590
1911 1 2589 2590 2591
1912 1 1885 68 2485
1913 1 1885 68 2606
1914 1 1885 68 2626
1915 1 2485 68 2606
1916 1 2485 68 2626
1917 1 2606 68 2626
1918 1 1882 1883 1884
1919 1 1883 1884 1885
1920 1 1884 1885 68
1921 1 2480 2481 2482
1922 1 2481 2482 2483
1923 1 2482 2483 2484
1924 1 2483 2484 2485
1925 1 2484 2485 68
1926 1 68 2606 2607
1927 1 2606 2607 2608
1928 1 2607 2608 2609
1929 1 2608 2609 2610
1930 1 2609 2610 2611
1931 1 68 2626 2627
1932 1 2626 2627 2628
1933 1 2627 2628 2629
1934 1 2628 2629 2630
1935 1 2629 2630 2631
1936 1 2610 2611 2612
1937 1 2611 2612 2613
1938 1 2612 2613 2614
1939 1 2613 2614 2615
1940 1 2614 2615 2616
1941 1 2615 2616 2617
1942 1 2616 2617 2618
1943 1 2617 2618 2619
1944 1 2618 2619 2620
1945 1 2619 2620 2621
1946 1 2525 69 2625
1947 1 2525 69 2646
1948 1 2525 69 2666
1949 1 2625 69 2646
1950 1 2625 69 2666
1951 1 2646 69 2666
1952 1 2520 2521 2522
1953 1 2521 2522 2523
1954 1 2522 2523 2524
1955 1 2523 2524 2525
1956 1 2524 2525 69
1957 1 2620 2621 2622
1958 1 2621 2622 2623
1959 1 2622 2623 2624
1960 1 2623 2624 2625
1961 1 2624 2625 69
1962 1 69 2646 2647
1963 1 2646 2647 2648
1964 1 2647 2648 2649
1965 1 69 2666 2667
1966 1 2666 2667 2668
1967 1 2667 2668 2669
1968 1 2648 2649 2650
1969 1 2649 2650 2651
1970 1 2650 2651 2652
1971 1 2651 2652 2653
1972 1 2652 2653 2654
1973 1 2653 2654 2655
1974 1 2654 2655 2656
1975 1 2655 2656 2657
1976 1 2656 2657 2658
1977 1 2657 2658 2659
1978 1 2565 70 2665
1979 1 2565 70 2686
1980 1 2665 70 2686
1981 1 2560 2561 2562
1982 1 2561 2562 2563
1983 1 2562 2563 2564
1984 1 2563 2564 2565
1985 1 2564 2565 70
1986 1 2658 2659 2660
1987 1 2659 2660 2661
1988 1 2660 2661 2662
1989 1 2661 2662 2663
1990 1 2662 2663 2664
1991 1 2663 2664 2665
1992 1 2664 2665 70
1993 1 70 2686 2687
1994 1 2686 2687 2688
1995 1 2687 2688 2689
1996 1 2688 2689 2690
1997 1 2689 2690 2691
1998 1 2568 2569 2570
1999 1 2569 2570 2571
2000 1 2570 2571 2572
2001 1 2571 2572 2573
2002 1 2572 2573 2574
2003 1 2573 2574 2575
2004 1 2574 2575 2576
2005 1 2575 2576 2577
2006 1 2576 2577 2578
2007 1 2577 2578 2579
2008 1 2668 2669 2670
2009 1 2669 2670 2671
2010 1 2670 2671 2672
2011 1 2671 2672 2673
2012 1 2672 2673 2674
2013 1 2673 2674 2675
2014 1 2674 2675 2676
2015 1 2675 2676 2677
2016 1 2676 2677 2678
2017 1 2677 2678 2679
2018 1 71 2706 2707
2019 1 2706 2707 2708
2020 1 2707 2708 2709
2021 1 2708 2709 2710
2022 1 2709 2710 2711
2023 1 2710 2711 2712
2024 1 2711 2712 2713
2025 1 2712 2713 2714
2026 1 2713 2714 2715
2027 1 2714 2715 2716
2028 1 2715 2716 2717
2029 1 2716 2717 2718
2030 1 2717 2718 2719
2031 1 2718 2719 2720
2032 1 2719 2720 2721
2033 1 2720 2721 2722
2034 1 2721 2722 2723
2035 1 2722 2723 2724
2036 1 2723 2724 2725
2037 1 1965 72 2585
2038 1 1965 72 2725
2039 1 1965 72 2746
2040 1 2585 72 2725
2041 1 2585 72 2746
2042 1 2725 72 2746
2043 1 1962 1963 1964
2044 1 1963 1964 1965
2045 1 1964 1965 72
2046 1 2578 2579 2580
2047 1 2579 2580 2581
2048 1 2580 2581 2582
2049 1 2581 2582 2583
2050 1 2582 2583 2584
2051 1 2583 2584 2585
2052 1 2584 2585 72
2053 1 2724 2725 72
2054 1 72 2746 2747
2055 1 2746 2747 2748
2056 1 2747 2748 2749
2057 1 2748 2749 2750
2058 1 2749 2750 2751
2059 1 2750 2751 2752
2060 1 2751 2752 2753
2061 1 2752 2753 2754
2062 1 2753 2754 2755
2063 1 2754 2755 2756
2064 1 2755 2756 2757
2065 1 2756 2757 2758
2066 1 2757 2758 2759
2067 1 2758 2759 2760
2068 1 2759 2760 2761
2069 1 2760 2761 2762
2070 1 2761 2762 2763
2071 1 2762 2763 2764
2072 1 2763 2764 2765
2073 1 2764 2765 73
2074 1 2125 74 2685
2075 1 2125 74 2766
2076 1 2125 74 2786
2077 1 2685 74 2766
2078 1 2685 74 2786
2079 1 2766 74 2786
2080 1 2124 2125 74
2081 1 2678 2679 2680
2082 1 2679 2680 2681
2083 1 2680 2681 2682
2084 1 2681 2682 2683
2085 1 2682 2683 2684
2086 1 2683 2684 2685
2087 1 2684 2685 74
2088 1 74 2766 2767
2089 1 2766 2767 2768
2090 1 2767 2768 2769
2091 1 74 2786 2787
2092 1 2786 2787 2788
2093 1 2787 2788 2789
2094 1 2788 2789 2790
2095 1 2789 2790 2791
2096 1 2123 2124 2125
2097 1 2768 2769 2770
2098 1 2769 2770 2771
2099 1 2770 2771 2772
2100 1 2771 2772 2773
2101 1 2772 2773 2774
2102 1 2773 2774 2775
2103 1 2774 2775 2776
2104 1 2775 2776 2777
2105 1 2776 2777 2778
2106 1 2777 2778 2779
2107 1 2005 75 2185
2108 1 2005 75 2785
2109 1 2005 75 2806
2110 1 2185 75 2785
2111 1 2185 75 2806
2112 1 2785 75 2806
2113 1 2002 2003 2004
2114 1 2003 2004 2005
2115 1 2004 2005 75
2116 1 2184 2185 75
2117 1 2778 2779 2780
2118 1 2779 2780 2781
2119 1 2780 2781 2782
2120 1 2781 2782 2783
2121 1 2782 2783 2784
2122 1 2783 2784 2785
2123 1 2784 2785 75
2124 1 75 2806 2807
2125 1 2806 2807 2808
2126 1 2807 2808 2809
2127 1 2808 2809 2810
2128 1 2809 2810 2811
2129 1 1942 1943 1944
2130 1 1944 1945 71
2131 1 71 2726 2727
2132 1 2726 2727 2728
2133 1 1945 71 2706
2134 1 1945 71 2726
2135 1 2706 71 2726
2136 1 1943 1944 1945
2137 1 2727 2728 2729
2138 1 2728 2729 2730
2139 1 2729 2730 2731
2140 1 2114 2115 2116
2141 1 2115 2116 2117
2142 1 2116 2117 2118
2143 1 2117 2118 2119
2144 1 2118 2119 2120
2145 1 2119 2120 2121
2146 1 2120 2121 2122
2147 1 2121 2122 2123
2148 1 2122 2123 2124
2149 1 2174 2175 2176
2150 1 2175 2176 2177
2151 1 2176 2177 2178
2152 1 2177 2178 2179
2153 1 2178 2179 2180
2154 1 2179 2180 2181
2155 1 2180 2181 2182
2156 1 2181 2182 2183
2157 1 2182 2183 2184
2158 1 2183 2184 2185
2159 1 1363 1364 1365
2160 1 53 2006 2007
2161 1 2006 2007 2008
2162 1 2009 2010 2011
2163 1 2046 2047 2048
2164 1 2047 2048 2049
2165 1 2048 2049 2050
2166 1 2049 2050 2051
2167 1 1365 53 2006
2168 1 1365 53 2026
2169 1 1365 53 2046
2170 1 2006 53 2026
2171 1 2006 53 2046
2172 1 2026 53 2046
2173 1 1362 1363 1364
2174 1 1364 1365 53
2175 1 2007 2008 2009
2176 1 2008 2009 2010
2177 1 53 2046 2047
2178 1 2016 2017 2018
2179 1 2017 2018 2019
2180 1 2010 2011 2012
2181 1 2018 2019 2020
2182 1 2022 2023 2024
2183 1 2086 2087 2088
2184 1 2087 2088 2089
2185 1 2023 2024 2025
2186 1 54 2106 2107
2187 1 2106 2107 2108
2188 1 2107 2108 2109
2189 1 2108 2109 2110
2190 1 2109 2110 2111
2191 1 2110 2111 2112
2192 1 2111 2112 2113
2193 1 2112 2113 2114
2194 1 2113 2114 2115
2195 1 1444 1445 55
2196 1 55 2146 2147
2197 1 2149 2150 2151
2198 1 1445 55 2126
2199 1 1445 55 2146
2200 1 1445 55 2166
2201 1 2126 55 2146
2202 1 2126 55 2166
2203 1 2146 55 2166
2204 1 1442 1443 1444
2205 1 1443 1444 1445
2206 1 2148 2149 2150
2207 1 55 2166 2167
2208 1 2166 2167 2168
2209 1 2167 2168 2169
2210 1 2168 2169 2170
2211 1 2169 2170 2171
2212 1 2170 2171 2172
2213 1 2171 2172 2173
2214 1 2172 2173 2174
2215 1 2173 2174 2175
2216 1 1224 1225 51
2217 1 2051 2052 2053
2218 1 2059 2060 2061
2219 1 2052 2053 2054
2220 1 2053 2054 2055
2221 1 2054 2055 2056
2222 1 2097 2098 2099
2223 1 2098 2099 2100
2224 1 2090 2091 2092
2225 1 2095 2096 2097
2226 1 2096 2097 2098
2227 1 2151 2152 2153
2228 1 2159 2160 2161
2229 1 2152 2153 2154
2230 1 2153 2154 2155
2231 1 2154 2155 2156
2232 1 2230 2231 2232
2233 1 2236 2237 2238
2234 1 2235 2236 2237
2235 1 2237 2238 2239
2236 1 2238 2239 2240
2237 1 2290 2291 2292
2238 1 2291 2292 2293
2239 1 2292 2293 2294
2240 1 2293 2294 2295
2241 1 2294 2295 2296
2242 1 2295 2296 2297
2243 1 2296 2297 2298
2244 1 2297 2298 2299
2245 1 2298 2299 2300
2246 1 2299 2300 2301
2247 1 2350 2351 2352
2248 1 2351 2352 2353
2249 1 2352 2353 2354
2250 1 2353 2354 2355
2251 1 2354 2355 2356
2252 1 2355 2356 2357
2253 1 2356 2357 2358
2254 1 2357 2358 2359
2255 1 2358 2359 2360
2256 1 2359 2360 2361
2257 1 2231 2232 2233
2258 1 2232 2233 2234
2259 1 2234 2235 2236
2260 1 2239 2240 2241
2261 1 2233 2234 2235
2262 1 2370 2371 2372
2263 1 2379 2380 2381
2264 1 2430 2431 2432
2265 1 2431 2432 2433
2266 1 2432 2433 2434
2267 1 2433 2434 2435
2268 1 2434 2435 2436
2269 1 2435 2436 2437
2270 1 2436 2437 2438
2271 1 2437 2438 2439
2272 1 2438 2439 2440
2273 1 2439 2440 2441
2274 1 2490 2491 2492
2275 1 2491 2492 2493
2276 1 2492 2493 2494
2277 1 2493 2494 2495
2278 1 2494 2495 2496
2279 1 2495 2496 2497
2280 1 2496 2497 2498
2281 1 2497 2498 2499
2282 1 2498 2499 2500
2283 1 2499 2500 2501
2284 1 2530 2531 2532
2285 1 2531 2532 2533
2286 1 2532 2533 2534
2287 1 2533 2534 2535
2288 1 2534 2535 2536
2289 1 2535 2536 2537
2290 1 2536 2537 2538
2291 1 2537 2538 2539
2292 1 2538 2539 2540
2293 1 2539 2540 2541
2294 1 2371 2372 2373
2295 1 2373 2374 2375
2296 1 2375 2376 2377
2297 1 2376 2377 2378
2298 1 2378 2379 2380
2299 1 2372 2373 2374
2300 1 2374 2375 2376
2301 1 2377 2378 2379
2302 1 2590 2591 2592
2303 1 2591 2592 2593
2304 1 2592 2593 2594
2305 1 2593 2594 2595
2306 1 2594 2595 2596
2307 1 2595 2596 2597
2308 1 2596 2597 2598
2309 1 2597 2598 2599
2310 1 2598 2599 2600
2311 1 2599 2600 2601
2312 1 2630 2631 2632
2313 1 2631 2632 2633
2314 1 2632 2633 2634
2315 1 2633 2634 2635
2316 1 2634 2635 2636
2317 1 2635 2636 2637
2318 1 2636 2637 2638
2319 1 2637 2638 2639
2320 1 2638 2639 2640
2321 1 2639 2640 2641
2322 1 2690 2691 2692
2323 1 2691 2692 2693
2324 1 2692 2693 2694
2325 1 2693 2694 2695
2326 1 2694 2695 2696
2327 1 2695 2696 2697
2328 1 2696 2697 2698
2329 1 2697 2698 2699
2330 1 2698 2699 2700
2331 1 2699 2700 2701
2332 1 2731 2732 2733
2333 1 2732 2733 2734
2334 1 2733 2734 2735
2335 1 2739 2740 2741
2336 1 2734 2735 2736
2337 1 2790 2791 2792
2338 1 2791 2792 2793
2339 1 2792 2793 2794
2340 1 2793 2794 2795
2341 1 2794 2795 2796
2342 1 2795 2796 2797
2343 1 2796 2797 2798
2344 1 2797 2798 2799
2345 1 2798 2799 2800
2346 1 2799 2800 2801
2347 1 2810 2811 2812
2348 1 2811 2812 2813
2349 1 2812 2813 2814
2350 1 2813 2814 2815
2351 1 2814 2815 2816
2352 1 2815 2816 2817
2353 1 2816 2817 2818
2354 1 2817 2818 2819
2355 1 2818 2819 2820
2356 1 2819 2820 2821
2357 1 2735 2736 2737
2358 1 2738 2739 2740
2359 1 2730 2731 2732
2360 1 2736 2737 2738
2361 1 2737 2738 2739
2362 1 2056 2057 2058
2363 1 2057 2058 2059
2364 1 2058 2059 2060
2365 1 2050 2051 2052
2366 1 2055 2056 2057
2367 1 2091 2092 2093
2368 1 2092 2093 2094
2369 1 2093 2094 2095
2370 1 2094 2095 2096
2371 1 2099 2100 2101
2372 1 2155 2156 2157
2373 1 2156 2157 2158
2374 1 2150 2151 2152
2375 1 2157 2158 2159
2376 1 2158 2159 2160
2377 1 2826 2827 2828
2378 1 2827 2828 2829
2379 1 2833 2834 2835
2380 1 2831 2832 2833
2381 1 2832 2833 2834
2382 1 2839 2840 2841
2383 1 2841 2842 2843
2384 1 2842 2843 2844
2385 1 2840 2841 2842
2386 1 2844 2845 77
2387 1 77 2846 2847
2388 1 2843 2844 2845
2389 1 2846 2847 2848
2390 1 2847 2848 2849
2391 1 2065 78 2886
2392 1 2065 78 2906
2393 1 2065 78 2926
2394 1 2886 78 2906
2395 1 2886 78 2926
2396 1 2906 78 2926
2397 1 2060 2061 2062
2398 1 2063 2064 2065
2399 1 2064 2065 78
2400 1 78 2886 2887
2401 1 2887 2888 2889
2402 1 2907 2908 2909
2403 1 2061 2062 2063
2404 1 2062 2063 2064
2405 1 2886 2887 2888
2406 1 2888 2889 2890
2407 1 2889 2890 2891
2408 1 78 2906 2907
2409 1 2906 2907 2908
2410 1 2890 2891 2892
2411 1 2897 2898 2899
2412 1 2895 2896 2897
2413 1 2896 2897 2898
2414 1 2898 2899 2900
2415 1 79 2946 2947
2416 1 2946 2947 2948
2417 1 2947 2948 2949
2418 1 2948 2949 2950
2419 1 2949 2950 2951
2420 1 2950 2951 2952
2421 1 2951 2952 2953
2422 1 2952 2953 2954
2423 1 2953 2954 2955
2424 1 2165 80 2986
2425 1 2165 80 3006
2426 1 2986 80 3006
2427 1 2160 2161 2162
2428 1 2161 2162 2163
2429 1 2162 2163 2164
2430 1 2163 2164 2165
2431 1 2164 2165 80
2432 1 2987 2988 2989
2433 1 80 2986 2987
2434 1 2986 2987 2988
2435 1 2954 2955 2956
2436 1 2955 2956 2957
2437 1 2956 2957 2958
2438 1 2957 2958 2959
2439 1 2958 2959 2960
2440 1 2959 2960 2961
2441 1 2960 2961 2962
2442 1 2961 2962 2963
2443 1 2962 2963 2964
2444 1 81 3026 3027
2445 1 3026 3027 3028
2446 1 3027 3028 3029
2447 1 3028 3029 3030
2448 1 3029 3030 3031
2449 1 3030 3031 3032
2450 1 3031 3032 3033
2451 1 3032 3033 3034
2452 1 3033 3034 3035
2453 1 3034 3035 3036
2454 1 3035 3036 3037
2455 1 3036 3037 3038
2456 1 3037 3038 3039
2457 1 3038 3039 3040
2458 1 3039 3040 3041
2459 1 3040 3041 3042
2460 1 3041 3042 3043
2461 1 3042 3043 3044
2462 1 3043 3044 3045
2463 1 2305 82 3045
2464 1 2305 82 3066
2465 1 2305 82 3086
2466 1 3045 82 3066
2467 1 3045 82 3086
2468 1 3066 82 3086
2469 1 2300 2301 2302
2470 1 2301 2302 2303
2471 1 2302 2303 2304
2472 1 2303 2304 2305
2473 1 2304 2305 82
2474 1 3044 3045 82
2475 1 82 3066 3067
2476 1 3066 3067 3068
2477 1 3067 3068 3069
2478 1 3068 3069 3070
2479 1 3069 3070 3071
2480 1 3070 3071 3072
2481 1 3071 3072 3073
2482 1 82 3086 3087
2483 1 3086 3087 3088
2484 1 3087 3088 3089
2485 1 3072 3073 3074
2486 1 3073 3074 3075
2487 1 3074 3075 3076
2488 1 3075 3076 3077
2489 1 3076 3077 3078
2490 1 3077 3078 3079
2491 1 3078 3079 3080
2492 1 3079 3080 3081
2493 1 3080 3081 3082
2494 1 3081 3082 3083
2495 1 3085 83 3106
2496 1 3085 83 3126
2497 1 3085 83 3146
2498 1 3106 83 3126
2499 1 3106 83 3146
2500 1 3126 83 3146
2501 1 3082 3083 3084
2502 1 3083 3084 3085
2503 1 3084 3085 83
2504 1 83 3106 3107
2505 1 3106 3107 3108
2506 1 3107 3108 3109
2507 1 3108 3109 3110
2508 1 3109 3110 3111
2509 1 83 3126 3127
2510 1 3126 3127 3128
2511 1 3127 3128 3129
2512 1 3128 3129 3130
2513 1 3129 3130 3131
2514 1 3130 3131 3132
2515 1 3131 3132 3133
2516 1 83 3146 3147
2517 1 3146 3147 3148
2518 1 3147 3148 3149
2519 1 3110 3111 3112
2520 1 3111 3112 3113
2521 1 3112 3113 3114
2522 1 3113 3114 3115
2523 1 3114 3115 3116
2524 1 3115 3116 3117
2525 1 3116 3117 3118
2526 1 3117 3118 3119
2527 1 3118 3119 3120
2528 1 3119 3120 3121
2529 1 2963 2964 2965
2530 1 2965 84 3125
2531 1 2965 84 3166
2532 1 3125 84 3166
2533 1 2964 2965 84
2534 1 3120 3121 3122
2535 1 3121 3122 3123
2536 1 3122 3123 3124
2537 1 3123 3124 3125
2538 1 3124 3125 84
2539 1 84 3166 3167
2540 1 3166 3167 3168
2541 1 3167 3168 3169
2542 1 3168 3169 3170
2543 1 3169 3170 3171
2544 1 3170 3171 3172
2545 1 3171 3172 3173
2546 1 2365 85 3186
2547 1 2365 85 3206
2548 1 3186 85 3206
2549 1 2360 2361 2362
2550 1 2361 2362 2363
2551 1 2362 2363 2364
2552 1 2363 2364 2365
2553 1 2364 2365 85
2554 1 85 3186 3187
2555 1 3186 3187 3188
2556 1 3187 3188 3189
2557 1 3188 3189 3190
2558 1 3189 3190 3191
2559 1 3190 3191 3192
2560 1 3191 3192 3193
2561 1 85 3206 3207
2562 1 3206 3207 3208
2563 1 3207 3208 3209
2564 1 2240 2241 2242
2565 1 2241 2242 2243
2566 1 81 3046 3047
2567 1 2245 81 3026
2568 1 2245 81 3046
2569 1 3026 81 3046
2570 1 2242 2243 2244
2571 1 2243 2244 2245
2572 1 2244 2245 81
2573 1 3046 3047 3048
2574 1 3047 3048 3049
2575 1 3132 3133 3134
2576 1 3133 3134 3135
2577 1 3134 3135 3136
2578 1 3135 3136 3137
2579 1 3136 3137 3138
2580 1 3137 3138 3139
2581 1 3138 3139 3140
2582 1 3139 3140 3141
2583 1 3140 3141 3142
2584 1 3141 3142 3143
2585 1 3172 3173 3174
2586 1 3173 3174 3175
2587 1 3174 3175 3176
2588 1 3175 3176 3177
2589 1 3176 3177 3178
2590 1 3177 3178 3179
2591 1 3178 3179 3180
2592 1 3179 3180 3181
2593 1 3180 3181 3182
2594 1 3181 3182 3183
2595 1 3192 3193 3194
2596 1 3193 3194 3195
2597 1 3194 3195 3196
2598 1 3195 3196 3197
2599 1 3196 3197 3198
2600 1 3197 3198 3199
2601 1 3198 3199 3200
2602 1 3199 3200 3201
2603 1 3200 3201 3202
2604 1 3201 3202 3203
2605 1 2380 2381 2382
2606 1 2384 2385 86
2607 1 86 3226 3227
2608 1 3226 3227 3228
2609 1 3227 3228 3229
2610 1 3228 3229 3230
2611 1 86 3246 3247
2612 1 3246 3247 3248
2613 1 2381 2382 2383
2614 1 2382 2383 2384
2615 1 2383 2384 2385
2616 1 3229 3230 3231
2617 1 3247 3248 3249
2618 1 2445 87 3286
2619 1 2445 87 3306
2620 1 3286 87 3306
2621 1 2440 2441 2442
2622 1 2441 2442 2443
2623 1 2442 2443 2444
2624 1 2443 2444 2445
2625 1 2444 2445 87
2626 1 87 3286 3287
2627 1 3286 3287 3288
2628 1 3287 3288 3289
2629 1 3288 3289 3290
2630 1 3289 3290 3291
2631 1 3290 3291 3292
2632 1 3291 3292 3293
2633 1 87 3306 3307
2634 1 3306 3307 3308
2635 1 3307 3308 3309
2636 1 3292 3293 3294
2637 1 3293 3294 3295
2638 1 3294 3295 3296
2639 1 3295 3296 3297
2640 1 3296 3297 3298
2641 1 3297 3298 3299
2642 1 3298 3299 3300
2643 1 3299 3300 3301
2644 1 3300 3301 3302
2645 1 3301 3302 3303
2646 1 2505 88 3145
2647 1 2505 88 3305
2648 1 2505 88 3326
2649 1 3145 88 3305
2650 1 3145 88 3326
2651 1 3305 88 3326
2652 1 2500 2501 2502
2653 1 2501 2502 2503
2654 1 2502 2503 2504
2655 1 2503 2504 2505
2656 1 2504 2505 88
2657 1 3142 3143 3144
2658 1 3143 3144 3145
2659 1 3144 3145 88
2660 1 3302 3303 3304
2661 1 3303 3304 3305
2662 1 3304 3305 88
2663 1 88 3326 3327
2664 1 3326 3327 3328
2665 1 3327 3328 3329
2666 1 3328 3329 3330
2667 1 3329 3330 3331
2668 1 2545 89 3185
2669 1 2545 89 3346
2670 1 2545 89 3366
2671 1 3185 89 3346
2672 1 3185 89 3366
2673 1 3346 89 3366
2674 1 2540 2541 2542
2675 1 2541 2542 2543
2676 1 2542 2543 2544
2677 1 2543 2544 2545
2678 1 2544 2545 89
2679 1 3182 3183 3184
2680 1 3183 3184 3185
2681 1 3184 3185 89
2682 1 89 3346 3347
2683 1 3346 3347 3348
2684 1 3347 3348 3349
2685 1 89 3366 3367
2686 1 3366 3367 3368
2687 1 3367 3368 3369
2688 1 3368 3369 3370
2689 1 3369 3370 3371
2690 1 3348 3349 3350
2691 1 3349 3350 3351
2692 1 3350 3351 3352
2693 1 3351 3352 3353
2694 1 3352 3353 3354
2695 1 3353 3354 3355
2696 1 3354 3355 3356
2697 1 3355 3356 3357
2698 1 3356 3357 3358
2699 1 3357 3358 3359
2700 1 3205 90 3285
2701 1 3205 90 3365
2702 1 3205 90 3386
2703 1 3285 90 3365
2704 1 3285 90 3386
2705 1 3365 90 3386
2706 1 3202 3203 3204
2707 1 3203 3204 3205
2708 1 3204 3205 90
2709 1 3284 3285 90
2710 1 3358 3359 3360
2711 1 3359 3360 3361
2712 1 3360 3361 3362
2713 1 3361 3362 3363
2714 1 3362 3363 3364
2715 1 3363 3364 3365
2716 1 3364 3365 90
2717 1 90 3386 3387
2718 1 3386 3387 3388
2719 1 3387 3388 3389
2720 1 3283 3284 3285
2721 1 3274 3275 3276
2722 1 3275 3276 3277
2723 1 3276 3277 3278
2724 1 3277 3278 3279
2725 1 3278 3279 3280
2726 1 3279 3280 3281
2727 1 3280 3281 3282
2728 1 3281 3282 3283
2729 1 3282 3283 3284
2730 1 2385 86 3226
2731 1 2385 86 3246
2732 1 2385 86 3266
2733 1 3226 86 3246
2734 1 3226 86 3266
2735 1 3246 86 3266
2736 1 86 3266 3267
2737 1 3266 3267 3268
2738 1 3267 3268 3269
2739 1 3268 3269 3270
2740 1 3269 3270 3271
2741 1 3270 3271 3272
2742 1 3271 3272 3273
2743 1 3272 3273 3274
2744 1 3273 3274 3275
2745 1 3236 3237 3238
2746 1 3238 3239 3240
2747 1 3230 3231 3232
2748 1 3237 3238 3239
2749 1 3330 3331 3332
2750 1 3331 3332 3333
2751 1 3332 3333 3334
2752 1 3333 3334 3335
2753 1 3334 3335 3336
2754 1 3335 3336 3337
2755 1 3336 3337 3338
2756 1 3337 3338 3339
2757 1 3338 3339 3340
2758 1 3339 3340 3341
2759 1 3370 3371 3372
2760 1 3371 3372 3373
2761 1 3372 3373 3374
2762 1 3373 3374 3375
2763 1 3374 3375 3376
2764 1 3375 3376 3377
2765 1 3376 3377 3378
2766 1 3377 3378 3379
2767 1 3378 3379 3380
2768 1 3379 3380 3381
2769 1 3231 3232 3233
2770 1 3232 3233 3234
2771 1 3234 3235 3236
2772 1 3239 3240 3241
2773 1 3233 3234 3235
2774 1 3235 3236 3237
2775 1 3245 91 3406
2776 1 3245 91 3426
2777 1 3406 91 3426
2778 1 3243 3244 3245
2779 1 91 3406 3407
2780 1 3406 3407 3408
2781 1 3407 3408 3409
2782 1 3408 3409 3410
2783 1 3409 3410 3411
2784 1 3410 3411 3412
2785 1 3411 3412 3413
2786 1 3412 3413 3414
2787 1 3413 3414 3415
2788 1 3242 3243 3244
2789 1 3414 3415 3416
2790 1 3415 3416 3417
2791 1 3416 3417 3418
2792 1 3417 3418 3419
2793 1 3418 3419 3420
2794 1 3419 3420 3421
2795 1 3420 3421 3422
2796 1 3421 3422 3423
2797 1 3422 3423 3424
2798 1 3423 3424 3425
2799 1 2605 92 3425
2800 1 2605 92 3446
2801 1 2605 92 3466
2802 1 3425 92 3446
2803 1 3425 92 3466
2804 1 3446 92 3466
2805 1 2600 2601 2602
2806 1 2601 2602 2603
2807 1 2602 2603 2604
2808 1 2603 2604 2605
2809 1 2604 2605 92
2810 1 3424 3425 92
2811 1 92 3446 3447
2812 1 3446 3447 3448
2813 1 3447 3448 3449
2814 1 92 3466 3467
2815 1 3466 3467 3468
2816 1 3467 3468 3469
2817 1 2645 93 3345
2818 1 2645 93 3486
2819 1 3345 93 3486
2820 1 2640 2641 2642
2821 1 2641 2642 2643
2822 1 2642 2643 2644
2823 1 2643 2644 2645
2824 1 2644 2645 93
2825 1 3340 3341 3342
2826 1 3341 3342 3343
2827 1 3342 3343 3344
2828 1 3343 3344 3345
2829 1 3344 3345 93
2830 1 93 3486 3487
2831 1 3486 3487 3488
2832 1 3487 3488 3489
2833 1 3385 94 3506
2834 1 3385 94 3526
2835 1 3385 94 3546
2836 1 3506 94 3526
2837 1 3506 94 3546
2838 1 3526 94 3546
2839 1 3380 3381 3382
2840 1 3381 3382 3383
2841 1 3382 3383 3384
2842 1 3383 3384 3385
2843 1 3384 3385 94
2844 1 94 3506 3507
2845 1 3506 3507 3508
2846 1 3507 3508 3509
2847 1 94 3526 3527
2848 1 3526 3527 3528
2849 1 3527 3528 3529
2850 1 94 3546 3547
2851 1 3546 3547 3548
2852 1 3547 3548 3549
2853 1 3508 3509 3510
2854 1 3509 3510 3511
2855 1 3510 3511 3512
2856 1 3511 3512 3513
2857 1 3512 3513 3514
2858 1 3513 3514 3515
2859 1 3514 3515 3516
2860 1 3515 3516 3517
2861 1 3516 3517 3518
2862 1 3517 3518 3519
2863 1 2705 95 3445
2864 1 2705 95 3525
2865 1 2705 95 3566
2866 1 3445 95 3525
2867 1 3445 95 3566
2868 1 3525 95 3566
2869 1 2700 2701 2702
2870 1 2701 2702 2703
2871 1 2702 2703 2704
2872 1 2703 2704 2705
2873 1 2704 2705 95
2874 1 3444 3445 95
2875 1 3518 3519 3520
2876 1 3519 3520 3521
2877 1 3520 3521 3522
2878 1 3521 3522 3523
2879 1 3522 3523 3524
2880 1 3523 3524 3525
2881 1 3524 3525 95
2882 1 95 3566 3567
2883 1 3566 3567 3568
2884 1 3567 3568 3569
2885 1 3434 3435 3436
2886 1 3435 3436 3437
2887 1 3436 3437 3438
2888 1 3437 3438 3439
2889 1 3438 3439 3440
2890 1 3439 3440 3441
2891 1 3440 3441 3442
2892 1 3441 3442 3443
2893 1 3442 3443 3444
2894 1 3443 3444 3445
2895 1 3244 3245 91
2896 1 3240 3241 3242
2897 1 3241 3242 3243
2898 1 91 3426 3427
2899 1 3426 3427 3428
2900 1 3427 3428 3429
2901 1 3428 3429 3430
2902 1 3429 3430 3431
2903 1 3430 3431 3432
2904 1 3431 3432 3433
2905 1 3432 3433 3434
2906 1 3433 3434 3435
2907 1 3448 3449 3450
2908 1 3449 3450 3451
2909 1 3450 3451 3452
2910 1 3451 3452 3453
2911 1 3452 3453 3454
2912 1 3453 3454 3455
2913 1 3454 3455 3456
2914 1 3455 3456 3457
2915 1 3456 3457 3458
2916 1 3457 3458 3459
2917 1 3528 3529 3530
2918 1 3529 3530 3531
2919 1 3530 3531 3532
2920 1 3531 3532 3533
2921 1 3532 3533 3534
2922 1 3533 3534 3535
2923 1 3534 3535 3536
2924 1 3535 3536 3537
2925 1 3536 3537 3538
2926 1 3537 3538 3539
2927 1 2745 96 3586
2928 1 2745 96 3606
2929 1 2745 96 3626
2930 1 3586 96 3606
2931 1 3586 96 3626
2932 1 3606 96 3626
2933 1 2740 2741 2742
2934 1 96 3586 3587
2935 1 3586 3587 3588
2936 1 3587 3588 3589
2937 1 3588 3589 3590
2938 1 3589 3590 3591
2939 1 3590 3591 3592
2940 1 3591 3592 3593
2941 1 3592 3593 3594
2942 1 3593 3594 3595
2943 1 2741 2742 2743
2944 1 2744 2745 96
2945 1 96 3606 3607
2946 1 3594 3595 3596
2947 1 3595 3596 3597
2948 1 3596 3597 3598
2949 1 3597 3598 3599
2950 1 3598 3599 3600
2951 1 3599 3600 3601
2952 1 3600 3601 3602
2953 1 3601 3602 3603
2954 1 3602 3603 3604
2955 1 3603 3604 3605
2956 1 2885 97 3465
2957 1 2885 97 3605
2958 1 2885 97 3646
2959 1 3465 97 3605
2960 1 3465 97 3646
2961 1 3605 97 3646
2962 1 2884 2885 97
2963 1 3458 3459 3460
2964 1 3459 3460 3461
2965 1 3460 3461 3462
2966 1 3461 3462 3463
2967 1 3462 3463 3464
2968 1 3463 3464 3465
2969 1 3464 3465 97
2970 1 3604 3605 97
2971 1 97 3646 3647
2972 1 3646 3647 3648
2973 1 3647 3648 3649
2974 1 2883 2884 2885
2975 1 2945 98 3666
2976 1 2945 98 3686
2977 1 3666 98 3686
2978 1 2944 2945 98
2979 1 98 3666 3667
2980 1 3666 3667 3668
2981 1 3667 3668 3669
2982 1 3668 3669 3670
2983 1 3669 3670 3671
2984 1 98 3686 3687
2985 1 3686 3687 3688
2986 1 3687 3688 3689
2987 1 2943 2944 2945
2988 1 3670 3671 3672
2989 1 3671 3672 3673
2990 1 3672 3673 3674
2991 1 3673 3674 3675
2992 1 3674 3675 3676
2993 1 3675 3676 3677
2994 1 3676 3677 3678
2995 1 3677 3678 3679
2996 1 3678 3679 3680
2997 1 3679 3680 3681
2998 1 2805 99 3545
2999 1 2805 99 3685
3000 1 2805 99 3706
3001 1 3545 99 3685
3002 1 3545 99 3706
3003 1 3685 99 3706
3004 1 2800 2801 2802
3005 1 2801 2802 2803
3006 1 2802 2803 2804
3007 1 2803 2804 2805
3008 1 2804 2805 99
3009 1 3538 3539 3540
3010 1 3539 3540 3541
3011 1 3540 3541 3542
3012 1 3541 3542 3543
3013 1 3542 3543 3544
3014 1 3543 3544 3545
3015 1 3544 3545 99
3016 1 3680 3681 3682
3017 1 3681 3682 3683
3018 1 3682 3683 3684
3019 1 3683 3684 3685
3020 1 3684 3685 99
3021 1 99 3706 3707
3022 1 3706 3707 3708
3023 1 3707 3708 3709
3024 1 2825 100 3025
3025 1 2825 100 3645
3026 1 3025 100 3645
3027 1 2820 2821 2822
3028 1 2821 2822 2823
3029 1 2822 2823 2824
3030 1 2823 2824 2825
3031 1 2824 2825 100
3032 1 3024 3025 100
3033 1 3644 3645 100
3034 1 3643 3644 3645
3035 1 3023 3024 3025
3036 1 3634 3635 3636
3037 1 3635 3636 3637
3038 1 3636 3637 3638
3039 1 3637 3638 3639
3040 1 3638 3639 3640
3041 1 3639 3640 3641
3042 1 3640 3641 3642
3043 1 3641 3642 3643
3044 1 3642 3643 3644
3045 1 3606 3607 3608
3046 1 3607 3608 3609
3047 1 2742 2743 2744
3048 1 2743 2744 2745
3049 1 96 3626 3627
3050 1 3626 3627 3628
3051 1 3627 3628 3629
3052 1 3628 3629 3630
3053 1 3629 3630 3631
3054 1 3630 3631 3632
3055 1 3631 3632 3633
3056 1 3632 3633 3634
3057 1 3633 3634 3635
3058 1 2874 2875 2876
3059 1 2875 2876 2877
3060 1 2876 2877 2878
3061 1 2877 2878 2879
3062 1 2878 2879 2880
3063 1 2879 2880 2881
3064 1 2880 2881 2882
3065 1 2881 2882 2883
3066 1 2882 2883 2884
3067 1 2934 2935 2936
3068 1 2935 2936 2937
3069 1 2936 2937 2938
3070 1 2937 2938 2939
3071 1 2938 2939 2940
3072 1 2939 2940 2941
3073 1 2940 2941 2942
3074 1 2941 2942 2943
3075 1 2942 2943 2944
3076 1 3014 3015 3016
3077 1 3015 3016 3017
3078 1 3016 3017 3018
3079 1 3017 3018 3019
3080 1 3018 3019 3020
3081 1 3019 3020 3021
3082 1 3020 3021 3022
3083 1 3021 3022 3023
3084 1 3022 3023 3024
3085 1 76 2826 2827
3086 1 2828 2829 2830
3087 1 2829 2830 2831
3088 1 2830 2831 2832
3089 1 2834 2835 2836
3090 1 2838 2839 2840
3091 1 2835 2836 2837
3092 1 2836 2837 2838
3093 1 2837 2838 2839
3094 1 2845 77 2846
3095 1 2845 77 2866
3096 1 2846 77 2866
3097 1 77 2866 2867
3098 1 2866 2867 2868
3099 1 2867 2868 2869
3100 1 2868 2869 2870
3101 1 2869 2870 2871
3102 1 2870 2871 2872
3103 1 2871 2872 2873
3104 1 2872 2873 2874
3105 1 2873 2874 2875
3106 1 78 2926 2927
3107 1 2926 2927 2928
3108 1 2927 2928 2929
3109 1 2928 2929 2930
3110 1 2929 2930 2931
3111 1 2930 2931 2932
3112 1 2931 2932 2933
3113 1 2932 2933 2934
3114 1 2933 2934 2935
3115 1 2893 2894 2895
3116 1 2891 2892 2893
3117 1 2892 2893 2894
3118 1 2894 2895 2896
3119 1 2899 2900 2901
3120 1 2100 2101 2102
3121 1 2101 2102 2103
3122 1 2103 2104 2105
3123 1 2104 2105 79
3124 1 2901 2902 2903
3125 1 2903 2904 2905
3126 1 79 2966 2967
3127 1 2967 2968 2969
3128 1 2105 79 2905
3129 1 2105 79 2946
3130 1 2105 79 2966
3131 1 2905 79 2946
3132 1 2905 79 2966
3133 1 2946 79 2966
3134 1 2102 2103 2104
3135 1 2900 2901 2902
3136 1 2902 2903 2904
3137 1 2904 2905 79
3138 1 2966 2967 2968
3139 1 80 3006 3007
3140 1 3006 3007 3008
3141 1 3007 3008 3009
3142 1 3008 3009 3010
3143 1 3009 3010 3011
3144 1 3010 3011 3012
3145 1 3011 3012 3013
3146 1 3012 3013 3014
3147 1 3013 3014 3015
3148 1 2848 2849 2850
3149 1 2849 2850 2851
3150 1 2850 2851 2852
3151 1 2856 2857 2858
3152 1 2857 2858 2859
3153 1 2909 2910 2911
3154 1 2910 2911 2912
3155 1 2916 2917 2918
3156 1 2908 2909 2910
3157 1 2915 2916 2917
3158 1 2917 2918 2919
3159 1 2971 2972 2973
3160 1 2973 2974 2975
3161 1 2974 2975 2976
3162 1 2976 2977 2978
3163 1 2977 2978 2979
3164 1 2972 2973 2974
3165 1 2975 2976 2977
3166 1 2988 2989 2990
3167 1 2989 2990 2991
3168 1 2990 2991 2992
3169 1 3051 3052 3053
3170 1 3052 3053 3054
3171 1 3054 3055 3056
3172 1 3053 3054 3055
3173 1 3088 3089 3090
3174 1 3089 3090 3091
3175 1 3090 3091 3092
3176 1 3091 3092 3093
3177 1 3092 3093 3094
3178 1 3093 3094 3095
3179 1 3094 3095 3096
3180 1 3095 3096 3097
3181 1 3096 3097 3098
3182 1 3097 3098 3099
3183 1 3148 3149 3150
3184 1 3149 3150 3151
3185 1 3150 3151 3152
3186 1 3151 3152 3153
3187 1 3152 3153 3154
3188 1 3153 3154 3155
3189 1 3154 3155 3156
3190 1 3155 3156 3157
3191 1 3156 3157 3158
3192 1 3157 3158 3159
3193 1 3208 3209 3210
3194 1 3209 3210 3211
3195 1 3210 3211 3212
3196 1 3211 3212 3213
3197 1 3212 3213 3214
3198 1 3213 3214 3215
3199 1 3214 3215 3216
3200 1 3215 3216 3217
3201 1 3216 3217 3218
3202 1 3217 3218 3219
3203 1 3048 3049 3050
3204 1 3049 3050 3051
3205 1 3055 3056 3057
3206 1 3050 3051 3052
3207 1 3056 3057 3058
3208 1 3057 3058 3059
3209 1 3249 3250 3251
3210 1 3256 3257 3258
3211 1 3257 3258 3259
3212 1 3248 3249 3250
3213 1 3250 3251 3252
3214 1 3255 3256 3257
3215 1 3308 3309 3310
3216 1 3309 3310 3311
3217 1 3310 3311 3312
3218 1 3311 3312 3313
3219 1 3312 3313 3314
3220 1 3313 3314 3315
3221 1 3314 3315 3316
3222 1 3315 3316 3317
3223 1 3316 3317 3318
3224 1 3317 3318 3319
3225 1 3388 3389 3390
3226 1 3389 3390 3391
3227 1 3390 3391 3392
3228 1 3391 3392 3393
3229 1 3392 3393 3394
3230 1 3393 3394 3395
3231 1 3394 3395 3396
3232 1 3395 3396 3397
3233 1 3396 3397 3398
3234 1 3397 3398 3399
3235 1 3251 3252 3253
3236 1 3253 3254 3255
3237 1 3252 3253 3254
3238 1 3254 3255 3256
3239 1 3468 3469 3470
3240 1 3469 3470 3471
3241 1 3470 3471 3472
3242 1 3471 3472 3473
3243 1 3472 3473 3474
3244 1 3473 3474 3475
3245 1 3474 3475 3476
3246 1 3475 3476 3477
3247 1 3476 3477 3478
3248 1 3477 3478 3479
3249 1 3488 3489 3490
3250 1 3489 3490 3491
3251 1 3490 3491 3492
3252 1 3491 3492 3493
3253 1 3492 3493 3494
3254 1 3493 3494 3495
3255 1 3494 3495 3496
3256 1 3495 3496 3497
3257 1 3496 3497 3498
3258 1 3497 3498 3499
3259 1 3548 3549 3550
3260 1 3549 3550 3551
3261 1 3550 3551 3552
3262 1 3551 3552 3553
3263 1 3552 3553 3554
3264 1 3553 3554 3555
3265 1 3554 3555 3556
3266 1 3555 3556 3557
3267 1 3556 3557 3558
3268 1 3557 3558 3559
3269 1 3568 3569 3570
3270 1 3569 3570 3571
3271 1 3570 3571 3572
3272 1 3571 3572 3573
3273 1 3572 3573 3574
3274 1 3573 3574 3575
3275 1 3574 3575 3576
3276 1 3575 3576 3577
3277 1 3576 3577 3578
3278 1 3577 3578 3579
3279 1 3615 3616 3617
3280 1 3608 3609 3610
3281 1 3609 3610 3611
3282 1 3610 3611 3612
3283 1 3614 3615 3616
3284 1 3616 3617 3618
3285 1 3617 3618 3619
3286 1 3648 3649 3650
3287 1 3649 3650 3651
3288 1 3650 3651 3652
3289 1 3651 3652 3653
3290 1 3652 3653 3654
3291 1 3653 3654 3655
3292 1 3654 3655 3656
3293 1 3655 3656 3657
3294 1 3656 3657 3658
3295 1 3657 3658 3659
3296 1 3688 3689 3690
3297 1 3689 3690 3691
3298 1 3690 3691 3692
3299 1 3691 3692 3693
3300 1 3692 3693 3694
3301 1 3693 3694 3695
3302 1 3694 3695 3696
3303 1 3695 3696 3697
3304 1 3696 3697 3698
3305 1 3697 3698 3699
3306 1 3708 3709 3710
3307 1 3709 3710 3711
3308 1 3710 3711 3712
3309 1 3711 3712 3713
3310 1 3712 3713 3714
3311 1 3713 3714 3715
3312 1 3714 3715 3716
3313 1 3715 3716 3717
3314 1 3716 3717 3718
3315 1 3717 3718 3719
3316 1 3611 3612 3613
3317 1 3612 3613 3614
3318 1 3613 3614 3615
3319 1 2852 2853 2854
3320 1 2853 2854 2855
3321 1 2851 2852 2853
3322 1 2854 2855 2856
3323 1 2855 2856 2857
3324 1 2912 2913 2914
3325 1 2911 2912 2913
3326 1 2913 2914 2915
3327 1 2914 2915 2916
3328 1 2970 2971 2972
3329 1 2968 2969 2970
3330 1 2969 2970 2971
3331 1 2991 2992 2993
3332 1 2992 2993 2994
3333 1 2995 2996 2997
3334 1 2997 2998 2999
3335 1 2993 2994 2995
3336 1 2994 2995 2996
3337 1 2996 2997 2998
3338 1 101 3726 3727
3339 1 3727 3728 3729
3340 1 3730 3731 3732
3341 1 3726 3727 3728
3342 1 3728 3729 3730
3343 1 3729 3730 3731
3344 1 3738 3739 3740
3345 1 3735 3736 3737
3346 1 3736 3737 3738
3347 1 3737 3738 3739
3348 1 3742 3743 3744
3349 1 3743 3744 3745
3350 1 2858 2859 2860
3351 1 2863 2864 2865
3352 1 102 3786 3787
3353 1 3786 3787 3788
3354 1 3787 3788 3789
3355 1 3788 3789 3790
3356 1 3789 3790 3791
3357 1 3790 3791 3792
3358 1 3791 3792 3793
3359 1 3792 3793 3794
3360 1 3793 3794 3795
3361 1 2862 2863 2864
3362 1 2925 103 3826
3363 1 2925 103 3846
3364 1 3826 103 3846
3365 1 2918 2919 2920
3366 1 103 3846 3847
3367 1 3846 3847 3848
3368 1 3847 3848 3849
3369 1 3848 3849 3850
3370 1 3849 3850 3851
3371 1 3850 3851 3852
3372 1 3851 3852 3853
3373 1 3852 3853 3854
3374 1 3853 3854 3855
3375 1 3831 3832 3833
3376 1 3834 3835 3836
3377 1 3835 3836 3837
3378 1 3838 3839 3840
3379 1 3832 3833 3834
3380 1 3833 3834 3835
3381 1 3836 3837 3838
3382 1 3837 3838 3839
3383 1 2985 104 3845
3384 1 2985 104 3866
3385 1 2985 104 3886
3386 1 3845 104 3866
3387 1 3845 104 3886
3388 1 3866 104 3886
3389 1 2978 2979 2980
3390 1 104 3886 3887
3391 1 3886 3887 3888
3392 1 3887 3888 3889
3393 1 3888 3889 3890
3394 1 3889 3890 3891
3395 1 3890 3891 3892
3396 1 3891 3892 3893
3397 1 3892 3893 3894
3398 1 3893 3894 3895
3399 1 3871 3872 3873
3400 1 3874 3875 3876
3401 1 3872 3873 3874
3402 1 3873 3874 3875
3403 1 3005 105 3765
3404 1 3005 105 3885
3405 1 3005 105 3906
3406 1 3765 105 3885
3407 1 3765 105 3906
3408 1 3885 105 3906
3409 1 2999 3000 3001
3410 1 3000 3001 3002
3411 1 3001 3002 3003
3412 1 3002 3003 3004
3413 1 3004 3005 105
3414 1 3880 3881 3882
3415 1 3882 3883 3884
3416 1 3883 3884 3885
3417 1 3003 3004 3005
3418 1 3764 3765 105
3419 1 3879 3880 3881
3420 1 3881 3882 3883
3421 1 3884 3885 105
3422 1 3763 3764 3765
3423 1 3760 3761 3762
3424 1 3761 3762 3763
3425 1 3759 3760 3761
3426 1 3762 3763 3764
3427 1 3726 101 3746
3428 1 3726 101 3766
3429 1 3746 101 3766
3430 1 101 3746 3747
3431 1 3747 3748 3749
3432 1 3750 3751 3752
3433 1 3746 3747 3748
3434 1 3748 3749 3750
3435 1 3749 3750 3751
3436 1 3794 3795 3796
3437 1 3795 3796 3797
3438 1 3796 3797 3798
3439 1 3797 3798 3799
3440 1 3798 3799 3800
3441 1 3799 3800 3801
3442 1 3800 3801 3802
3443 1 3801 3802 3803
3444 1 3802 3803 3804
3445 1 3854 3855 3856
3446 1 3855 3856 3857
3447 1 3856 3857 3858
3448 1 3857 3858 3859
3449 1 3858 3859 3860
3450 1 3859 3860 3861
3451 1 3860 3861 3862
3452 1 3861 3862 3863
3453 1 3862 3863 3864
3454 1 3863 3864 3865
3455 1 3894 3895 3896
3456 1 3895 3896 3897
3457 1 3896 3897 3898
3458 1 3897 3898 3899
3459 1 3898 3899 3900
3460 1 3899 3900 3901
3461 1 3900 3901 3902
3462 1 3901 3902 3903
3463 1 3902 3903 3904
3464 1 465 106 3065
3465 1 465 106 3926
3466 1 465 106 3946
3467 1 3065 106 3926
3468 1 3065 106 3946
3469 1 3926 106 3946
3470 1 464 465 106
3471 1 3059 3060 3061
3472 1 3061 3062 3063
3473 1 3062 3063 3064
3474 1 3063 3064 3065
3475 1 3928 3929 3930
3476 1 3929 3930 3931
3477 1 3060 3061 3062
3478 1 3064 3065 106
3479 1 106 3926 3927
3480 1 3926 3927 3928
3481 1 3927 3928 3929
3482 1 3930 3931 3932
3483 1 463 464 465
3484 1 3803 3804 3805
3485 1 3105 107 3805
3486 1 3105 107 3966
3487 1 3805 107 3966
3488 1 3098 3099 3100
3489 1 3099 3100 3101
3490 1 3100 3101 3102
3491 1 3101 3102 3103
3492 1 3102 3103 3104
3493 1 3103 3104 3105
3494 1 3104 3105 107
3495 1 3804 3805 107
3496 1 107 3966 3967
3497 1 3966 3967 3968
3498 1 3967 3968 3969
3499 1 3968 3969 3970
3500 1 3969 3970 3971
3501 1 3970 3971 3972
3502 1 3971 3972 3973
3503 1 545 108 3165
3504 1 545 108 3865
3505 1 545 108 3986
3506 1 3165 108 3865
3507 1 3165 108 3986
3508 1 3865 108 3986
3509 1 544 545 108
3510 1 3158 3159 3160
3511 1 3159 3160 3161
3512 1 3160 3161 3162
3513 1 3161 3162 3163
3514 1 3162 3163 3164
3515 1 3163 3164 3165
3516 1 3164 3165 108
3517 1 3864 3865 108
3518 1 108 3986 3987
3519 1 3986 3987 3988
3520 1 3987 3988 3989
3521 1 3988 3989 3990
3522 1 3989 3990 3991
3523 1 3990 3991 3992
3524 1 3991 3992 3993
3525 1 3903 3904 3905
3526 1 585 109 3905
3527 1 585 109 4006
3528 1 3905 109 4006
3529 1 584 585 109
3530 1 3904 3905 109
3531 1 109 4006 4007
3532 1 4006 4007 4008
3533 1 4007 4008 4009
3534 1 4008 4009 4010
3535 1 4009 4010 4011
3536 1 4010 4011 4012
3537 1 4011 4012 4013
3538 1 3225 110 3965
3539 1 3225 110 4026
3540 1 3965 110 4026
3541 1 3218 3219 3220
3542 1 3219 3220 3221
3543 1 3220 3221 3222
3544 1 3221 3222 3223
3545 1 3222 3223 3224
3546 1 3223 3224 3225
3547 1 3224 3225 110
3548 1 3964 3965 110
3549 1 110 4026 4027
3550 1 4026 4027 4028
3551 1 4027 4028 4029
3552 1 4028 4029 4030
3553 1 4029 4030 4031
3554 1 4030 4031 4032
3555 1 4031 4032 4033
3556 1 3963 3964 3965
3557 1 3954 3955 3956
3558 1 3955 3956 3957
3559 1 3956 3957 3958
3560 1 3957 3958 3959
3561 1 3958 3959 3960
3562 1 3959 3960 3961
3563 1 3960 3961 3962
3564 1 3961 3962 3963
3565 1 3962 3963 3964
3566 1 3058 3059 3060
3567 1 3931 3932 3933
3568 1 106 3946 3947
3569 1 3946 3947 3948
3570 1 3947 3948 3949
3571 1 3948 3949 3950
3572 1 3949 3950 3951
3573 1 3950 3951 3952
3574 1 3951 3952 3953
3575 1 3952 3953 3954
3576 1 3953 3954 3955
3577 1 3936 3937 3938
3578 1 3935 3936 3937
3579 1 3937 3938 3939
3580 1 3938 3939 3940
3581 1 3972 3973 3974
3582 1 3973 3974 3975
3583 1 3974 3975 3976
3584 1 3975 3976 3977
3585 1 3976 3977 3978
3586 1 3977 3978 3979
3587 1 3978 3979 3980
3588 1 3979 3980 3981
3589 1 3980 3981 3982
3590 1 3981 3982 3983
3591 1 3992 3993 3994
3592 1 3993 3994 3995
3593 1 3994 3995 3996
3594 1 3995 3996 3997
3595 1 3996 3997 3998
3596 1 3997 3998 3999
3597 1 3998 3999 4000
3598 1 3999 4000 4001
3599 1 4000 4001 4002
3600 1 4001 4002 4003
3601 1 4012 4013 4014
3602 1 4013 4014 4015
3603 1 4014 4015 4016
3604 1 4015 4016 4017
3605 1 4016 4017 4018
3606 1 4017 4018 4019
3607 1 4018 4019 4020
3608 1 4019 4020 4021
3609 1 4020 4021 4022
3610 1 4021 4022 4023
3611 1 4032 4033 4034
3612 1 4033 4034 4035
3613 1 4034 4035 4036
3614 1 4035 4036 4037
3615 1 4036 4037 4038
3616 1 4037 4038 4039
3617 1 4038 4039 4040
3618 1 4039 4040 4041
3619 1 4040 4041 4042
3620 1 4041 4042 4043
3621 1 3940 3941 3942
3622 1 3941 3942 3943
3623 1 3932 3933 3934
3624 1 3933 3934 3935
3625 1 3934 3935 3936
3626 1 3939 3940 3941
3627 1 3265 111 3945
3628 1 3265 111 4046
3629 1 3265 111 4066
3630 1 3945 111 4046
3631 1 3945 111 4066
3632 1 4046 111 4066
3633 1 3258 3259 3260
3634 1 111 4046 4047
3635 1 4046 4047 4048
3636 1 4047 4048 4049
3637 1 4048 4049 4050
3638 1 4049 4050 4051
3639 1 4050 4051 4052
3640 1 4051 4052 4053
3641 1 4052 4053 4054
3642 1 4053 4054 4055
3643 1 4054 4055 4056
3644 1 4055 4056 4057
3645 1 4056 4057 4058
3646 1 4057 4058 4059
3647 1 4058 4059 4060
3648 1 4059 4060 4061
3649 1 4060 4061 4062
3650 1 4061 4062 4063
3651 1 4062 4063 4064
3652 1 4063 4064 4065
3653 1 3325 112 3985
3654 1 3325 112 4065
3655 1 3325 112 4086
3656 1 3985 112 4065
3657 1 3985 112 4086
3658 1 4065 112 4086
3659 1 3318 3319 3320
3660 1 3319 3320 3321
3661 1 3320 3321 3322
3662 1 3321 3322 3323
3663 1 3322 3323 3324
3664 1 3323 3324 3325
3665 1 3324 3325 112
3666 1 3982 3983 3984
3667 1 3983 3984 3985
3668 1 3984 3985 112
3669 1 4064 4065 112
3670 1 112 4086 4087
3671 1 4086 4087 4088
3672 1 4087 4088 4089
3673 1 4088 4089 4090
3674 1 4089 4090 4091
3675 1 4090 4091 4092
3676 1 4091 4092 4093
3677 1 4092 4093 4094
3678 1 4093 4094 4095
3679 1 4094 4095 4096
3680 1 4095 4096 4097
3681 1 4096 4097 4098
3682 1 4097 4098 4099
3683 1 4098 4099 4100
3684 1 4099 4100 4101
3685 1 4100 4101 4102
3686 1 4101 4102 4103
3687 1 765 113 4005
3688 1 765 113 4105
3689 1 765 113 4106
3690 1 4005 113 4105
3691 1 4005 113 4106
3692 1 4105 113 4106
3693 1 764 765 113
3694 1 4002 4003 4004
3695 1 4003 4004 4005
3696 1 4004 4005 113
3697 1 4102 4103 4104
3698 1 4103 4104 4105
3699 1 4104 4105 113
3700 1 113 4106 4107
3701 1 4106 4107 4108
3702 1 4107 4108 4109
3703 1 4108 4109 4110
3704 1 4109 4110 4111
3705 1 825 114 4025
3706 1 825 114 4126
3707 1 825 114 4146
3708 1 4025 114 4126
3709 1 4025 114 4146
3710 1 4126 114 4146
3711 1 824 825 114
3712 1 4022 4023 4024
3713 1 4023 4024 4025
3714 1 4024 4025 114
3715 1 114 4126 4127
3716 1 4126 4127 4128
3717 1 4127 4128 4129
3718 1 114 4146 4147
3719 1 4146 4147 4148
3720 1 4147 4148 4149
3721 1 4148 4149 4150
3722 1 4149 4150 4151
3723 1 4128 4129 4130
3724 1 4129 4130 4131
3725 1 4130 4131 4132
3726 1 4131 4132 4133
3727 1 4132 4133 4134
3728 1 4133 4134 4135
3729 1 4134 4135 4136
3730 1 4135 4136 4137
3731 1 4136 4137 4138
3732 1 4137 4138 4139
3733 1 3405 115 4045
3734 1 3405 115 4145
3735 1 3405 115 4166
3736 1 4045 115 4145
3737 1 4045 115 4166
3738 1 4145 115 4166
3739 1 3398 3399 3400
3740 1 3399 3400 3401
3741 1 3400 3401 3402
3742 1 3401 3402 3403
3743 1 3402 3403 3404
3744 1 3403 3404 3405
3745 1 3404 3405 115
3746 1 4042 4043 4044
3747 1 4043 4044 4045
3748 1 4044 4045 115
3749 1 4138 4139 4140
3750 1 4139 4140 4141
3751 1 4140 4141 4142
3752 1 4141 4142 4143
3753 1 4142 4143 4144
3754 1 4143 4144 4145
3755 1 4144 4145 115
3756 1 115 4166 4167
3757 1 4166 4167 4168
3758 1 4167 4168 4169
3759 1 4168 4169 4170
3760 1 4169 4170 4171
3761 1 3259 3260 3261
3762 1 3260 3261 3262
3763 1 3263 3264 3265
3764 1 3264 3265 111
3765 1 3942 3943 3944
3766 1 4066 4067 4068
3767 1 4068 4069 4070
3768 1 4069 4070 4071
3769 1 3261 3262 3263
3770 1 3262 3263 3264
3771 1 3943 3944 3945
3772 1 3944 3945 111
3773 1 111 4066 4067
3774 1 4067 4068 4069
3775 1 4071 4072 4073
3776 1 4072 4073 4074
3777 1 4074 4075 4076
3778 1 4079 4080 4081
3779 1 4073 4074 4075
3780 1 4110 4111 4112
3781 1 4111 4112 4113
3782 1 4112 4113 4114
3783 1 4113 4114 4115
3784 1 4114 4115 4116
3785 1 4115 4116 4117
3786 1 4116 4117 4118
3787 1 4117 4118 4119
3788 1 4118 4119 4120
3789 1 4119 4120 4121
3790 1 4150 4151 4152
3791 1 4151 4152 4153
3792 1 4152 4153 4154
3793 1 4153 4154 4155
3794 1 4154 4155 4156
3795 1 4155 4156 4157
3796 1 4156 4157 4158
3797 1 4157 4158 4159
3798 1 4158 4159 4160
3799 1 4159 4160 4161
3800 1 4170 4171 4172
3801 1 4171 4172 4173
3802 1 4172 4173 4174
3803 1 4173 4174 4175
3804 1 4174 4175 4176
3805 1 4175 4176 4177
3806 1 4176 4177 4178
3807 1 4177 4178 4179
3808 1 4178 4179 4180
3809 1 4179 4180 4181
3810 1 4075 4076 4077
3811 1 4077 4078 4079
3812 1 4078 4079 4080
3813 1 4070 4071 4072
3814 1 4076 4077 4078
3815 1 4080 4081 4082
3816 1 4081 4082 4083
3817 1 4084 4085 116
3818 1 945 117 3485
3819 1 945 117 4186
3820 1 945 117 4206
3821 1 3485 117 4186
3822 1 3485 117 4206
3823 1 4186 117 4206
3824 1 944 945 117
3825 1 3478 3479 3480
3826 1 3479 3480 3481
3827 1 3480 3481 3482
3828 1 3481 3482 3483
3829 1 3482 3483 3484
3830 1 3483 3484 3485
3831 1 3484 3485 117
3832 1 117 4186 4187
3833 1 4186 4187 4188
3834 1 4187 4188 4189
3835 1 4188 4189 4190
3836 1 4189 4190 4191
3837 1 4190 4191 4192
3838 1 4191 4192 4193
3839 1 117 4206 4207
3840 1 4206 4207 4208
3841 1 4207 4208 4209
3842 1 943 944 945
3843 1 4192 4193 4194
3844 1 4193 4194 4195
3845 1 4194 4195 4196
3846 1 4195 4196 4197
3847 1 4196 4197 4198
3848 1 4197 4198 4199
3849 1 4198 4199 4200
3850 1 4199 4200 4201
3851 1 4200 4201 4202
3852 1 4201 4202 4203
3853 1 3505 118 4125
3854 1 3505 118 4205
3855 1 3505 118 4226
3856 1 4125 118 4205
3857 1 4125 118 4226
3858 1 4205 118 4226
3859 1 3498 3499 3500
3860 1 3499 3500 3501
3861 1 3500 3501 3502
3862 1 3501 3502 3503
3863 1 3502 3503 3504
3864 1 3503 3504 3505
3865 1 3504 3505 118
3866 1 4120 4121 4122
3867 1 4121 4122 4123
3868 1 4122 4123 4124
3869 1 4123 4124 4125
3870 1 4124 4125 118
3871 1 4202 4203 4204
3872 1 4203 4204 4205
3873 1 4204 4205 118
3874 1 118 4226 4227
3875 1 4226 4227 4228
3876 1 4227 4228 4229
3877 1 1005 119 3565
3878 1 1005 119 4165
3879 1 1005 119 4246
3880 1 3565 119 4165
3881 1 3565 119 4246
3882 1 4165 119 4246
3883 1 1004 1005 119
3884 1 3558 3559 3560
3885 1 3559 3560 3561
3886 1 3560 3561 3562
3887 1 3561 3562 3563
3888 1 3562 3563 3564
3889 1 3563 3564 3565
3890 1 3564 3565 119
3891 1 4160 4161 4162
3892 1 4161 4162 4163
3893 1 4162 4163 4164
3894 1 4163 4164 4165
3895 1 4164 4165 119
3896 1 119 4246 4247
3897 1 4246 4247 4248
3898 1 4247 4248 4249
3899 1 1045 120 3585
3900 1 1045 120 4185
3901 1 3585 120 4185
3902 1 1044 1045 120
3903 1 3578 3579 3580
3904 1 3579 3580 3581
3905 1 3580 3581 3582
3906 1 3581 3582 3583
3907 1 3582 3583 3584
3908 1 3583 3584 3585
3909 1 3584 3585 120
3910 1 4180 4181 4182
3911 1 4181 4182 4183
3912 1 4182 4183 4184
3913 1 4183 4184 4185
3914 1 4184 4185 120
3915 1 1043 1044 1045
3916 1 4082 4083 4084
3917 1 4083 4084 4085
3918 1 4208 4209 4210
3919 1 4209 4210 4211
3920 1 4210 4211 4212
3921 1 4211 4212 4213
3922 1 4212 4213 4214
3923 1 4213 4214 4215
3924 1 4214 4215 4216
3925 1 4215 4216 4217
3926 1 4216 4217 4218
3927 1 4217 4218 4219
3928 1 4228 4229 4230
3929 1 4229 4230 4231
3930 1 4230 4231 4232
3931 1 4231 4232 4233
3932 1 4232 4233 4234
3933 1 4233 4234 4235
3934 1 4234 4235 4236
3935 1 4235 4236 4237
3936 1 4236 4237 4238
3937 1 4237 4238 4239
3938 1 4248 4249 4250
3939 1 4249 4250 4251
3940 1 4250 4251 4252
3941 1 4251 4252 4253
3942 1 4252 4253 4254
3943 1 4253 4254 4255
3944 1 4254 4255 4256
3945 1 4255 4256 4257
3946 1 4256 4257 4258
3947 1 4257 4258 4259
3948 1 3625 121 3785
3949 1 3625 121 4266
3950 1 3785 121 4266
3951 1 3618 3619 3620
3952 1 121 4266 4267
3953 1 4266 4267 4268
3954 1 4267 4268 4269
3955 1 4268 4269 4270
3956 1 4269 4270 4271
3957 1 4270 4271 4272
3958 1 4271 4272 4273
3959 1 4272 4273 4274
3960 1 4273 4274 4275
3961 1 4274 4275 4276
3962 1 4275 4276 4277
3963 1 4276 4277 4278
3964 1 4277 4278 4279
3965 1 4278 4279 4280
3966 1 4279 4280 4281
3967 1 4280 4281 4282
3968 1 4281 4282 4283
3969 1 4282 4283 4284
3970 1 4283 4284 4285
3971 1 3665 122 3825
3972 1 3665 122 4225
3973 1 3665 122 4285
3974 1 3825 122 4225
3975 1 3825 122 4285
3976 1 4225 122 4285
3977 1 3658 3659 3660
3978 1 3659 3660 3661
3979 1 3660 3661 3662
3980 1 3661 3662 3663
3981 1 3662 3663 3664
3982 1 3663 3664 3665
3983 1 3664 3665 122
3984 1 3824 3825 122
3985 1 4218 4219 4220
3986 1 4219 4220 4221
3987 1 4220 4221 4222
3988 1 4221 4222 4223
3989 1 4222 4223 4224
3990 1 4223 4224 4225
3991 1 4224 4225 122
3992 1 4284 4285 122
3993 1 3823 3824 3825
3994 1 3705 123 4245
3995 1 3705 123 4286
3996 1 4245 123 4286
3997 1 3698 3699 3700
3998 1 3699 3700 3701
3999 1 3700 3701 3702
4000 1 3701 3702 3703
4001 1 3702 3703 3704
4002 1 3703 3704 3705
4003 1 3704 3705 123
4004 1 4238 4239 4240
4005 1 4239 4240 4241
4006 1 4240 4241 4242
4007 1 4241 4242 4243
4008 1 4242 4243 4244
4009 1 4243 4244 4245
4010 1 4244 4245 123
4011 1 123 4286 4287
4012 1 4286 4287 4288
4013 1 4287 4288 4289
4014 1 4288 4289 4290
4015 1 4289 4290 4291
4016 1 4290 4291 4292
4017 1 4291 4292 4293
4018 1 4292 4293 4294
4019 1 4293 4294 4295
4020 1 4294 4295 4296
4021 1 4295 4296 4297
4022 1 4296 4297 4298
4023 1 4297 4298 4299
4024 1 4298 4299 4300
4025 1 4299 4300 4301
4026 1 3725 124 4265
4027 1 3725 124 4305
4028 1 3725 124 4306
4029 1 4265 124 4305
4030 1 4265 124 4306
4031 1 4305 124 4306
4032 1 3718 3719 3720
4033 1 3719 3720 3721
4034 1 3720 3721 3722
4035 1 3721 3722 3723
4036 1 3722 3723 3724
4037 1 3723 3724 3725
4038 1 3724 3725 124
4039 1 4258 4259 4260
4040 1 4259 4260 4261
4041 1 4260 4261 4262
4042 1 4261 4262 4263
4043 1 4262 4263 4264
4044 1 4263 4264 4265
4045 1 4264 4265 124
4046 1 4300 4301 4302
4047 1 4301 4302 4303
4048 1 4302 4303 4304
4049 1 4303 4304 4305
4050 1 4304 4305 124
4051 1 124 4306 4307
4052 1 4306 4307 4308
4053 1 4307 4308 4309
4054 1 4308 4309 4310
4055 1 4309 4310 4311
4056 1 4310 4311 4312
4057 1 4311 4312 4313
4058 1 4312 4313 4314
4059 1 4313 4314 4315
4060 1 4314 4315 4316
4061 1 4315 4316 4317
4062 1 4316 4317 4318
4063 1 4317 4318 4319
4064 1 1205 125 3925
4065 1 1205 125 4325
4066 1 3925 125 4325
4067 1 1204 1205 125
4068 1 3924 3925 125
4069 1 4318 4319 4320
4070 1 4319 4320 4321
4071 1 4320 4321 4322
4072 1 4321 4322 4323
4073 1 4322 4323 4324
4074 1 4323 4324 4325
4075 1 4324 4325 125
4076 1 3923 3924 3925
4077 1 1203 1204 1205
4078 1 3619 3620 3621
4079 1 3620 3621 3622
4080 1 3621 3622 3623
4081 1 3622 3623 3624
4082 1 3623 3624 3625
4083 1 3624 3625 121
4084 1 3784 3785 121
4085 1 3783 3784 3785
4086 1 3775 3776 3777
4087 1 3777 3778 3779
4088 1 3778 3779 3780
4089 1 3774 3775 3776
4090 1 3776 3777 3778
4091 1 3814 3815 3816
4092 1 3815 3816 3817
4093 1 3816 3817 3818
4094 1 3817 3818 3819
4095 1 3818 3819 3820
4096 1 3819 3820 3821
4097 1 3820 3821 3822
4098 1 3821 3822 3823
4099 1 3822 3823 3824
4100 1 3914 3915 3916
4101 1 3915 3916 3917
4102 1 3916 3917 3918
4103 1 3917 3918 3919
4104 1 3918 3919 3920
4105 1 3919 3920 3921
4106 1 3920 3921 3922
4107 1 3921 3922 3923
4108 1 3922 3923 3924
4109 1 3779 3780 3781
4110 1 3781 3782 3783
4111 1 3782 3783 3784
4112 1 3780 3781 3782
4113 1 3731 3732 3733
4114 1 3732 3733 3734
4115 1 3733 3734 3735
4116 1 101 3766 3767
4117 1 3769 3770 3771
4118 1 3770 3771 3772
4119 1 3768 3769 3770
4120 1 3734 3735 3736
4121 1 3740 3741 3742
4122 1 3741 3742 3743
4123 1 3739 3740 3741
4124 1 2860 2861 2862
4125 1 2865 102 3745
4126 1 2865 102 3786
4127 1 2865 102 3806
4128 1 3745 102 3786
4129 1 3745 102 3806
4130 1 3786 102 3806
4131 1 2859 2860 2861
4132 1 2861 2862 2863
4133 1 2864 2865 102
4134 1 3744 3745 102
4135 1 102 3806 3807
4136 1 3806 3807 3808
4137 1 3807 3808 3809
4138 1 3808 3809 3810
4139 1 3809 3810 3811
4140 1 3810 3811 3812
4141 1 3811 3812 3813
4142 1 3812 3813 3814
4143 1 3813 3814 3815
4144 1 2921 2922 2923
4145 1 2922 2923 2924
4146 1 2923 2924 2925
4147 1 103 3826 3827
4148 1 3827 3828 3829
4149 1 2919 2920 2921
4150 1 2920 2921 2922
4151 1 2924 2925 103
4152 1 3826 3827 3828
4153 1 3828 3829 3830
4154 1 3829 3830 3831
4155 1 3830 3831 3832
4156 1 3839 3840 3841
4157 1 2979 2980 2981
4158 1 2980 2981 2982
4159 1 2981 2982 2983
4160 1 2982 2983 2984
4161 1 3842 3843 3844
4162 1 104 3866 3867
4163 1 3866 3867 3868
4164 1 2983 2984 2985
4165 1 2984 2985 104
4166 1 3840 3841 3842
4167 1 3841 3842 3843
4168 1 3843 3844 3845
4169 1 3844 3845 104
4170 1 3867 3868 3869
4171 1 3868 3869 3870
4172 1 3869 3870 3871
4173 1 3870 3871 3872
4174 1 3875 3876 3877
4175 1 3877 3878 3879
4176 1 3876 3877 3878
4177 1 2998 2999 3000
4178 1 3878 3879 3880
4179 1 105 3906 3907
4180 1 3906 3907 3908
4181 1 3907 3908 3909
4182 1 3908 3909 3910
4183 1 3909 3910 3911
4184 1 3910 3911 3912
4185 1 3911 3912 3913
4186 1 3912 3913 3914
4187 1 3913 3914 3915
4188 1 3754 3755 3756
4189 1 3755 3756 3757
4190 1 3756 3757 3758
4191 1 3758 3759 3760
4192 1 3757 3758 3759
4193 1 3752 3753 3754
4194 1 3753 3754 3755
4195 1 3772 3773 3774
4196 1 3773 3774 3775
4197 1 3751 3752 3753
4198 1 3766 3767 3768
4199 1 3767 3768 3769
4200 1 3771 3772 3773
4201 1 459 460 461
4202 1 461 462 463
4203 1 460 461 462
4204 1 462 463 464
4205 1 534 535 536
4206 1 535 536 537
4207 1 536 537 538
4208 1 537 538 539
4209 1 538 539 540
4210 1 539 540 541
4211 1 540 541 542
4212 1 541 542 543
4213 1 542 543 544
4214 1 543 544 545
4215 1 574 575 576
4216 1 575 576 577
4217 1 576 577 578
4218 1 577 578 579
4219 1 578 579 580
4220 1 579 580 581
4221 1 580 581 582
4222 1 581 582 583
4223 1 582 583 584
4224 1 583 584 585
4225 1 455 456 457
4226 1 457 458 459
4227 1 458 459 460
4228 1 454 455 456
4229 1 456 457 458
4230 1 754 755 756
4231 1 755 756 757
4232 1 756 757 758
4233 1 757 758 759
4234 1 758 759 760
4235 1 759 760 761
4236 1 760 761 762
4237 1 761 762 763
4238 1 762 763 764
4239 1 763 764 765
4240 1 814 815 816
4241 1 815 816 817
4242 1 816 817 818
4243 1 817 818 819
4244 1 818 819 820
4245 1 819 820 821
4246 1 820 821 822
4247 1 821 822 823
4248 1 822 823 824
4249 1 823 824 825
4250 1 934 935 936
4251 1 935 936 937
4252 1 936 937 938
4253 1 937 938 939
4254 1 938 939 940
4255 1 939 940 941
4256 1 940 941 942
4257 1 941 942 943
4258 1 942 943 944
4259 1 994 995 996
4260 1 995 996 997
4261 1 996 997 998
4262 1 997 998 999
4263 1 998 999 1000
4264 1 999 1000 1001
4265 1 1000 1001 1002
4266 1 1001 1002 1003
4267 1 1002 1003 1004
4268 1 1003 1004 1005
4269 1 1034 1035 1036
4270 1 1035 1036 1037
4271 1 1036 1037 1038
4272 1 1037 1038 1039
4273 1 1038 1039 1040
4274 1 1039 1040 1041
4275 1 1040 1041 1042
4276 1 1041 1042 1043
4277 1 1042 1043 1044
4278 1 1194 1195 1196
4279 1 1195 1196 1197
4280 1 1196 1197 1198
4281 1 1197 1198 1199
4282 1 1198 1199 1200
4283 1 1199 1200 1201
4284 1 1200 1201 1202
4285 1 1201 1202 1203
4286 1 1202 1203 1204
4287 1 1 126 127
4288 1 128 129 130
4289 1 127 128 129
4290 1 129 130 131
4291 1 130 131 132
4292 1 186 187 188
4293 1 188 189 190
4294 1 189 190 191
4295 1 190 191 192
4296 1 2 186 187
4297 1 187 188 189
4298 1 199 200 201
4299 1 201 202 203
4300 1 200 201 202
4301 1 203 204 205
4302 1 249 250 251
4303 1 246 247 248
4304 1 202 203 204
4305 1 204 205 3
4306 1 248 249 250
4307 1 3 246 247
4308 1 247 248 249
4309 1 250 251 252
4310 1 326 327 328
4311 1 327 328 329
4312 1 329 330 331
4313 1 330 331 332
4314 1 4 326 327
4315 1 328 329 330
4316 1 5 366 367
4317 1 369 370 371
4318 1 366 367 368
4319 1 367 368 369
4320 1 368 369 370
4321 1 370 371 372
4322 1 132 133 134
4323 1 131 132 133
4324 1 133 134 135
4325 1 139 140 141
4326 1 143 144 145
4327 1 140 141 142
4328 1 141 142 143
4329 1 142 143 144
4330 1 337 338 339
4331 1 338 339 340
4332 1 335 336 337
4333 1 336 337 338
4334 1 379 380 381
4335 1 383 384 385
4336 1 380 381 382
4337 1 381 382 383
4338 1 382 383 384
4339 1 135 136 137
4340 1 138 139 140
4341 1 137 138 139
4342 1 134 135 136
4343 1 136 137 138
4344 1 144 145 6
4345 1 145 6 406
4346 1 145 6 426
4347 1 145 6 446
4348 1 406 6 426
4349 1 406 6 446
4350 1 426 6 446
4351 1 446 447 448
4352 1 6 446 447
4353 1 447 448 449
4354 1 448 449 450
4355 1 449 450 451
4356 1 450 451 452
4357 1 8 466 467
4358 1 486 487 488
4359 1 489 490 491
4360 1 466 8 486
4361 1 466 8 506
4362 1 466 8 526
4363 1 486 8 506
4364 1 486 8 526
4365 1 506 8 526
4366 1 468 469 470
4367 1 469 470 471
4368 1 487 488 489
4369 1 488 489 490
4370 1 490 491 492
4371 1 8 526 527
4372 1 526 527 528
4373 1 527 528 529
4374 1 528 529 530
4375 1 529 530 531
4376 1 530 531 532
4377 1 531 532 533
4378 1 532 533 534
4379 1 533 534 535
4380 1 476 477 478
4381 1 478 479 480
4382 1 470 471 472
4383 1 475 476 477
4384 1 477 478 479
4385 1 345 9 485
4386 1 345 9 546
4387 1 345 9 566
4388 1 485 9 546
4389 1 485 9 566
4390 1 546 9 566
4391 1 9 566 567
4392 1 566 567 568
4393 1 567 568 569
4394 1 568 569 570
4395 1 569 570 571
4396 1 570 571 572
4397 1 571 572 573
4398 1 572 573 574
4399 1 573 574 575
4400 1 551 552 553
4401 1 552 553 554
4402 1 553 554 555
4403 1 554 555 556
4404 1 444 445 10
4405 1 559 560 561
4406 1 443 444 445
4407 1 384 385 10
4408 1 560 561 562
4409 1 561 562 563
4410 1 562 563 564
4411 1 563 564 565
4412 1 564 565 10
4413 1 434 435 436
4414 1 440 441 442
4415 1 441 442 443
4416 1 442 443 444
4417 1 439 440 441
4418 1 426 427 428
4419 1 432 433 434
4420 1 433 434 435
4421 1 452 453 454
4422 1 427 428 429
4423 1 431 432 433
4424 1 451 452 453
4425 1 453 454 455
4426 1 496 497 498
4427 1 501 502 503
4428 1 492 493 494
4429 1 494 495 496
4430 1 500 501 502
4431 1 11 606 607
4432 1 606 607 608
4433 1 606 11 626
4434 1 606 11 646
4435 1 626 11 646
4436 1 607 608 609
4437 1 609 610 611
4438 1 608 609 610
4439 1 12 666 667
4440 1 666 667 668
4441 1 667 668 669
4442 1 688 689 690
4443 1 668 669 670
4444 1 669 670 671
4445 1 670 671 672
4446 1 12 686 687
4447 1 686 687 688
4448 1 687 688 689
4449 1 689 690 691
4450 1 675 676 677
4451 1 676 677 678
4452 1 677 678 679
4453 1 678 679 680
4454 1 504 505 13
4455 1 683 684 685
4456 1 505 13 685
4457 1 505 13 726
4458 1 505 13 746
4459 1 685 13 726
4460 1 685 13 746
4461 1 726 13 746
4462 1 502 503 504
4463 1 503 504 505
4464 1 682 683 684
4465 1 13 746 747
4466 1 746 747 748
4467 1 747 748 749
4468 1 748 749 750
4469 1 749 750 751
4470 1 750 751 752
4471 1 751 752 753
4472 1 752 753 754
4473 1 753 754 755
4474 1 14 806 807
4475 1 806 807 808
4476 1 807 808 809
4477 1 808 809 810
4478 1 809 810 811
4479 1 810 811 812
4480 1 811 812 813
4481 1 812 813 814
4482 1 813 814 815
4483 1 771 772 773
4484 1 774 775 776
4485 1 775 776 777
4486 1 772 773 774
4487 1 773 774 775
4488 1 779 780 781
4489 1 784 785 15
4490 1 829 830 831
4491 1 663 664 665
4492 1 780 781 782
4493 1 781 782 783
4494 1 15 826 827
4495 1 828 829 830
4496 1 657 658 659
4497 1 658 659 660
4498 1 662 663 664
4499 1 656 657 658
4500 1 11 646 647
4501 1 647 648 649
4502 1 650 651 652
4503 1 646 647 648
4504 1 648 649 650
4505 1 649 650 651
4506 1 610 611 612
4507 1 619 620 621
4508 1 690 691 692
4509 1 695 696 697
4510 1 696 697 698
4511 1 697 698 699
4512 1 698 699 700
4513 1 791 792 793
4514 1 793 794 795
4515 1 794 795 796
4516 1 795 796 797
4517 1 792 793 794
4518 1 796 797 798
4519 1 797 798 799
4520 1 798 799 800
4521 1 830 831 832
4522 1 836 837 838
4523 1 837 838 839
4524 1 838 839 840
4525 1 835 836 837
4526 1 623 624 625
4527 1 16 846 847
4528 1 847 848 849
4529 1 620 621 622
4530 1 624 625 16
4531 1 846 847 848
4532 1 621 622 623
4533 1 622 623 624
4534 1 17 926 927
4535 1 926 927 928
4536 1 927 928 929
4537 1 928 929 930
4538 1 929 930 931
4539 1 930 931 932
4540 1 931 932 933
4541 1 932 933 934
4542 1 933 934 935
4543 1 19 986 987
4544 1 986 987 988
4545 1 987 988 989
4546 1 988 989 990
4547 1 989 990 991
4548 1 990 991 992
4549 1 991 992 993
4550 1 992 993 994
4551 1 993 994 995
4552 1 845 20 905
4553 1 845 20 1006
4554 1 845 20 1026
4555 1 905 20 1006
4556 1 905 20 1026
4557 1 1006 20 1026
4558 1 20 1026 1027
4559 1 1026 1027 1028
4560 1 1027 1028 1029
4561 1 1028 1029 1030
4562 1 1029 1030 1031
4563 1 1030 1031 1032
4564 1 1031 1032 1033
4565 1 1032 1033 1034
4566 1 1033 1034 1035
4567 1 895 896 897
4568 1 896 897 898
4569 1 897 898 899
4570 1 898 899 900
4571 1 886 887 888
4572 1 888 889 890
4573 1 889 890 891
4574 1 890 891 892
4575 1 16 886 887
4576 1 887 888 889
4577 1 850 851 852
4578 1 856 857 858
4579 1 849 850 851
4580 1 855 856 857
4581 1 857 858 859
4582 1 848 849 850
4583 1 911 912 913
4584 1 912 913 914
4585 1 914 915 916
4586 1 913 914 915
4587 1 971 972 973
4588 1 973 974 975
4589 1 974 975 976
4590 1 972 973 974
4591 1 1011 1012 1013
4592 1 1013 1014 1015
4593 1 1015 1016 1017
4594 1 1016 1017 1018
4595 1 1012 1013 1014
4596 1 1014 1015 1016
4597 1 1017 1018 1019
4598 1 858 859 860
4599 1 1051 1052 1053
4600 1 1052 1053 1054
4601 1 1053 1054 1055
4602 1 862 863 864
4603 1 863 864 865
4604 1 1046 1047 1048
4605 1 1047 1048 1049
4606 1 1060 1061 1062
4607 1 1061 1062 1063
4608 1 1063 1064 1065
4609 1 1059 1060 1061
4610 1 1062 1063 1064
4611 1 244 245 22
4612 1 919 920 921
4613 1 921 922 923
4614 1 922 923 924
4615 1 924 925 22
4616 1 1064 1065 22
4617 1 920 921 922
4618 1 923 924 925
4619 1 243 244 245
4620 1 23 1106 1107
4621 1 1107 1108 1109
4622 1 303 304 305
4623 1 304 305 23
4624 1 1106 1107 1108
4625 1 1108 1109 1110
4626 1 1109 1110 1111
4627 1 1110 1111 1112
4628 1 1119 1120 1121
4629 1 980 981 982
4630 1 982 983 984
4631 1 984 985 24
4632 1 1122 1123 1124
4633 1 1124 1125 24
4634 1 985 24 1125
4635 1 985 24 1146
4636 1 985 24 1166
4637 1 1125 24 1146
4638 1 1125 24 1166
4639 1 1146 24 1166
4640 1 979 980 981
4641 1 981 982 983
4642 1 983 984 985
4643 1 1120 1121 1122
4644 1 1121 1122 1123
4645 1 1123 1124 1125
4646 1 24 1146 1147
4647 1 1146 1147 1148
4648 1 1147 1148 1149
4649 1 1148 1149 1150
4650 1 1149 1150 1151
4651 1 1156 1157 1158
4652 1 1157 1158 1159
4653 1 1150 1151 1152
4654 1 1155 1156 1157
4655 1 1018 1019 1020
4656 1 1158 1159 1160
4657 1 1025 25 1085
4658 1 1025 25 1165
4659 1 1025 25 1186
4660 1 1085 25 1165
4661 1 1085 25 1186
4662 1 1165 25 1186
4663 1 25 1186 1187
4664 1 1186 1187 1188
4665 1 1187 1188 1189
4666 1 1188 1189 1190
4667 1 1189 1190 1191
4668 1 1190 1191 1192
4669 1 1191 1192 1193
4670 1 1192 1193 1194
4671 1 1193 1194 1195
4672 1 1076 1077 1078
4673 1 1077 1078 1079
4674 1 1078 1079 1080
4675 1 1075 1076 1077
4676 1 1068 1069 1070
4677 1 1069 1070 1071
4678 1 1070 1071 1072
4679 1 185 21 865
4680 1 185 21 1046
4681 1 185 21 1066
4682 1 865 21 1046
4683 1 865 21 1066
4684 1 1046 21 1066
4685 1 21 1066 1067
4686 1 175 176 177
4687 1 240 241 242
4688 1 241 242 243
4689 1 239 240 241
4690 1 242 243 244
4691 1 301 302 303
4692 1 302 303 304
4693 1 299 300 301
4694 1 300 301 302
4695 1 174 175 176
4696 1 226 227 228
4697 1 229 230 231
4698 1 230 231 232
4699 1 186 2 206
4700 1 186 2 226
4701 1 206 2 226
4702 1 2 226 227
4703 1 227 228 229
4704 1 228 229 230
4705 1 286 287 288
4706 1 288 289 290
4707 1 3 286 287
4708 1 287 288 289
4709 1 289 290 291
4710 1 290 291 292
4711 1 259 260 261
4712 1 261 262 263
4713 1 262 263 264
4714 1 263 264 265
4715 1 4 306 307
4716 1 307 308 309
4717 1 264 265 4
4718 1 260 261 262
4719 1 265 4 306
4720 1 265 4 326
4721 1 265 4 346
4722 1 306 4 326
4723 1 306 4 346
4724 1 326 4 346
4725 1 306 307 308
4726 1 308 309 310
4727 1 309 310 311
4728 1 310 311 312
4729 1 164 165 5
4730 1 319 320 321
4731 1 322 323 324
4732 1 323 324 325
4733 1 320 321 322
4734 1 321 322 323
4735 1 163 164 165
4736 1 165 5 325
4737 1 165 5 366
4738 1 165 5 386
4739 1 325 5 366
4740 1 325 5 386
4741 1 366 5 386
4742 1 324 325 5
4743 1 154 155 156
4744 1 162 163 164
4745 1 161 162 163
4746 1 160 161 162
4747 1 159 160 161
4748 1 147 148 149
4749 1 151 152 153
4750 1 146 147 148
4751 1 152 153 154
4752 1 153 154 155
