LAMMPS (2 Apr 2025)
OMP_NUM_THREADS environment is not set. Defaulting to 1 thread. (src/comm.cpp:99)
  using 1 OpenMP thread(s) per MPI task
Loaded 1 plugins from C:\Users\ahmet\AppData\Local\LAMMPS 64-bit 2Apr2025\plugins
# LAMMPS Stage 2: CG Harmonic Ramp (Reference Logic)

read_restart    1.restart
Reading restart file ...
  restart file = 2 Apr 2025, LAMMPS = 2 Apr 2025
  restoring atom style full from restart
  orthogonal box = (0 0 0) to (17.2183 17.2183 17.2183)
  1 by 1 by 1 MPI processor grid
  restoring pair style soft from restart
  restoring bond style harmonic from restart
  restoring angle style harmonic from restart
  4339 atoms
  4428 bonds
  4788 angles
Finding 1-2 1-3 1-4 neighbors ...
  special bond factors lj:    0        1        1       
  special bond factors coul:  0        0        0       
     4 = max # of 1-2 neighbors
     4 = max # of 1-3 neighbors
     8 = max # of 1-4 neighbors
    12 = max # of special neighbors
  special bonds CPU = 0.001 seconds
  read_restart CPU = 0.002 seconds

neighbor        2.0 bin
neigh_modify    every 1 delay 0 check yes
comm_modify     mode single cutoff 5.0

# SWITCH TO HARMONIC for Robust Minimization
bond_style      harmonic
bond_coeff      1 466.1 0.97
angle_style     harmonic
angle_coeff     1 466.1 180.0

# Soft to Real Potential Ramp
pair_style      soft 1.0
pair_coeff      * * 1.0
min_style       cg
minimize        1e-4 1e-6 1000 10000
Generated 0 of 1 mixed pair_coeff terms from geometric mixing rule
Neighbor list info ...
  update: every = 1 steps, delay = 0 steps, check = yes
  max neighbors/atom: 2000, page size: 100000
  master list distance cutoff = 3
  ghost atom cutoff = 5
  binsize = 1.5, bins = 12 12 12
  1 neighbor lists, perpetual/occasional/extra = 1 0 0
  (1) pair soft, perpetual
      attributes: half, newton on
      pair build: half/bin/newton
      stencil: half/bin/3d
      bin: standard
WARNING: Inconsistent image flags
For more information see https://docs.lammps.org/err0027 (src/domain.cpp:1052)
Per MPI rank memory allocation (min/avg/max) = 20.19 | 20.19 | 20.19 Mbytes
   Step          Temp          E_pair         E_mol          TotEng         Press     
       150   0              3.252687       392.19305      395.44574      40.959128    
       157   0              3.2398195      391.27993      394.51975      40.991462    
Loop time of 0.041009 on 1 procs for 7 steps with 4339 atoms

114.3% CPU use with 1 MPI tasks x 1 OpenMP threads

Minimization stats:
  Stopping criterion = energy tolerance
  Energy initial, next-to-last, final = 
      395.445739366046   394.548090801454   394.519746200876
  Force two-norm initial, final = 36172.148 31959.054
  Force max component initial, final = 7726.5318 7240.1546
  Final line search alpha, max atom move = 1.9281335e-05 0.13959985
  Iterations, force evaluations = 7 18

MPI task timing breakdown:
Section |  min time  |  avg time  |  max time  |%varavg| %total
---------------------------------------------------------------
Pair    | 0.037465   | 0.037465   | 0.037465   |   0.0 | 91.36
Bond    | 0.002568   | 0.002568   | 0.002568   |   0.0 |  6.26
Neigh   | 0          | 0          | 0          |   0.0 |  0.00
Comm    | 0.000415   | 0.000415   | 0.000415   |   0.0 |  1.01
Output  | 0          | 0          | 0          |   0.0 |  0.00
Modify  | 0          | 0          | 0          |   0.0 |  0.00
Other   |            | 0.000561   |            |       |  1.37

Nlocal:           4339 ave        4339 max        4339 min
Histogram: 1 0 0 0 0 0 0 0 0 0
Nghost:          13070 ave       13070 max       13070 min
Histogram: 1 0 0 0 0 0 0 0 0 0
Neighs:         169606 ave      169606 max      169606 min
Histogram: 1 0 0 0 0 0 0 0 0 0

Total # of neighbors = 169606
Ave neighs/atom = 39.08873
Ave special neighs/atom = 6.6042867
Neighbor list builds = 0
Dangerous builds = 0

pair_style      lj/cut 2.5
pair_coeff      * * 1.0 1.0 2.5
variable        scale equal "ramp(0.001, 1.0)"
fix             1 all adapt 1 pair lj/cut epsilon * * v_scale
fix             fxnve all nve/limit 0.1
thermo          1000
run             20000
Generated 0 of 1 mixed pair_coeff terms from geometric mixing rule
Neighbor list info ...
  update: every = 1 steps, delay = 0 steps, check = yes
  max neighbors/atom: 2000, page size: 100000
  master list distance cutoff = 4.5
  ghost atom cutoff = 5
  binsize = 2.25, bins = 8 8 8
  1 neighbor lists, perpetual/occasional/extra = 1 0 0
  (1) pair lj/cut, perpetual
      attributes: half, newton on
      pair build: half/bin/newton
      stencil: half/bin/3d
      bin: standard
WARNING: Inconsistent image flags
For more information see https://docs.lammps.org/err0027 (src/domain.cpp:1052)
Per MPI rank memory allocation (min/avg/max) = 20.45 | 20.45 | 20.45 Mbytes
   Step          Temp          E_pair         E_mol          TotEng         Press     
       157   0              7044.3367      391.27993      7435.6167      23995.876    
      1000   29.553854      4.2360351      189.08649      237.64309      23.521006    
      2000   25.447471      3.8596771      177.12691      219.149        24.474052    
      3000   23.526848      3.7033333      172.81136      211.79683      27.609363    
      4000   22.430649      3.4975735      169.96315      207.09894      27.280267    
      5000   21.67808       3.5189744      168.5486       204.5772       28.544678    
      6000   20.879759      3.4914937      167.90761      202.71152      29.934663    
      7000   20.603645      3.469561       166.63313      201.00103      31.271123    
      8000   20.134988      3.226561       166.82932      200.25141      31.050619    
      9000   20.39488       3.0613208      165.67938      199.32597      31.90407     
     10000   19.79064       2.7818009      165.3923       197.85322      31.349353    
     11000   19.62303       2.8016749      164.9337       197.16313      33.030695    
     12000   19.557513      2.4651002      164.6171       196.41171      33.010129    
     13000   19.180036      2.3519896      164.69855      195.81397      33.114163    
     14000   18.760766      2.1075748      165.10128      195.34352      32.574812    
     15000   18.779983      2.1833013      164.54976      194.89654      34.263729    
     16000   18.582179      2.2349319      164.2583       194.36007      35.334425    
     17000   18.734695      1.5684369      164.39125      194.05525      33.889       
     18000   18.416699      1.2923761      164.63821      193.54927      34.009985    
     19000   18.109329      1.454871       164.57452      193.18712      34.843618    
     20000   18.463455      1.1621729      163.9642       192.81518      35.127564    
     20157   18.074073      1.1201896      164.53681      192.76186      35.393348    
Loop time of 64.5477 on 1 procs for 20000 steps with 4339 atoms

Performance: 133854.451 tau/day, 309.848 timesteps/s, 1.344 Matom-step/s
97.3% CPU use with 1 MPI tasks x 1 OpenMP threads

MPI task timing breakdown:
Section |  min time  |  avg time  |  max time  |%varavg| %total
---------------------------------------------------------------
Pair    | 45.658     | 45.658     | 45.658     |   0.0 | 70.74
Bond    | 3.315      | 3.315      | 3.315      |   0.0 |  5.14
Neigh   | 14.351     | 14.351     | 14.351     |   0.0 | 22.23
Comm    | 0.60072    | 0.60072    | 0.60072    |   0.0 |  0.93
Output  | 0.00035    | 0.00035    | 0.00035    |   0.0 |  0.00
Modify  | 0.40578    | 0.40578    | 0.40578    |   0.0 |  0.63
Other   |            | 0.217      |            |       |  0.34

Nlocal:           4339 ave        4339 max        4339 min
Histogram: 1 0 0 0 0 0 0 0 0 0
Nghost:          12843 ave       12843 max       12843 min
Histogram: 1 0 0 0 0 0 0 0 0 0
Neighs:         697357 ave      697357 max      697357 min
Histogram: 1 0 0 0 0 0 0 0 0 0

Total # of neighbors = 697357
Ave neighs/atom = 160.71837
Ave special neighs/atom = 6.6042867
Neighbor list builds = 1125
Dangerous builds = 0
unfix           fxnve
unfix           1

write_restart   2.restart
System init for write_restart ...
Generated 0 of 1 mixed pair_coeff terms from geometric mixing rule
write_data      system_ramped.data
System init for write_data ...
Generated 0 of 1 mixed pair_coeff terms from geometric mixing rule
WARNING: Not all mixed pair coeffs generated from mixing. Use write_data with 'pair ij' option to store all pair coeffs. (src/write_data.cpp:364)
Total wall time: 0:01:04
